# ---------- Initialize Simulation --------------------- 
clear 
units metal 
dimension 3 
boundary p p s
atom_style atomic 
atom_modify map array
variable sigxy equal ${stress}
variable mpa_conversion equal 6.2415e-6


# ---------- Create Atoms --------------------- 

read_data EdgeRelaxed.lmp

variable surface_area equal $(lx)*$(ly)

variable stress_area equal ${sigxy}*${surface_area}
variable forceconversion equal ${stress_area}*${mpa_conversion}

variable surface_size equal 5-zlo
variable z_value equal zhi-${surface_size}



region bottom block EDGE EDGE EDGE EDGE EDGE 5 units box
region top block EDGE EDGE EDGE EDGE ${z_value} EDGE units box

group top region top 
group bottom region bottom 

variable ntop equal count(top)
variable nbottom equal count(bottom)



variable forcetop equal ${forceconversion}/${ntop}
variable forcebot equal ${forceconversion}/${nbottom}



fix forcetop top addforce  0.0 ${forcetop} 0.0 
fix forcebottom bottom addforce  0.0 -${forcebot} 0.0 

fix freeze_top top setforce 0 NULL 0
fix freeze_bottom bottom setforce 0 NULL 0

fix_modify forcetop energy yes
fix_modify forcebottom energy yes

mass 1 180.9479  # Atomic mass of Ta
mass 2 12.011    # Atomic mass of C


# ---------- Define Interatomic Potential --------------------- 

pair_style meam
pair_coeff * * ../library.meam Ta C ../TaC.meam Ta C


compute        peratom all pe/atom


thermo 1 
thermo_style custom step pe lx ly lz press pxy pyy pzz cellalpha cellbeta cellgamma
min_style cg
minimize 0 1e-5 10000 10000


fix_modify forcetop energy no
fix_modify forcebottom energy no

reset_timestep 0

# 1. Define the normalized energy variable
variable pe_per_atom equal pe/atoms

# 2. Print the variable to your YAML file
fix extra all print 1 """
- energy: ${pe_per_atom}
""" append energy.yaml screen no title ""

print "${surface_size}"
print "${surface_area}"
print "${ntop}"
print "${nbottom}"

run 0