ITEM: TIMESTEP
0
ITEM: NUMBER OF ATOMS
23952
ITEM: BOX BOUNDS pp pp ss
0.0000000000000000e+00 2.1824953608198122e+01
0.0000000000000000e+00 1.5120771408893131e+02
-4.0801162962028874e+00 7.5931819214235091e+01
ITEM: ATOMS id type x y z
6321 2 0.896713 1.54087 -0.859994
6329 2 2.70766 1.53808 -3.36767
192 1 1.78364 3.10459 -2.30538
6319 2 3.62493 3.10804 -0.86157
178 1 4.51165 1.53812 -2.30381
6291 2 6.35295 1.54087 -0.859994
6330 2 5.43589 3.10369 -3.36924
176 1 7.23988 3.10459 -2.30538
132 1 9.96789 1.53812 -2.30381
6294 2 8.1639 1.53808 -3.36767
6292 2 9.08117 3.10804 -0.86157
9598 2 10.8921 3.10369 -3.36924
6320 2 0.896977 4.67522 -0.864196
6325 2 2.70794 4.66931 -3.37185
188 1 1.78408 6.23755 -2.31165
6322 2 3.62533 6.2424 -0.867873
177 1 4.51194 4.67106 -2.30799
6285 2 6.35322 4.67522 -0.864196
6323 2 5.4363 6.23494 -3.37551
179 1 7.24032 6.23755 -2.31165
131 1 9.96818 4.67106 -2.30799
6293 2 8.16418 4.66931 -3.37185
6283 2 9.08157 6.2424 -0.867873
9599 2 10.8925 6.23494 -3.37551
6310 2 0.897505 7.8096 -0.8726
6324 2 2.70849 7.80059 -3.38022
189 1 1.78481 9.3706 -2.3221
6308 2 3.62599 9.37681 -0.878376
170 1 4.51253 7.80406 -2.31636
6284 2 6.35374 7.8096 -0.8726
6326 2 5.43698 9.36627 -3.38597
168 1 7.24105 9.3706 -2.3221
130 1 9.96877 7.80406 -2.31636
6288 2 8.16473 7.80059 -3.38022
6286 2 9.08222 9.37681 -0.878376
9596 2 10.8932 9.36627 -3.38597
6309 2 0.898294 10.9441 -0.885202
6314 2 2.70931 10.932 -3.39276
184 1 1.78585 12.5038 -2.33672
6311 2 3.6269 12.5113 -0.893077
169 1 4.51341 10.9372 -2.32889
6271 2 6.35453 10.9441 -0.885202
6312 2 5.43794 12.4977 -3.40059
171 1 7.24208 12.5038 -2.33672
123 1 9.96965 10.9372 -2.32889
6287 2 8.16555 10.932 -3.39276
6269 2 9.08314 12.5113 -0.893077
9597 2 10.8942 12.4977 -3.40059
6302 2 0.899339 14.0787 -0.902
6313 2 2.71041 14.0636 -3.40947
185 1 1.78723 15.6373 -2.35548
6300 2 3.62807 15.6461 -0.911974
156 1 4.5146 14.0705 -2.34559
6270 2 6.35558 14.0787 -0.902
6315 2 5.43919 15.6294 -3.41938
154 1 7.24347 15.6373 -2.35548
122 1 9.97084 14.0705 -2.34559
6274 2 8.16665 14.0636 -3.40947
6272 2 9.08431 15.6461 -0.911974
9595 2 10.8954 15.6294 -3.41938
6301 2 0.90062 17.2136 -0.92301
6303 2 2.71183 17.1954 -3.43033
575 1 1.78927 18.7713 -2.37854
6735 2 3.62945 18.7812 -0.935108
155 1 4.51627 17.2042 -2.36644
6253 2 6.35686 17.2136 -0.92301
6736 2 5.44079 18.7614 -3.44232
564 1 7.24551 18.7713 -2.37854
107 1 9.97251 17.2042 -2.36644
6273 2 8.16807 17.1954 -3.43033
6698 2 9.08569 18.7812 -0.935108
10008 2 10.897 18.7614 -3.44232
174 1 2.71156 1.54152 0.363042
6318 2 1.804 3.11245 1.69364
6281 2 4.53202 1.54362 1.69522
175 1 5.43978 3.10954 0.361465
6279 2 7.26024 3.11245 1.69364
129 1 8.1678 1.54152 0.363042
6228 2 9.98826 1.54362 1.69522
3258 1 10.896 3.10954 0.361465
166 1 2.71184 4.67756 0.358837
6306 2 1.80441 6.25012 1.68731
6280 2 4.53229 4.68128 1.691
164 1 5.4402 6.24559 0.355159
6282 2 7.26065 6.25012 1.68731
128 1 8.16808 4.67756 0.358837
6227 2 9.98853 4.68128 1.691
3259 1 10.8964 6.24559 0.355159
165 1 2.71239 7.81363 0.350429
6307 2 1.80509 9.38781 1.67677
6267 2 4.53284 7.81896 1.68257
167 1 5.44088 9.3817 0.344648
6265 2 7.26133 9.38781 1.67677
121 1 8.16862 7.81363 0.350429
6226 2 9.98907 7.81896 1.68257
3254 1 10.8971 9.3817 0.344648
152 1 2.71321 10.9498 0.337817
6298 2 1.80605 12.5256 1.66201
6266 2 4.53366 10.9567 1.66992
150 1 5.44184 12.5179 0.329937
6268 2 7.26229 12.5256 1.66201
120 1 8.16945 10.9498 0.337817
6219 2 9.98989 10.9567 1.66992
3255 1 10.8981 12.5179 0.329937
151 1 2.71431 14.0861 0.321006
6299 2 1.80727 15.6636 1.64301
6252 2 4.53475 14.0945 1.65304
153 1 5.44308 15.6544 0.311018
6250 2 7.26351 15.6636 1.64301
106 1 8.17054 14.0861 0.321006
6218 2 9.99098 14.0945 1.65304
3253 1 10.8993 15.6544 0.311018
141 1 2.71568 17.2227 0.29996
6725 2 1.80875 18.8018 1.61976
6251 2 4.5361 17.2326 1.63192
557 1 5.4446 18.7912 0.28783
6697 2 7.26498 18.8018 1.61976
105 1 8.17192 17.2227 0.29996
6203 2 9.99233 17.2326 1.63192
3646 1 10.9008 18.7912 0.28783
162 1 0.892815 1.54472 2.96193
160 1 3.62104 3.11439 2.96035
6277 2 2.71119 1.54683 4.263
159 1 1.80074 3.11984 5.54279
126 1 6.34905 1.54472 2.96193
114 1 4.52875 1.54854 5.54437
6278 2 5.43941 3.11731 4.26142
112 1 7.25698 3.11984 5.54279
127 1 9.07728 3.11439 2.96035
60 1 9.98499 1.54854 5.54437
6225 2 8.16743 1.54683 4.263
9568 2 10.8957 3.11731 4.26142
161 1 0.893094 4.68406 2.95771
163 1 3.62146 6.25373 2.95402
6263 2 2.71147 4.68778 4.25878
144 1 1.80117 6.26243 5.53647
118 1 6.34933 4.68406 2.95771
113 1 4.52904 4.69114 5.54016
6261 2 5.43983 6.25825 4.25509
115 1 7.2574 6.26243 5.53647
116 1 9.0777 6.25373 2.95402
59 1 9.98527 4.69114 5.54016
6224 2 8.16771 4.68778 4.25878
9569 2 10.8961 6.25825 4.25509
148 1 0.893654 7.8234 2.94927
146 1 3.62216 9.39309 2.94347
6262 2 2.71203 7.82872 4.25034
145 1 1.80188 9.405 5.52591
117 1 6.34989 7.8234 2.94927
99 1 4.52961 7.83371 5.53172
6264 2 5.44053 9.39919 4.24453
97 1 7.25812 9.405 5.52591
119 1 9.0784 9.39309 2.94347
58 1 9.98584 7.83371 5.53172
6217 2 8.16827 7.82872 4.25034
9560 2 10.8968 9.39919 4.24453
147 1 0.894497 10.9628 2.93661
149 1 3.62314 12.5325 2.92869
6248 2 2.71287 10.9697 4.23766
136 1 1.80289 12.5476 5.51111
103 1 6.35073 10.9628 2.93661
98 1 4.53047 10.9763 5.51904
6246 2 5.44152 12.5402 4.22974
100 1 7.25912 12.5476 5.51111
101 1 9.07938 12.5325 2.92869
51 1 9.9867 10.9763 5.51904
6216 2 8.16911 10.9697 4.23766
9561 2 10.8978 12.5402 4.22974
140 1 0.895623 14.1023 2.9197
138 1 3.62441 15.6721 2.90965
6247 2 2.714 14.1107 4.22074
137 1 1.80419 15.6902 5.49205
102 1 6.35186 14.1023 2.9197
84 1 4.53162 14.1189 5.50211
6249 2 5.44279 15.6813 4.21069
82 1 7.26042 15.6902 5.49205
9559 2 10.899 15.6813 4.21069
6202 2 8.17024 14.1107 4.22074
50 1 9.98786 14.1189 5.50211
104 1 9.08065 15.6721 2.90965
542 1 1.80578 18.833 5.46871
556 1 3.62595 18.812 2.88635
6237 2 2.71541 17.2518 4.19957
139 1 0.897029 17.242 2.89853
508 1 7.26202 18.833 5.46871
6684 2 5.44434 18.8225 4.18738
83 1 4.53307 17.2616 5.48091
85 1 6.35327 17.242 2.89853
9988 2 10.9006 18.8225 4.18738
509 1 9.08219 18.812 2.88635
6201 2 8.17165 17.2518 4.19957
36 1 9.9893 17.2616 5.48091
110 1 2.70845 1.55229 8.12094
6259 2 0.89068 1.55047 6.83482
6257 2 3.61891 3.12257 6.83325
6222 2 6.34692 1.55047 6.83482
111 1 5.43668 3.12521 8.11937
57 1 8.16469 1.55229 8.12094
6223 2 9.07515 3.12257 6.83325
3214 1 10.8929 3.12521 8.11937
95 1 2.70874 4.69811 8.11675
6258 2 0.890965 4.69466 6.83062
6260 2 3.61933 6.26673 6.82694
6214 2 6.3472 4.69466 6.83062
93 1 5.43711 6.27099 8.11307
56 1 8.16498 4.69811 8.11675
6212 2 9.07557 6.26673 6.82694
3215 1 10.8933 6.27099 8.11307
94 1 2.70931 7.84386 8.10834
6244 2 0.891531 7.8388 6.8222
6242 2 3.62004 9.41087 6.81641
6213 2 6.34777 7.8388 6.8222
96 1 5.43782 9.41672 8.10255
49 1 8.16555 7.84386 8.10834
6215 2 9.07628 9.41087 6.81641
3206 1 10.8941 9.41672 8.10255
80 1 2.71016 10.9896 8.0957
6243 2 0.892383 10.9829 6.80955
6245 2 3.62104 12.555 6.80164
6199 2 6.34862 10.9829 6.80955
78 1 5.43882 12.5624 8.0878
48 1 8.1664 10.9896 8.0957
6197 2 9.07728 12.555 6.80164
3207 1 10.8951 12.5624 8.0878
79 1 2.71132 14.1352 8.07882
6236 2 0.893527 14.127 6.79266
6234 2 3.62233 15.6991 6.78262
6198 2 6.34977 14.127 6.79266
81 1 5.44012 15.708 8.06879
35 1 8.16755 14.1352 8.07882
6200 2 9.07857 15.6991 6.78262
3205 1 10.8964 15.708 8.06879
69 1 2.71277 17.2808 8.05768
6235 2 0.894966 17.2711 6.77151
6683 2 3.62392 18.8432 6.75935
6184 2 6.3512 17.2711 6.77151
493 1 5.44173 18.8536 8.04552
34 1 8.16901 17.2808 8.05768
3613 1 10.898 18.8536 8.04552
6629 2 9.08016 18.8432 6.75935
91 1 0.888425 1.55605 10.695
6206 2 2.70686 1.55793 11.9801
6256 2 1.79872 3.12787 9.40601
89 1 3.61665 3.13055 10.6935
6210 2 4.52673 1.55417 9.40757
54 1 6.34466 1.55605 10.695
6208 2 7.25496 3.12787 9.40601
6207 2 5.43508 3.1332 11.9786
6168 2 9.98297 1.55417 9.40757
6165 2 8.1631 1.55793 11.9801
55 1 9.07289 3.13055 10.6935
9502 2 10.8913 3.1332 11.9786
90 1 0.888702 4.70504 10.6909
6191 2 2.70712 4.70846 11.976
6240 2 1.79913 6.27521 9.39974
92 1 3.61706 6.2795 10.6872
6209 2 4.52701 4.70155 9.4034
46 1 6.34494 4.70504 10.6909
6211 2 7.25537 6.27521 9.39974
6189 2 5.43547 6.28369 11.9724
6167 2 9.98325 4.70155 9.4034
6164 2 8.16336 4.70846 11.976
44 1 9.0733 6.2795 10.6872
9503 2 10.8917 6.28369 11.9724
6241 2 1.79983 9.42248 9.38927
76 1 0.889247 7.85393 10.6825
6190 2 2.70765 7.85889 11.9677
74 1 3.61774 9.42834 10.6768
6195 2 4.52756 7.84886 9.39504
6193 2 7.25606 9.42248 9.38927
45 1 6.34549 7.85393 10.6825
6192 2 5.43612 9.43405 11.962
6166 2 9.9838 7.84886 9.39504
6158 2 8.16388 7.85889 11.9677
47 1 9.07398 9.42834 10.6768
9494 2 10.8924 9.43405 11.962
6232 2 1.8008 12.5697 9.37458
75 1 0.89007 11.0027 10.67
6179 2 2.70843 11.0092 11.9553
77 1 3.61871 12.5771 10.6621
6194 2 4.5284 10.9961 9.38246
6196 2 7.25704 12.5697 9.37458
32 1 6.34631 11.0027 10.67
6177 2 5.43705 12.5843 11.9475
6160 2 9.98464 10.9961 9.38246
6157 2 8.16467 11.0092 11.9553
30 1 9.07495 12.5771 10.6621
9495 2 10.8933 12.5843 11.9475
6233 2 1.80207 15.7167 9.35567
68 1 0.891181 14.1514 10.6532
6178 2 2.70949 14.1593 11.9386
66 1 3.61997 15.7256 10.6433
6183 2 4.52952 14.1432 9.36566
6181 2 7.25831 15.7167 9.35567
31 1 6.34742 14.1514 10.6532
6180 2 5.43825 15.7343 11.9287
6159 2 9.98576 14.1432 9.36566
6151 2 8.16573 14.1593 11.9386
33 1 9.07621 15.7256 10.6433
9493 2 10.8945 15.7343 11.9287
67 1 0.892592 17.2998 10.6322
6172 2 2.71085 17.3092 11.9178
6663 2 1.80365 18.8637 9.33253
492 1 3.62153 18.874 10.6202
6182 2 4.53094 17.2902 9.34463
21 1 6.34883 17.2998 10.6322
6628 2 7.25989 18.8637 9.33253
6613 2 5.43976 18.884 11.9058
6152 2 9.98718 17.2902 9.34463
6150 2 8.16709 17.3092 11.9178
437 1 9.07777 18.874 10.6202
9926 2 10.896 18.884 11.9058
38 1 2.70554 1.56369 15.8395
6187 2 0.887306 1.56174 14.5521
88 1 1.79692 3.13592 13.2662
6185 2 3.61552 3.13858 14.5506
42 1 4.52494 1.55985 13.2677
6162 2 6.34354 1.56174 14.5521
39 1 5.43375 3.14132 15.838
40 1 7.25316 3.13592 13.2662
9 1 8.16178 1.56369 15.8395
12 1 9.98118 1.55985 13.2677
6163 2 9.07176 3.13858 14.5506
3142 1 10.89 3.14132 15.838
24 1 2.70577 4.71891 15.8355
6186 2 0.887547 4.71539 14.5481
72 1 1.7973 6.28798 13.2601
6188 2 3.61587 6.29216 14.5445
41 1 4.5252 4.71197 13.2637
6155 2 6.34379 4.71539 14.5481
22 1 5.43408 6.29647 15.832
43 1 7.25354 6.28798 13.2601
8 1 8.16201 4.71891 15.8355
11 1 9.98144 4.71197 13.2637
6153 2 9.07211 6.29216 14.5445
3143 1 10.8903 6.29647 15.832
23 1 2.70621 7.87399 15.8274
6175 2 0.888017 7.8689 14.5399
6173 2 3.61646 9.4456 14.5343
73 1 1.79793 9.43991 13.2497
28 1 4.5257 7.86397 13.2554
6154 2 6.34426 7.8689 14.5399
26 1 7.25417 9.43991 13.2497
5 1 8.16245 7.87399 15.8274
10 1 9.98194 7.86397 13.2554
6156 2 9.0727 9.4456 14.5343
6174 2 0.888727 11.0222 14.5276
16 1 2.70688 11.0289 15.8152
6176 2 3.6173 12.5988 14.5199
64 1 1.79882 12.5916 13.2353
6148 2 6.34497 11.0222 14.5276
27 1 4.52646 11.0158 13.243
25 1 5.43464 9.45145 15.8218
29 1 7.25506 12.5916 13.2353
6146 2 9.07353 12.5988 14.5199
7 1 9.9827 11.0158 13.243
4 1 8.16312 11.0289 15.8152
3134 1 10.8909 9.45145 15.8218
65 1 1.79999 15.7431 13.2166
6171 2 0.889691 14.1753 14.5112
15 1 2.70779 14.1834 15.7989
18 1 7.25623 15.7431 13.2166
6147 2 6.34593 14.1753 14.5112
20 1 4.52749 14.1674 13.2265
14 1 5.43542 12.6062 15.8076
3135 1 10.8917 12.6062 15.8076
2 1 8.16403 14.1834 15.7989
6 1 9.98373 14.1674 13.2265
13 1 2.70896 17.3377 15.7785
6170 2 0.890926 17.3281 14.4907
6169 2 3.61839 15.7518 14.5014
471 1 1.80146 18.8943 13.1938
17 1 5.43646 15.7606 15.7892
19 1 4.52881 17.3188 13.2057
6145 2 6.34716 17.3281 14.4907
436 1 7.2577 18.8943 13.1938
3133 1 10.8927 15.7606 15.7892
1 1 8.1652 17.3377 15.7785
3 1 9.98505 17.3188 13.2057
6149 2 9.07463 15.7518 14.5014
382 1 0.88648 1.56759 18.4105
6528 2 1.79628 3.14398 17.122
380 1 3.61467 3.14675 18.4091
6514 2 4.52432 1.5656 17.1235
359 1 6.34272 1.56759 18.4105
6512 2 7.25252 3.14398 17.122
6468 2 9.98056 1.5656 17.1235
360 1 9.07091 3.14675 18.4091
381 1 0.886668 4.72588 18.4066
6513 2 4.52453 4.72234 17.1195
355 1 6.34291 4.72588 18.4066
6467 2 9.98076 4.72234 17.1195
6524 2 1.79658 6.30065 17.116
375 1 0.887033 7.88402 18.3986
383 1 3.61495 6.30498 18.4031
6506 2 4.52493 7.87892 17.1115
354 1 6.34327 7.88402 18.3986
6515 2 7.25282 6.30065 17.116
353 1 9.07119 6.30498 18.4031
6466 2 9.98117 7.87892 17.1115
6525 2 1.79709 9.45714 17.1059
374 1 0.887586 11.0419 18.3866
373 1 3.6154 9.463 18.3931
6505 2 4.52554 11.0353 17.0994
343 1 6.34382 11.0419 18.3866
6504 2 7.25333 9.45714 17.1059
356 1 9.07164 9.463 18.3931
6459 2 9.98178 11.0353 17.0994
6520 2 1.7978 12.6134 17.0918
368 1 0.888343 14.1995 18.3706
376 1 3.61606 12.6207 18.3791
342 1 6.34458 14.1995 18.3706
6492 2 4.52637 14.1913 17.0832
6507 2 7.25404 12.6134 17.0918
341 1 9.0723 12.6207 18.3791
6458 2 9.9826 14.1913 17.0832
6521 2 1.79875 15.7692 17.0736
367 1 0.889324 17.3566 18.3506
366 1 3.61692 15.7781 18.3611
325 1 6.34556 17.3566 18.3506
6491 2 4.52744 17.347 17.063
6490 2 7.25499 15.7692 17.0736
344 1 9.07316 15.7781 18.3611
6443 2 9.98367 17.347 17.063
6510 2 2.70544 1.56951 19.6941
6498 2 0.886926 1.57347 22.2639
351 1 4.52401 1.57152 20.9808
6462 2 6.34316 1.57347 22.2639
6511 2 5.43362 3.14943 19.6926
6465 2 8.16168 1.56951 19.6941
300 1 9.98025 1.57152 20.9808
9786 2 10.8899 3.14943 19.6926
6502 2 2.7056 4.72932 19.6902
379 1 1.79594 3.15222 20.9793
6497 2 0.887043 4.73634 22.2601
6496 2 3.61509 3.15492 22.2625
350 1 4.52415 4.73288 20.9769
6454 2 6.34328 4.73634 22.2601
349 1 7.25218 3.15222 20.9793
6464 2 8.16184 4.72932 19.6902
299 1 9.98039 4.73288 20.9769
6463 2 9.07133 3.15492 22.2625
6501 2 2.70592 7.88896 19.6823
371 1 1.79615 6.31351 20.9735
6484 2 0.887271 7.89903 22.2524
6499 2 3.61526 6.31771 22.2568
6500 2 5.43386 6.30917 19.6867
339 1 4.52443 7.89407 20.9691
6453 2 6.34351 7.89903 22.2524
352 1 7.25239 6.31351 20.9735
6457 2 8.16216 7.88896 19.6823
298 1 9.98067 7.89407 20.9691
6452 2 9.0715 6.31771 22.2568
9787 2 10.8901 6.30917 19.6867
6488 2 2.70641 11.0484 19.6704
372 1 1.7965 9.47458 20.9637
6483 2 0.887619 11.0615 22.2408
6482 2 3.61555 9.48029 22.2471
6503 2 5.43426 9.4687 19.6769
338 1 4.52485 11.055 20.9573
6439 2 6.34386 11.0615 22.2408
337 1 7.25274 9.47458 20.9637
6456 2 8.16265 11.0484 19.6704
291 1 9.98108 11.055 20.9573
6455 2 9.07179 9.48029 22.2471
9782 2 10.8905 9.4687 19.6769
6487 2 2.70707 14.2074 19.6546
364 1 1.797 12.6353 20.95
6476 2 0.888099 14.2235 22.2253
6485 2 3.61596 12.6425 22.2335
6486 2 5.43484 12.6279 19.663
324 1 4.52542 14.2156 20.9417
6438 2 6.34434 14.2235 22.2253
340 1 7.25323 12.6353 20.95
6442 2 8.16331 14.2074 19.6546
290 1 9.98166 14.2156 20.9417
6437 2 9.0722 12.6425 22.2335
9783 2 10.8911 12.6279 19.663
6477 2 2.70794 17.366 19.6348
365 1 1.79766 15.7957 20.9324
6475 2 0.888731 17.3851 22.2059
6474 2 3.61651 15.8044 22.2161
6489 2 5.4356 15.7868 19.6452
323 1 4.52618 17.3756 20.9221
6421 2 6.34497 17.3851 22.2059
322 1 7.2539 15.7957 20.9324
6441 2 8.16418 17.366 19.6348
275 1 9.98242 17.3756 20.9221
6440 2 9.07275 15.8044 22.2161
9781 2 10.8918 15.7868 19.6452
347 1 2.70568 1.57551 23.5502
6450 2 4.52504 1.57748 24.833
297 1 8.16192 1.57551 23.5502
6396 2 9.98128 1.57748 24.833
335 1 2.70577 4.73992 23.5465
6495 2 1.79695 3.16045 24.8316
348 1 5.43383 3.15773 23.5488
6449 2 4.52511 4.7434 24.8293
6448 2 7.25319 3.16045 24.8316
296 1 8.16201 4.73992 23.5465
6395 2 9.98135 4.7434 24.8293
3441 1 10.8901 3.15773 23.5488
334 1 2.70595 7.90416 23.5388
6480 2 1.79705 6.3263 24.826
333 1 5.43397 6.32207 23.5431
6435 2 4.52524 7.90914 24.8217
6451 2 7.25329 6.3263 24.826
289 1 8.16219 7.90416 23.5388
6394 2 9.98148 7.90914 24.8217
3442 1 10.8902 6.32207 23.5431
320 1 2.70622 11.0681 23.5273
6481 2 1.79721 9.49192 24.8165
336 1 5.43419 9.48619 23.5335
6434 2 4.52544 11.0746 24.8104
6433 2 7.25345 9.49192 24.8165
288 1 8.16246 11.0681 23.5273
6387 2 9.98168 11.0746 24.8104
3434 1 10.8904 9.48619 23.5335
319 1 2.70661 14.2317 23.512
6472 2 1.79746 12.6572 24.8033
6436 2 7.25369 12.6572 24.8033
6420 2 4.52573 14.2397 24.7952
318 1 5.43452 12.65 23.5201
3435 1 10.8908 12.65 23.5201
6386 2 9.98197 14.2397 24.7952
274 1 8.16284 14.2317 23.512
6473 2 1.79778 15.8221 24.7862
309 1 2.70711 17.3948 23.4928
6418 2 7.25402 15.8221 24.7862
6419 2 4.52611 17.4043 24.7763
321 1 5.43496 15.8133 23.5029
3433 1 10.8912 15.8133 23.5029
6372 2 9.98235 17.4043 24.7763
273 1 8.16335 17.3948 23.4928
331 1 0.887755 1.57954 26.1189
6446 2 2.70735 1.58153 27.4013
294 1 6.34399 1.57954 26.1189
282 1 4.52651 1.5836 28.6868
234 1 9.98275 1.5836 28.6868
6393 2 8.16359 1.58153 27.4013
330 1 0.887796 4.747 26.1152
329 1 3.61589 3.16328 26.1175
328 1 1.79839 3.16887 28.6855
6431 2 2.70736 4.75049 27.3977
286 1 6.34403 4.747 26.1152
281 1 4.5265 4.75411 28.6832
6447 2 5.43547 3.16602 27.4
280 1 7.25463 3.16887 28.6855
295 1 9.07213 3.16328 26.1175
233 1 9.98274 4.75411 28.6832
6392 2 8.1636 4.75049 27.3977
9742 2 10.8917 3.16602 27.4
316 1 0.887875 7.91429 26.1077
332 1 3.61595 6.33067 26.112
312 1 1.79837 6.33932 28.68
6430 2 2.7074 7.9193 27.3903
285 1 6.34411 7.91429 26.1077
267 1 4.52648 7.92447 28.6759
6429 2 5.4355 6.33492 27.3945
283 1 7.25461 6.33932 28.68
284 1 9.07219 6.33067 26.112
232 1 9.98272 7.92447 28.6759
6385 2 8.16364 7.9193 27.3903
9743 2 10.8917 6.33492 27.3945
315 1 0.888 11.0813 26.0965
314 1 3.61605 9.49784 26.1026
313 1 1.79835 9.50956 28.6708
6416 2 2.70745 11.0878 27.3792
271 1 6.34424 11.0813 26.0965
266 1 4.52646 11.0946 28.6648
6432 2 5.43554 9.50361 27.3852
265 1 7.25459 9.50956 28.6708
287 1 9.07229 9.49784 26.1026
225 1 9.9827 11.0946 28.6648
6384 2 8.16369 11.0878 27.3792
9734 2 10.8918 9.50361 27.3852
308 1 0.888178 14.248 26.0815
317 1 3.6162 12.6647 26.0894
304 1 1.79833 12.6795 28.6579
6415 2 2.70754 14.256 27.3643
270 1 6.34442 14.248 26.0815
253 1 4.52644 14.2643 28.6501
6414 2 5.43561 12.672 27.3722
268 1 7.25457 12.6795 28.6579
269 1 9.07244 12.6647 26.0894
224 1 9.98268 14.2643 28.6501
6371 2 8.16378 14.256 27.3643
9735 2 10.8918 12.672 27.3722
307 1 0.888425 17.4141 26.0628
306 1 3.61641 15.8311 26.0726
305 1 1.79831 15.849 28.6414
6405 2 2.70766 17.4237 27.3458
254 1 6.34466 17.4141 26.0628
252 1 4.52643 17.4336 28.6318
6417 2 5.43571 15.84 27.3555
251 1 7.25455 15.849 28.6414
272 1 9.07265 15.8311 26.0726
213 1 9.98266 17.4336 28.6318
6370 2 8.1639 17.4237 27.3458
9733 2 10.892 15.84 27.3555
278 1 2.7095 1.5877 31.2539
6423 2 1.80148 0.00215133 32.5359
6427 2 0.890107 1.58561 29.9688
277 1 5.43763 0.000889283 31.2542
6378 2 4.52959 1.58972 32.5355
6390 2 6.34635 1.58561 29.9688
6388 2 7.25772 0.00215133 32.5359
231 1 8.16574 1.5877 31.2539
6348 2 9.98583 1.58972 32.5355
3398 1 10.8939 0.000889283 31.2542
263 1 2.70944 4.76127 31.2503
6424 2 1.80144 3.17728 32.5342
6426 2 0.890075 4.75763 29.9653
6425 2 3.61821 3.17164 29.9675
279 1 5.43759 3.1745 31.2526
6377 2 4.52951 4.76482 32.532
6382 2 6.34631 4.75763 29.9653
6376 2 7.25768 3.17728 32.5342
230 1 8.16568 4.76127 31.2503
6347 2 9.98575 4.76482 32.532
6391 2 9.07445 3.17164 29.9675
3382 1 10.8938 3.1745 31.2526
262 1 2.70933 7.9347 31.2432
6408 2 1.80133 6.35232 32.5289
6412 2 0.890015 7.92951 29.958
6428 2 3.61817 6.3436 29.9621
261 1 5.43751 6.34801 31.2472
6364 2 4.52937 7.93978 32.5249
6381 2 6.34625 7.92951 29.958
6379 2 7.25757 6.35232 32.5289
223 1 8.16557 7.9347 31.2432
6346 2 9.98561 7.93978 32.5249
6380 2 9.07441 6.3436 29.9621
3383 1 10.8937 6.34801 31.2472
249 1 2.70917 11.1079 31.2323
6409 2 1.80115 9.52719 32.5199
6411 2 0.88993 11.1011 29.9471
6410 2 3.61809 9.51536 29.953
264 1 5.43738 9.52134 31.2382
6363 2 4.52916 11.1145 32.5141
6368 2 6.34617 11.1011 29.9471
6362 2 7.25739 9.52719 32.5199
222 1 8.16541 11.1079 31.2323
6343 2 9.98539 11.1145 32.5141
6383 2 9.07433 9.51536 29.953
3374 1 10.8936 9.52134 31.2382
248 1 2.70896 14.2808 31.2179
6400 2 1.8009 12.7018 32.5074
6404 2 0.889823 14.2725 29.9325
6413 2 3.618 12.6869 29.9403
247 1 5.43719 12.6944 31.2256
6356 2 4.52887 14.289 32.4998
6367 2 6.34606 14.2725 29.9325
6365 2 7.25714 12.7018 32.5074
212 1 8.1652 14.2808 31.2179
6342 2 9.98511 14.289 32.4998
6366 2 9.07424 12.6869 29.9403
3375 1 10.8934 12.6944 31.2256
240 1 2.70871 17.4533 31.1999
6401 2 1.80059 15.8761 32.4913
6403 2 0.8897 17.4433 29.9144
6402 2 3.61788 15.8579 29.9239
250 1 5.43696 15.8671 31.2094
6355 2 4.52853 17.4631 32.482
6357 2 6.34594 17.4433 29.9144
6354 2 7.25683 15.8761 32.4913
211 1 8.16495 17.4533 31.1999
6339 2 9.98476 17.4631 32.482
6369 2 9.07412 15.8579 29.9239
3373 1 10.8932 15.8671 31.2094
259 1 0.892985 1.59183 33.8201
6374 2 2.71335 1.59387 35.1013
276 1 3.62112 0.00349037 33.8204
228 1 6.34922 1.59183 33.8201
6373 2 5.44149 0.00475922 35.1017
227 1 9.07736 0.00349037 33.8204
6345 2 8.16959 1.59387 35.1013
9686 2 10.8977 0.00475922 35.1017
258 1 0.892885 4.76847 33.8166
6360 2 2.71324 4.77204 35.0979
257 1 3.62107 3.18016 33.8188
220 1 6.34912 4.76847 33.8166
6375 2 5.44143 3.18296 35.1
229 1 9.0773 3.18016 33.8188
6344 2 8.16948 4.77204 35.0979
9670 2 10.8977 3.18296 35.1
260 1 3.62092 6.35675 33.8135
245 1 0.892695 7.94499 33.8096
6359 2 2.71302 7.95011 35.0908
6358 2 5.44126 6.36109 35.0948
219 1 6.34893 7.94499 33.8096
6341 2 8.16926 7.95011 35.0908
218 1 9.07716 6.35675 33.8135
9671 2 10.8975 6.36109 35.0948
243 1 3.62069 9.53318 33.8047
6352 2 2.71269 11.128 35.0802
244 1 0.892414 11.1213 33.7989
6361 2 5.44099 9.53908 35.086
209 1 6.34865 11.1213 33.7989
6340 2 8.16893 11.128 35.0802
221 1 9.07692 9.53318 33.8047
9662 2 10.8972 9.53908 35.086
246 1 3.62036 12.7094 33.7922
6351 2 2.71226 14.3056 35.0661
239 1 0.89204 14.2974 33.7847
6350 2 5.44061 12.7169 35.0736
208 1 6.34828 14.2974 33.7847
6338 2 8.1685 14.3056 35.0661
207 1 9.0766 12.7094 33.7922
9663 2 10.8968 12.7169 35.0736
238 1 0.891571 17.4731 33.767
6349 2 2.71172 17.483 35.0485
237 1 3.61994 15.8853 33.7763
202 1 6.34781 17.4731 33.767
6353 2 5.44012 15.8944 35.0577
9661 2 10.8964 15.8944 35.0577
210 1 9.07618 15.8853 33.7763
6337 2 8.16796 17.483 35.0485
6550 2 0.897654 1.59803 37.6662
12857 1 2.71781 1.60017 38.95
255 1 1.80514 0.00610916 36.3858
6552 2 3.6258 0.00738107 37.6666
6539 2 6.35389 1.59803 37.6662
12856 1 5.44595 0.00873855 38.9503
216 1 4.53324 1.59599 36.3855
226 1 7.26138 0.00610916 36.3858
6538 2 9.08204 0.00738107 37.6666
12822 1 8.17405 1.60017 38.95
198 1 9.98948 1.59599 36.3855
15684 1 10.9022 0.00873855 38.9503
6549 2 0.897507 4.77931 37.6628
12853 1 2.71764 4.783 38.9466
256 1 1.80507 3.18586 36.3842
6548 2 3.62572 3.18868 37.665
6536 2 6.35375 4.77931 37.6628
12858 1 5.44586 3.19159 38.9487
215 1 4.5331 4.77571 36.3821
214 1 7.26131 3.18586 36.3842
6540 2 9.08195 3.18868 37.665
12821 1 8.17388 4.783 38.9466
197 1 9.98934 4.77571 36.3821
15682 1 10.9021 3.19159 38.9487
6546 2 0.897229 7.9605 37.6559
12852 1 2.71733 7.96576 38.9396
241 1 1.80487 6.36554 36.379
6551 2 3.6255 6.36992 37.6598
6535 2 6.35347 7.9605 37.6559
12851 1 5.44563 6.37439 38.9435
205 1 4.53285 7.95534 36.3751
217 1 7.26111 6.36554 36.379
6534 2 9.08174 6.36992 37.6598
12816 1 8.17357 7.96576 38.9396
196 1 9.98908 7.95534 36.3751
15683 1 10.9019 6.37439 38.9435
6545 2 0.896816 11.1415 37.6454
12842 1 2.71687 11.1484 38.9292
242 1 1.80455 9.5451 36.3702
6544 2 3.62516 9.55104 37.6511
6532 2 6.35305 11.1415 37.6454
12854 1 5.44524 9.5571 38.9348
204 1 4.53246 11.1348 36.3645
203 1 7.26079 9.5451 36.3702
6537 2 9.0814 9.55104 37.6511
12815 1 8.17311 11.1484 38.9292
195 1 9.9887 11.1348 36.3645
15680 1 10.9015 9.5571 38.9348
6543 2 0.896263 14.3224 37.6314
12841 1 2.71626 14.3309 38.9152
235 1 1.80411 12.7245 36.3579
6547 2 3.62468 12.732 37.6388
6531 2 6.3525 14.3224 37.6314
12840 1 5.4447 12.7397 38.9226
201 1 4.53195 14.3141 36.3505
206 1 7.26034 12.7245 36.3579
6530 2 9.08091 12.732 37.6388
12802 1 8.17249 14.3309 38.9152
194 1 9.98819 14.3141 36.3505
15681 1 10.9009 12.7397 38.9226
6542 2 0.895564 17.503 37.614
12831 1 2.71547 17.5132 38.8979
236 1 1.80353 15.9036 36.3422
6541 2 3.62405 15.9128 37.6231
6529 2 6.3518 17.503 37.614
12843 1 5.444 15.9221 38.907
200 1 4.53131 17.4931 36.333
199 1 7.25977 15.9036 36.3422
6533 2 9.08029 15.9128 37.6231
12801 1 8.17171 17.5132 38.8979
193 1 9.98754 17.4931 36.333
15679 1 10.9002 15.9221 38.907
18479 2 1.81067 0.0100099 40.2306
12849 1 0.902948 1.60436 41.5135
12855 1 3.6311 0.0113717 41.5139
18466 2 4.53876 1.60222 40.2303
12819 1 6.35919 1.60436 41.5135
18468 2 7.2669 0.0100099 40.2306
12818 1 9.08734 0.0113717 41.5139
18420 2 9.995 1.60222 40.2303
18480 2 1.81057 3.19442 40.229
12848 1 0.902765 4.79032 41.5102
12847 1 3.631 3.19734 41.5123
18465 2 4.53859 4.78661 40.2269
12813 1 6.359 4.79032 41.5102
18464 2 7.26681 3.19442 40.229
12820 1 9.08723 3.19734 41.5123
18419 2 9.99483 4.78661 40.2269
18476 2 1.81033 6.37879 40.2239
12838 1 0.902418 7.97624 41.5033
12850 1 3.63073 6.38329 41.5072
18458 2 4.53826 7.97095 40.22
12812 1 6.35866 7.97624 41.5033
18467 2 7.26656 6.37879 40.2239
12811 1 9.08697 6.38329 41.5072
18418 2 9.9945 7.97095 40.22
18477 2 1.80993 9.56308 40.2152
12837 1 0.901903 11.1621 41.4928
12836 1 3.6303 9.56917 41.4985
18457 2 4.53778 11.1552 40.2095
12799 1 6.35814 11.1621 41.4928
18456 2 7.26616 9.56308 40.2152
12814 1 9.08654 9.56917 41.4985
18411 2 9.99402 11.1552 40.2095
18472 2 1.80937 12.7473 40.203
12830 1 0.901213 14.3478 41.4789
12839 1 3.6297 12.755 41.4863
12798 1 6.35745 14.3478 41.4789
18444 2 4.53714 14.3393 40.1956
18459 2 7.2656 12.7473 40.203
12797 1 9.08594 12.755 41.4863
18410 2 9.99338 14.3393 40.1956
18473 2 1.80864 15.9313 40.1873
12829 1 0.900339 17.5335 41.4616
12828 1 3.62892 15.9407 41.4707
12781 1 6.35658 17.5335 41.4616
18443 2 4.53633 17.5233 40.1782
18442 2 7.26488 15.9313 40.1873
12800 1 9.08516 15.9407 41.4707
18395 2 9.99257 17.5233 40.1782
18462 2 2.7242 1.60641 42.7934
12845 1 1.81683 0.014002 44.0765
18450 2 0.910243 1.61062 45.3556
18461 2 5.45235 0.012639 42.7938
18460 2 3.63839 0.0152619 45.356
12809 1 4.54492 1.60856 44.0762
18414 2 6.36648 1.61062 45.3556
12817 1 7.27307 0.014002 44.0765
18417 2 8.18044 1.60641 42.7934
12756 1 10.0012 1.60856 44.0762
18413 2 9.09463 0.0152619 45.356
21298 2 10.9086 0.012639 42.7938
18454 2 2.72402 4.79396 42.79
12846 1 1.81672 3.20312 44.075
18449 2 0.910049 4.80133 45.3522
18463 2 5.45225 3.20019 42.7922
12808 1 4.54472 4.79768 44.0728
18406 2 6.36629 4.80133 45.3522
18448 2 3.63829 3.20598 45.3543
12807 1 7.27296 3.20312 44.075
18416 2 8.18026 4.79396 42.79
12755 1 10.001 4.79768 44.0728
18415 2 9.09452 3.20598 45.3543
21294 2 10.9085 3.20019 42.7922
18453 2 2.72366 7.98147 42.7831
12834 1 1.81644 6.39223 44.0698
18436 2 0.90968 7.99204 45.3453
18452 2 5.45198 6.38772 42.787
12795 1 4.54435 7.98678 44.0659
18405 2 6.36592 7.99204 45.3453
18451 2 3.63801 6.39669 45.3492
12810 1 7.27268 6.39223 44.0698
18409 2 8.1799 7.98147 42.7831
12754 1 10.0006 7.98678 44.0659
18404 2 9.09424 6.39669 45.3492
21295 2 10.9082 6.38772 42.787
18440 2 2.72314 11.1689 42.7727
12835 1 1.81598 9.58132 44.0611
18435 2 0.909136 11.1827 45.3348
18455 2 5.45154 9.5752 42.7783
12794 1 4.5438 11.1758 44.0554
18391 2 6.36537 11.1827 45.3348
18434 2 3.63755 9.58739 45.3405
12793 1 7.27222 9.58132 44.0611
18408 2 8.17938 11.1689 42.7727
12747 1 10 11.1758 44.0554
18407 2 9.09379 9.58739 45.3405
21290 2 10.9078 9.5752 42.7783
18439 2 2.72244 14.3563 42.7587
12826 1 1.81534 12.7704 44.0489
18428 2 0.908412 14.3734 45.3208
18437 2 3.63692 12.7781 45.3282
18438 2 5.45093 12.7626 42.7661
12780 1 4.54307 14.3649 44.0415
18390 2 6.36465 14.3734 45.3208
12796 1 7.27158 12.7704 44.0489
18394 2 8.17868 14.3563 42.7587
12746 1 9.99931 14.3649 44.0415
18389 2 9.09315 12.7781 45.3282
21291 2 10.9072 12.7626 42.7661
18429 2 2.72156 17.5436 42.7414
12827 1 1.81452 15.9594 44.0332
18427 2 0.907503 17.5641 45.3033
18426 2 3.6361 15.9687 45.3125
18441 2 5.45015 15.95 42.7505
12779 1 4.54215 17.5539 44.0241
18374 2 6.36374 17.5641 45.3033
12778 1 7.27076 15.9594 44.0332
18393 2 8.1778 17.5436 42.7414
12731 1 9.99839 17.5539 44.0241
18392 2 9.09234 15.9687 45.3125
21289 2 10.9064 15.95 42.7505
12787 1 0.918177 1.61698 49.1987
12805 1 2.73124 1.61277 46.6379
12844 1 0.00315652 0.0166232 46.6383
18446 2 1.82504 0.0178727 47.9172
12750 1 6.37441 1.61698 49.1987
12803 1 3.64633 0.0192295 49.199
12804 1 5.45939 0.0166232 46.6383
18402 2 4.55312 1.61482 47.9168
12749 1 9.10257 0.0192295 49.199
12753 1 8.18748 1.61277 46.6379
18354 2 10.0094 1.61482 47.9168
18412 2 7.28127 0.0178727 47.9172
12786 1 0.917978 4.8125 49.1953
12791 1 2.73104 4.80508 46.6345
12832 1 0.00304604 3.20892 46.6367
18447 2 1.82493 3.21178 47.9156
12742 1 6.37422 4.8125 49.1953
12785 1 3.64622 3.21474 49.1974
12806 1 5.45928 3.20892 46.6367
18401 2 4.55293 4.80874 47.9134
12751 1 9.10246 3.21474 49.1974
12752 1 8.18728 4.80508 46.6345
18353 2 10.0092 4.80874 47.9134
18400 2 7.28117 3.21178 47.9156
12772 1 0.917603 8.00805 49.1882
12790 1 2.73067 7.99739 46.6276
12833 1 0.00275752 6.40123 46.6315
18432 2 1.82464 6.40571 47.9104
12741 1 6.37384 8.00805 49.1882
12788 1 3.64593 6.41027 49.1922
12789 1 5.459 6.40123 46.6315
18387 2 4.55256 8.00268 47.9064
12740 1 9.10217 6.41027 49.1922
12745 1 8.1869 7.99739 46.6276
18352 2 10.0088 8.00268 47.9064
18403 2 7.28088 6.40571 47.9104
12771 1 0.917051 11.2036 49.1776
12776 1 2.73011 11.1897 46.6171
12824 1 0.00229013 9.59354 46.6228
18433 2 1.82418 9.59965 47.9016
12727 1 6.37329 11.2036 49.1776
12770 1 3.64547 9.60584 49.1834
12792 1 5.45853 9.59354 46.6228
18386 2 4.55201 11.1966 47.8959
12743 1 9.10171 9.60584 49.1834
12744 1 8.18635 11.1897 46.6171
18345 2 10.0082 11.1966 47.8959
18385 2 7.28042 9.59965 47.9016
12764 1 0.916323 14.3993 49.1635
12775 1 2.72937 14.382 46.603
12825 1 0.00164151 12.7859 46.6105
18424 2 1.82355 12.7936 47.8893
12726 1 6.37256 14.3993 49.1635
12773 1 3.64483 12.8014 49.171
12774 1 5.45788 12.7859 46.6105
18373 2 4.55128 14.3906 47.8818
12725 1 9.10107 12.8014 49.171
12730 1 8.18561 14.382 46.603
18344 2 10.0075 14.3906 47.8818
18388 2 7.27979 12.7936 47.8893
12763 1 0.915419 17.595 49.1457
12765 1 2.72844 17.5744 46.5855
12823 1 0.000807803 15.9782 46.5947
18425 2 1.82274 15.9876 47.8734
12712 1 6.37166 17.595 49.1457
12762 1 3.64401 15.9971 49.1551
12777 1 5.45705 15.9782 46.5947
18372 2 4.55038 17.5847 47.8641
12728 1 9.10025 15.9971 49.1551
12729 1 8.18468 17.5744 46.5855
18333 2 10.0066 17.5847 47.8641
18371 2 7.27897 15.9876 47.8734
12783 1 1.83387 0.0218156 51.7589
18398 2 2.74037 1.61903 50.4771
18445 2 0.0122857 0.0204657 50.4775
12738 1 4.56196 1.62118 51.7585
18397 2 5.46852 0.0204657 50.4775
12696 1 10.0182 1.62118 51.7585
12748 1 7.29011 0.0218156 51.7589
18351 2 8.19661 1.61903 50.4771
12784 1 1.83376 3.22056 51.7572
18383 2 2.74018 4.81617 50.4737
18430 2 0.0121799 3.2176 50.4758
12737 1 4.56177 4.81995 51.755
18399 2 5.46842 3.2176 50.4758
12695 1 10.018 4.81995 51.755
12736 1 7.29 3.22056 51.7572
18350 2 8.19642 4.81617 50.4737
12768 1 1.83348 6.41934 51.7519
18382 2 2.73981 8.01336 50.4666
18431 2 0.0118999 6.41476 50.4706
12723 1 4.5614 8.01876 51.7479
18381 2 5.46814 6.41476 50.4706
12694 1 10.0176 8.01876 51.7479
12739 1 7.28972 6.41934 51.7519
18343 2 8.19605 8.01336 50.4666
12769 1 1.83303 9.61819 51.743
18369 2 2.73928 11.2106 50.4559
18422 2 0.0114479 9.61197 50.4617
12722 1 4.56086 11.2176 51.7372
18384 2 5.46769 9.61197 50.4617
12688 1 10.0171 11.2176 51.7372
12721 1 7.28927 9.61819 51.743
18342 2 8.19552 11.2106 50.4559
12760 1 1.83242 12.8171 51.7305
18368 2 2.73857 14.4079 50.4417
18423 2 0.0108264 12.8092 50.4493
12711 1 4.56017 14.4166 51.7229
18367 2 5.46706 12.8092 50.4493
12687 1 10.0164 14.4166 51.7229
12724 1 7.28865 12.8171 51.7305
18332 2 8.19481 14.4079 50.4417
12761 1 1.83164 16.0162 51.7143
18360 2 2.7377 17.6053 50.4238
18421 2 0.0100383 16.0066 50.4332
12710 1 4.55931 17.6158 51.7049
18370 2 5.46628 16.0066 50.4332
12680 1 10.0155 17.6158 51.7049
12709 1 7.28788 16.0162 51.7143
18331 2 8.19394 17.6053 50.4238
12734 1 2.75011 1.62537 54.3173
12782 1 0.0220212 0.0243768 54.3177
18375 2 1.84485 0.025579 55.5951
18379 2 0.928233 1.62322 53.0364
12733 1 5.47826 0.0243768 54.3177
18336 2 4.57294 1.62739 55.5947
18348 2 6.38447 1.62322 53.0364
18396 2 3.65638 0.023036 53.0368
12693 1 8.20635 1.62537 54.3173
18318 2 10.0292 1.62739 55.5947
18346 2 7.30109 0.025579 55.5951
18347 2 9.11262 0.023036 53.0368
12719 1 2.74993 4.8274 54.3138
12766 1 0.0219202 3.22638 54.316
18376 2 1.84475 3.22922 55.5934
18378 2 0.928046 4.82362 53.0329
12735 1 5.47816 3.22638 54.316
18335 2 4.57276 4.83107 55.5912
18340 2 6.38428 4.82362 53.0329
18377 2 3.65628 3.22341 53.0351
12692 1 8.20616 4.8274 54.3138
18317 2 10.029 4.83107 55.5912
18334 2 7.30099 3.22922 55.5934
18349 2 9.11252 3.22341 53.0351
12718 1 2.74957 8.0295 54.3066
12767 1 0.0216509 6.42844 54.3107
18361 2 1.84449 6.43293 55.588
18365 2 0.927691 8.02408 53.0258
12717 1 5.47789 6.42844 54.3107
18325 2 4.57242 8.03482 55.584
18339 2 6.38393 8.02408 53.0258
18380 2 3.65601 6.42384 53.0298
12686 1 8.20581 8.0295 54.3066
18316 2 10.0287 8.03482 55.584
18337 2 7.30073 6.43293 55.588
18338 2 9.11225 6.42384 53.0298
12707 1 2.74906 11.2317 54.2958
12758 1 0.0212183 9.63058 54.3017
18362 2 1.84407 9.63673 55.579
18364 2 0.927174 11.2246 53.015
12720 1 5.47746 9.63058 54.3017
18324 2 4.57192 11.2387 55.573
18329 2 6.38341 11.2246 53.015
18363 2 3.65557 9.62433 53.0208
12685 1 8.2053 11.2317 54.2958
18315 2 10.0282 11.2387 55.573
18323 2 7.30031 9.63673 55.579
18341 2 9.11181 9.62433 53.0208
12706 1 2.7484 14.434 54.2812
12759 1 0.0206301 12.8328 54.289
18355 2 1.8435 12.8406 55.5662
18359 2 0.926499 14.4253 53.0005
12705 1 5.47687 12.8328 54.289
18321 2 4.57128 14.4427 55.5584
18328 2 6.38274 14.4253 53.0005
18366 2 3.65497 12.8249 53.0082
12679 1 8.20464 14.434 54.2812
18314 2 10.0275 14.4427 55.5584
18326 2 7.29974 12.8406 55.5662
18327 2 9.11121 12.8249 53.0082
18358 2 0.925677 17.6261 52.9824
18356 2 1.84279 16.0447 55.5496
12757 1 0.0198964 16.0352 54.2726
12700 1 2.7476 17.6365 54.2629
18357 2 3.65423 16.0256 52.9919
18322 2 6.38192 17.6261 52.9824
18320 2 4.57051 17.6469 55.5399
12708 1 5.47613 16.0352 54.2726
18330 2 9.11046 16.0256 52.9919
18319 2 7.29903 16.0447 55.5496
18313 2 10.0268 17.6469 55.5399
12678 1 8.20384 17.6365 54.2629
18665 2 2.76201 1.63155 58.1521
18672 2 0.0339165 0.0280908 58.1525
12715 1 0.938871 1.62954 56.8752
18664 2 5.49015 0.0280908 58.1525
12690 1 6.39511 1.62954 56.8752
12732 1 3.66702 0.0269096 56.8756
18630 2 8.21825 1.63155 58.1521
12689 1 9.12326 0.0269096 56.8756
18661 2 2.76184 4.83851 58.1485
18670 2 0.0338248 3.23502 58.1507
12714 1 0.938693 4.83486 56.8716
18666 2 5.49006 3.23502 58.1507
12683 1 6.39493 4.83486 56.8716
12713 1 3.66692 3.23219 56.8738
18629 2 8.21808 4.83851 58.1485
12691 1 9.12316 3.23219 56.8738
18660 2 2.76151 8.04556 58.1411
18671 2 0.0335729 6.44202 58.1453
12703 1 0.938356 8.04026 56.8643
18659 2 5.48981 6.44202 58.1453
12682 1 6.39459 8.04026 56.8643
12716 1 3.66666 6.43755 56.8684
18624 2 8.21775 8.04556 58.1411
12681 1 9.1229 6.43755 56.8684
18650 2 2.76103 11.2527 58.1301
18668 2 0.0331685 9.64913 58.1361
12702 1 0.937867 11.2458 56.8533
18662 2 5.48941 9.64913 58.1361
12676 1 6.39411 11.2458 56.8533
12701 1 3.66625 9.643 56.8593
18623 2 8.21727 11.2527 58.1301
12684 1 9.12249 9.643 56.8593
18649 2 2.76042 14.4601 58.1152
18669 2 0.0326236 12.8564 58.1231
12699 1 0.937241 14.4514 56.8386
18648 2 5.48886 12.8564 58.1231
12675 1 6.39348 14.4514 56.8386
12704 1 3.66569 12.8486 56.8464
18610 2 8.21666 14.4601 58.1152
12674 1 9.12193 12.8486 56.8464
18639 2 2.7597 17.6676 58.0964
18667 2 0.0319547 16.0638 58.1063
12698 1 0.936494 17.6573 56.82
18651 2 5.48819 16.0638 58.1063
12673 1 6.39273 17.6573 56.82
12697 1 3.665 16.0544 56.8298
18609 2 8.21594 17.6676 58.0964
12677 1 9.12124 16.0544 56.8298
13031 1 1.85637 0.0294131 59.4325
13014 1 2.77441 1.63783 61.9881
13030 1 0.0463151 0.0318967 61.9886
18657 2 0.951677 1.63567 60.7084
13018 1 4.58447 1.63369 59.4321
13013 1 5.50255 0.0318967 61.9886
18627 2 6.40792 1.63567 60.7084
18663 2 3.67982 0.0305671 60.7089
12972 1 10.0407 1.63369 59.4321
13020 1 7.31261 0.0294131 59.4325
12969 1 8.23065 1.63783 61.9881
18626 2 9.13606 0.0305671 60.7089
13032 1 1.85628 3.23799 59.4307
13006 1 2.77424 4.84974 61.9844
13026 1 0.046228 3.24377 61.9868
18656 2 0.95151 4.84592 60.7048
13017 1 4.5843 4.84231 59.4284
13015 1 5.50247 3.24377 61.9868
18621 2 6.40775 4.84592 60.7048
18655 2 3.67973 3.24078 60.7071
12971 1 10.0405 4.84231 59.4284
13016 1 7.31252 3.23799 59.4307
12968 1 8.23048 4.84974 61.9844
18628 2 9.13597 3.24078 60.7071
13028 1 1.85603 6.44665 59.4252
13005 1 2.77392 8.06176 61.977
13027 1 0.0459826 6.45574 61.9812
18646 2 0.951188 8.05628 60.6973
13010 1 4.58397 8.05102 59.4211
13004 1 5.50222 6.45574 61.9812
18620 2 6.40743 8.05628 60.6973
18658 2 3.67949 6.45108 60.7015
12970 1 10.0402 8.05102 59.4211
13019 1 7.31227 6.44665 59.4252
12961 1 8.23016 8.06176 61.977
18619 2 9.13573 6.45108 60.7015
13029 1 1.85563 9.65542 59.416
12992 1 2.77346 11.2739 61.9657
13022 1 0.0455886 9.66782 61.9718
18645 2 0.950724 11.2668 60.6861
13009 1 4.5835 11.2599 59.4099
13007 1 5.50183 9.66782 61.9718
18607 2 6.40696 11.2668 60.6861
18644 2 3.67909 9.6615 60.6922
12963 1 10.0397 11.2599 59.4099
13008 1 7.31187 9.65542 59.416
12960 1 8.2297 11.2739 61.9657
18622 2 9.13533 9.6615 60.6922
13024 1 1.8551 12.8643 59.4029
12991 1 2.77287 14.4863 61.9505
13023 1 0.0450616 12.8801 61.9586
18638 2 0.950134 14.4774 60.671
12996 1 4.5829 14.4689 59.395
12990 1 5.5013 12.8801 61.9586
18606 2 6.40637 14.4774 60.671
18647 2 3.67856 12.8721 60.679
12962 1 10.0391 14.4689 59.395
13011 1 7.31134 12.8643 59.4029
12946 1 8.22911 14.4863 61.9505
18605 2 9.1348 12.8721 60.679
13025 1 1.85444 16.0735 59.386
12981 1 2.77219 17.6989 61.9314
13021 1 0.0444233 16.0926 61.9414
18637 2 0.94944 17.6884 60.652
12995 1 4.5822 17.6781 59.3761
12993 1 5.50066 16.0926 61.9414
18589 2 6.40568 17.6884 60.652
18636 2 3.67792 16.0829 60.662
12947 1 10.0384 17.6781 59.3761
12994 1 7.31068 16.0735 59.386
12945 1 8.22843 17.6989 61.9314
18608 2 9.13416 16.0829 60.662
13002 1 0.96489 1.64199 64.5436
18613 2 2.78896 1.64374 65.8177
18652 2 0.0608618 0.035369 65.8182
18653 2 1.87007 0.0330011 63.2642
12966 1 6.42113 1.64199 64.5436
13012 1 3.69303 0.0344144 64.5441
18612 2 5.5171 0.035369 65.8182
18617 2 4.59816 1.63974 63.2637
12965 1 9.14927 0.0344144 64.5441
18561 2 8.2452 1.64374 65.8177
18564 2 10.0544 1.63974 63.2637
18625 2 7.32631 0.0330011 63.2642
13001 1 0.964723 4.8572 64.5398
18599 2 2.78879 4.86055 65.8139
18640 2 0.060777 3.25213 65.8163
18654 2 1.86998 3.2465 63.2623
12958 1 6.42096 4.8572 64.5398
13000 1 3.69295 3.24958 64.5422
18614 2 5.51702 3.25213 65.8163
18616 2 4.598 4.85328 63.26
12967 1 9.14918 3.24958 64.5422
18560 2 8.24503 4.86055 65.8139
18563 2 10.0542 4.85328 63.26
18615 2 7.32622 3.2465 63.2623
12988 1 0.964399 8.07252 64.5323
18598 2 2.78847 8.07748 65.8063
18641 2 0.0605287 6.46899 65.8106
18642 2 1.86974 6.46009 63.2567
12957 1 6.42064 8.07252 64.5323
13003 1 3.6927 6.46484 64.5365
18597 2 5.51677 6.46899 65.8106
18603 2 4.59768 8.06693 63.2525
12956 1 9.14894 6.46484 64.5365
18553 2 8.2447 8.07748 65.8063
18562 2 10.0539 8.06693 63.2525
18618 2 7.32598 6.46009 63.2567
12987 1 0.96393 11.288 64.5209
18584 2 2.78799 11.2946 65.7948
18632 2 0.0601259 9.686 65.8011
18643 2 1.86934 9.67381 63.2473
12943 1 6.42017 11.288 64.5209
12986 1 3.6923 9.68024 64.5271
18600 2 5.51636 9.686 65.8011
18602 2 4.59722 11.2807 63.2411
12959 1 9.14854 9.68024 64.5271
18552 2 8.24423 11.2946 65.7948
18555 2 10.0535 11.2807 63.2411
18601 2 7.32558 9.67381 63.2473
12980 1 0.963337 14.5037 64.5055
18583 2 2.78738 14.5119 65.7794
18633 2 0.0595832 12.9032 65.7876
18634 2 1.86882 12.8877 63.2339
12942 1 6.41958 14.5037 64.5055
12989 1 3.69177 12.8958 64.5137
18582 2 5.51582 12.9032 65.7876
18588 2 4.59663 14.4947 63.2258
12941 1 9.14801 12.8958 64.5137
18538 2 8.24362 14.5119 65.7794
18554 2 10.0529 14.4947 63.2258
18604 2 7.32505 12.8877 63.2339
12979 1 0.962645 17.7196 64.4861
18573 2 2.78667 17.7295 65.7599
18631 2 0.0589218 16.1206 65.7701
18635 2 1.86818 16.1018 63.2167
12926 1 6.41888 17.7196 64.4861
12978 1 3.69112 16.1116 64.4963
18585 2 5.51516 16.1206 65.7701
18587 2 4.59594 17.709 63.2065
12944 1 9.14736 16.1116 64.4963
18537 2 8.24291 17.7295 65.7599
18539 2 10.0522 17.709 63.2065
18586 2 7.32441 16.1018 63.2167
12998 1 1.88388 0.0372301 67.0999
18595 2 0.98019 1.64755 68.3696
12954 1 4.61198 1.64644 67.0995
18558 2 6.43643 1.64755 68.3696
18611 2 3.70833 0.0375676 68.3701
12906 1 10.0682 1.64644 67.0995
12964 1 7.34012 0.0372301 67.0999
18557 2 9.16457 0.0375676 68.3701
12999 1 1.88379 3.25567 67.098
18594 2 0.980017 4.86759 68.3658
12953 1 4.61181 4.86493 67.0956
18550 2 6.43626 4.86759 68.3658
18593 2 3.70824 3.25756 68.3682
12905 1 10.068 4.86493 67.0956
12952 1 7.34003 3.25567 67.098
18559 2 9.16448 3.25756 68.3682
12984 1 1.88354 6.47422 67.0923
18580 2 0.979675 8.08776 68.3581
12939 1 4.61147 8.08354 67.088
18549 2 6.43591 8.08776 68.3581
18596 2 3.70799 6.47766 68.3624
12904 1 10.0677 8.08354 67.088
12955 1 7.33978 6.47422 67.0923
18548 2 9.16422 6.47766 68.3624
12985 1 1.88313 9.69291 67.0827
18579 2 0.979175 11.3081 68.3465
12938 1 4.61098 11.3023 67.0764
18535 2 6.43541 11.3081 68.3465
18578 2 3.70756 9.69792 68.3528
12897 1 10.0672 11.3023 67.0764
12937 1 7.33937 9.69291 67.0827
18551 2 9.1638 9.69792 68.3528
12976 1 1.88257 12.9118 67.0692
18572 2 0.978533 14.5287 68.3309
12925 1 4.61036 14.5213 67.0609
18534 2 6.43477 14.5287 68.3309
18581 2 3.70699 12.9184 68.3392
12896 1 10.0666 14.5213 67.0609
12940 1 7.33881 12.9118 67.0692
18533 2 9.16323 12.9184 68.3392
12977 1 1.88189 16.1309 67.0516
18571 2 0.977771 17.7496 68.3112
12924 1 4.60963 17.7406 67.0413
18520 2 6.43401 17.7496 68.3112
18570 2 3.70628 16.1391 68.3216
12885 1 10.0659 17.7406 67.0413
12923 1 7.33812 16.1309 67.0516
18536 2 9.16252 16.1391 68.3216
12931 1 0.988375 1.65436 72.2352
12950 1 2.80246 1.65036 69.6591
12997 1 0.0743644 0.0395154 69.6596
18591 2 1.89965 0.039176 70.917
12900 1 6.44461 1.65436 72.2352
12948 1 3.71652 0.0418256 72.2357
12949 1 5.5306 0.0395154 69.6596
18546 2 4.62775 1.65075 70.9165
12899 1 9.17276 0.0418256 72.2357
12903 1 8.2587 1.65036 69.6591
18504 2 10.084 1.65075 70.9165
18556 2 7.35589 0.039176 70.917
12930 1 0.988171 4.87949 72.2313
12935 1 2.80228 4.87213 69.6552
12982 1 0.0742728 3.26123 69.6576
18592 2 1.89956 3.26234 70.9151
12892 1 6.44441 4.87949 72.2313
12929 1 3.71642 3.26691 72.2338
12951 1 5.53051 3.26123 69.6576
18545 2 4.62756 4.87396 70.9126
12901 1 9.17266 3.26691 72.2338
12902 1 8.25852 4.87213 69.6552
18503 2 10.0838 4.87396 70.9126
18544 2 7.3558 3.26234 70.9151
12917 1 0.987767 8.10475 72.2236
12934 1 2.80192 8.09403 69.6475
12983 1 0.0740003 6.48306 69.6519
18576 2 1.89928 6.48562 70.9093
12891 1 6.44401 8.10475 72.2236
12932 1 3.71611 6.4921 72.2279
12933 1 5.53024 6.48306 69.6519
18531 2 4.6272 8.09733 70.9049
12890 1 9.17235 6.4921 72.2279
12895 1 8.25816 8.09403 69.6475
18502 2 10.0834 8.09733 70.9049
18547 2 7.35552 6.48562 70.9093
12916 1 0.987168 11.3302 72.2119
12921 1 2.80139 11.3161 69.6359
12974 1 0.0735537 9.70504 69.6422
18577 2 1.89883 9.70908 70.8996
12881 1 6.44341 11.3302 72.2119
12915 1 3.71561 9.71745 72.2182
12936 1 5.52979 9.70504 69.6422
18530 2 4.62666 11.3209 70.8932
12893 1 9.17185 9.71745 72.2182
12894 1 8.25763 11.3161 69.6359
18496 2 10.0829 11.3209 70.8932
18529 2 7.35507 9.70908 70.8996
12911 1 0.986387 14.5558 72.1961
12920 1 2.80071 14.5384 69.6202
12975 1 0.0729455 12.9272 69.6286
18568 2 1.89821 12.9328 70.8859
12880 1 6.44263 14.5558 72.1961
12918 1 3.71492 12.943 72.2045
12919 1 5.52918 12.9272 69.6286
18519 2 4.62596 14.5447 70.8775
12879 1 9.17116 12.943 72.2045
12884 1 8.25694 14.5384 69.6202
18495 2 10.0822 14.5447 70.8775
18532 2 7.35445 12.9328 70.8859
12910 1 0.985443 17.7817 72.1763
12912 1 2.79989 17.761 69.6005
12973 1 0.0721948 16.1496 69.6109
18569 2 1.89744 16.1568 70.8682
12874 1 6.44168 17.7817 72.1763
12909 1 3.71405 16.1687 72.1867
12922 1 5.52843 16.1496 69.6109
18518 2 4.62512 17.7689 70.8577
12882 1 9.17029 16.1687 72.1867
12883 1 8.25613 17.761 69.6005
18488 2 10.0814 17.7689 70.8577
18517 2 7.35368 16.1568 70.8682
12927 1 1.84396 0.0478925 74.8871
18523 2 0.980136 1.65947 75.9233
18542 2 2.81744 1.65351 73.4487
18590 2 0.0893456 0.0403813 73.4492
12888 1 4.57204 1.66261 74.8866
18498 2 6.43637 1.65947 75.9233
18540 2 3.70829 0.0444942 75.9238
18541 2 5.54558 0.0403813 73.4492
12870 1 10.0283 1.66261 74.8866
12898 1 7.30019 0.0478925 74.8871
18497 2 9.16452 0.0444942 75.9238
18501 2 8.27368 1.65351 73.4487
12928 1 1.84382 3.27733 74.8851
18522 2 0.979898 4.88949 75.9194
18527 2 2.81724 4.87985 73.4448
18574 2 0.0892453 3.26666 73.4473
12887 1 4.57178 4.89207 74.8827
18491 2 6.43614 4.88949 75.9194
18521 2 3.70817 3.27447 75.9219
18543 2 5.54548 3.26666 73.4473
12869 1 10.028 4.89207 74.8827
12886 1 7.30006 3.27733 74.8851
18499 2 9.1644 3.27447 75.9219
18500 2 8.27348 4.87985 73.4448
12913 1 1.84343 6.50682 74.8793
18511 2 0.979421 8.11962 75.9116
18526 2 2.81684 8.10635 73.437
18575 2 0.0889455 6.49307 73.4414
12877 1 4.57126 8.12158 74.8749
18490 2 6.43566 8.11962 75.9116
18524 2 3.70781 6.50454 75.916
18525 2 5.54518 6.49307 73.4414
12868 1 10.0275 8.12158 74.8749
12889 1 7.29967 6.50682 74.8793
18489 2 9.16405 6.50454 75.916
18494 2 8.27308 8.10635 73.437
12914 1 1.84278 9.73635 74.8695
18510 2 0.978709 11.3499 75.8998
18515 2 2.81625 11.3331 73.4253
18566 2 0.0884495 9.71968 73.4317
12876 1 4.57048 11.3511 74.8631
18484 2 6.43495 11.3499 75.8998
18509 2 3.70721 9.73474 75.9062
18528 2 5.54469 9.71968 73.4317
12867 1 10.0267 11.3511 74.8631
12875 1 7.29902 9.73635 74.8695
18492 2 9.16345 9.73474 75.9062
18493 2 8.27249 11.3331 73.4253
12907 1 1.84188 12.9659 74.8558
18507 2 0.977769 14.5804 75.8839
18514 2 2.81547 14.5601 73.4095
18567 2 0.0877641 12.9466 73.4179
12873 1 4.56947 14.5807 74.8474
18483 2 6.43401 14.5804 75.8839
18512 2 3.70639 12.9651 75.8924
18513 2 5.544 12.9466 73.4179
12866 1 10.0257 14.5807 74.8474
12878 1 7.29812 12.9659 74.8558
18482 2 9.16262 12.9651 75.8924
18487 2 8.27171 14.5601 73.4095
12908 1 1.84076 16.1954 74.8379
18506 2 0.976618 17.811 75.864
18508 2 2.81453 17.7875 73.3896
18565 2 0.086902 16.1738 73.4001
12872 1 4.56824 17.8102 74.8274
18481 2 6.43286 17.811 75.864
18505 2 3.70534 16.1957 75.8745
18516 2 5.54314 16.1738 73.4001
12865 1 10.0245 17.8102 74.8274
12871 1 7.297 16.1954 74.8379
18485 2 9.16158 16.1957 75.8745
18486 2 8.27077 17.7875 73.3896
6729 2 0.902099 20.3489 -0.948255
6737 2 2.7136 20.3277 -3.45534
576 1 1.79199 21.9059 -2.40582
6727 2 3.63103 21.9168 -0.962428
562 1 4.51868 20.3385 -2.39168
6699 2 6.35834 20.3489 -0.948255
6738 2 5.44273 21.8942 -3.46936
560 1 7.24823 21.9059 -2.40582
516 1 9.97492 20.3385 -2.39168
6702 2 8.16984 20.3277 -3.45534
6700 2 9.08727 21.9168 -0.962428
10006 2 10.899 21.8942 -3.46936
6728 2 0.903779 23.4849 -0.977614
6733 2 2.71571 23.4609 -3.48438
572 1 1.79525 25.0416 -2.43711
6730 2 3.63281 25.0531 -0.993795
561 1 4.52167 23.4736 -2.42097
6693 2 6.36002 23.4849 -0.977614
6731 2 5.44499 25.028 -3.50037
563 1 7.25149 25.0416 -2.43711
515 1 9.97791 23.4736 -2.42097
6701 2 8.17194 23.4609 -3.48438
6691 2 9.08905 25.0531 -0.993795
10007 2 10.9012 25.028 -3.50037
6718 2 0.905637 26.6217 -1.01095
6732 2 2.71812 26.5953 -3.51731
573 1 1.7991 28.1786 -2.47228
6716 2 3.63474 28.1905 -1.02905
554 1 4.52522 26.6099 -2.45423
6692 2 6.36188 26.6217 -1.01095
6734 2 5.44755 28.163 -3.53517
552 1 7.25533 28.1786 -2.47228
514 1 9.98146 26.6099 -2.45423
6696 2 8.17436 26.5953 -3.51731
6694 2 9.09098 28.1905 -1.02905
10004 2 10.9038 28.163 -3.53517
6717 2 0.907639 29.7597 -1.04807
6722 2 2.72082 29.7312 -3.55392
568 1 1.80355 31.3173 -2.5111
6719 2 3.6368 31.3293 -1.06797
553 1 4.52937 29.7477 -2.49126
6679 2 6.36388 29.7597 -1.04807
6720 2 5.4504 31.2998 -3.57352
555 1 7.25979 31.3173 -2.5111
507 1 9.9856 29.7477 -2.49126
6695 2 8.17706 29.7312 -3.55392
6677 2 9.09304 31.3293 -1.06797
10005 2 10.9066 31.2998 -3.57352
6710 2 0.909745 32.8992 -1.08869
6721 2 2.72381 32.8689 -3.59392
569 1 1.80864 34.458 -2.55323
540 1 4.53414 32.8874 -2.53178
6678 2 6.36598 32.8992 -1.08869
6708 2 3.63894 34.4696 -1.1102
6723 2 5.45352 34.4387 -3.61506
538 1 7.26488 34.458 -2.55323
506 1 9.99038 32.8874 -2.53178
6682 2 8.18005 32.8689 -3.59392
6680 2 9.09518 34.4696 -1.1102
10003 2 10.9098 34.4387 -3.61506
6709 2 0.911916 36.0406 -1.13241
6711 2 2.72705 36.0091 -3.63688
959 1 1.81434 37.6013 -2.5982
7152 2 0.000642023 37.5802 -3.65931
539 1 4.53954 36.0293 -2.57539
6661 2 6.36815 36.0406 -1.13241
7143 2 3.64113 37.6121 -1.15527
7144 2 5.45688 37.5802 -3.65931
948 1 7.27058 37.6013 -2.5982
491 1 9.99578 36.0293 -2.57539
6681 2 8.18329 36.0091 -3.63688
7106 2 9.09737 37.6121 -1.15527
558 1 2.71734 20.3598 0.274643
6726 2 1.81047 21.9404 1.5923
6689 2 4.53769 20.371 1.60655
559 1 5.44639 21.9285 0.260421
6687 2 7.2667 21.9404 1.5923
513 1 8.17358 20.3598 0.274643
6636 2 9.99393 20.371 1.60655
3642 1 10.9026 21.9285 0.260421
550 1 2.71927 23.4974 0.24518
6714 2 1.81242 25.0796 1.56072
6688 2 4.53953 23.5099 1.57701
548 1 5.44844 25.0665 0.228935
6690 2 7.26866 25.0796 1.56072
512 1 8.1755 23.4974 0.24518
6635 2 9.99577 23.5099 1.57701
3643 1 10.9047 25.0665 0.228935
549 1 2.72144 26.6359 0.211708
6715 2 1.81458 28.2195 1.5252
6675 2 4.54159 26.6494 1.54344
551 1 5.45073 28.2055 0.193524
6673 2 7.27082 28.2195 1.5252
505 1 8.17768 26.6359 0.211708
6634 2 9.99783 26.6494 1.54344
3638 1 10.907 28.2055 0.193524
536 1 2.72384 29.7754 0.174413
6706 2 1.81692 31.3604 1.48595
6674 2 4.54385 29.7898 1.50602
534 1 5.45323 31.3457 0.154414
6676 2 7.27316 31.3604 1.48595
504 1 8.18007 29.7754 0.174413
6627 2 10.0001 29.7898 1.50602
3639 1 10.9095 31.3457 0.154414
535 1 2.72643 32.9163 0.133574
6707 2 1.81939 34.5026 1.44331
6660 2 4.54626 32.9313 1.46503
537 1 5.4559 34.4874 0.111946
490 1 8.18266 32.9163 0.133574
6626 2 10.0025 32.9313 1.46503
6658 2 7.27563 34.5026 1.44331
3637 1 10.9121 34.4874 0.111946
525 1 2.72917 36.0589 0.0895941
958 1 0.00246625 37.631 0.0665913
7133 2 1.82196 37.6463 1.39774
6659 2 4.54879 36.0742 1.42086
941 1 5.4587 37.631 0.0665913
489 1 8.18541 36.0589 0.0895941
6611 2 10.005 36.0742 1.42086
7105 2 7.2782 37.6463 1.39774
546 1 0.89871 20.382 2.8731
544 1 3.62777 21.9521 2.8588
6685 2 2.7171 20.3932 4.17415
543 1 1.80767 21.9758 5.44112
510 1 6.35495 20.382 2.8731
498 1 4.53481 20.4044 5.45544
6686 2 5.44617 21.9639 4.15986
496 1 7.26391 21.9758 5.44112
511 1 9.08401 21.9521 2.8588
444 1 9.99105 20.4044 5.45544
6633 2 8.17334 20.3932 4.17415
9976 2 10.9024 21.9639 4.15986
545 1 0.900659 23.5224 2.84346
547 1 3.62985 25.0927 2.82711
6671 2 2.71906 23.5348 4.14454
528 1 1.80986 25.1189 5.40935
502 1 6.3569 23.5224 2.84346
497 1 4.53685 23.5474 5.42575
6669 2 5.44826 25.1057 4.12819
499 1 7.26609 25.1189 5.40935
500 1 9.08609 25.0927 2.82711
443 1 9.99308 23.5474 5.42575
6632 2 8.1753 23.5348 4.14454
9977 2 10.9045 25.1057 4.12819
532 1 0.902865 26.6633 2.80976
530 1 3.63218 28.234 2.79143
6670 2 2.72129 26.6768 4.11085
529 1 1.81232 28.2624 5.37353
501 1 6.3591 26.6633 2.80976
483 1 4.53917 26.6906 5.39194
6672 2 5.45062 28.248 4.09253
481 1 7.26856 28.2624 5.37353
503 1 9.08841 28.234 2.79143
442 1 9.99541 26.6906 5.39194
6625 2 8.17753 26.6768 4.11085
9968 2 10.9069 28.248 4.09253
531 1 0.905303 29.8049 2.77215
533 1 3.63472 31.3761 2.75196
6656 2 2.72376 29.8193 4.07326
520 1 1.81505 31.4062 5.33387
487 1 6.36154 29.8049 2.77215
482 1 4.54178 29.8342 5.35416
6654 2 5.4532 31.3909 4.05308
484 1 7.27129 31.4062 5.33387
485 1 9.09096 31.3761 2.75196
435 1 9.99802 29.8342 5.35416
6624 2 8.18 29.8193 4.07326
9969 2 10.9094 31.3909 4.05308
524 1 0.90794 32.9475 2.73091
522 1 3.63744 34.5193 2.70905
6655 2 2.72645 32.9626 4.03203
521 1 1.81801 34.5507 5.29065
486 1 6.36418 32.9475 2.73091
468 1 4.54462 32.9784 5.31268
6657 2 5.45598 34.5346 4.01017
466 1 7.27425 34.5507 5.29065
488 1 9.09368 34.5193 2.70905
434 1 10.0009 32.9784 5.31268
6610 2 8.18269 32.9626 4.03203
9967 2 10.9122 34.5346 4.01017
523 1 0.910733 36.0914 2.68643
6645 2 2.7293 36.1068 3.98755
926 1 1.82114 37.696 5.24432
7132 2 0.00265909 37.6794 3.96424
469 1 6.36697 36.0914 2.68643
467 1 4.54767 36.1232 5.26784
940 1 3.64029 37.6638 2.66314
7092 2 5.4589 37.6794 3.96424
420 1 10.0039 36.1232 5.26784
6609 2 8.18554 36.1068 3.98755
893 1 9.09653 37.6638 2.66314
892 1 7.27738 37.696 5.24432
494 1 2.71453 20.4264 8.03229
6667 2 0.896706 20.4153 6.74613
6665 2 3.62581 21.9874 6.73185
6630 2 6.35294 20.4153 6.74613
495 1 5.44366 21.9991 8.01801
3598 1 10.8999 21.9991 8.01801
441 1 8.17077 20.4264 8.03229
6631 2 9.08205 21.9874 6.73185
479 1 2.71662 23.5719 8.00268
6666 2 0.898748 23.5595 6.71654
6668 2 3.628 25.1317 6.7002
6622 2 6.35499 23.5595 6.71654
477 1 5.4459 25.1446 7.98632
3599 1 10.9021 25.1446 7.98632
440 1 8.17286 23.5719 8.00268
6620 2 9.08424 25.1317 6.7002
478 1 2.71903 26.7173 7.96894
6652 2 0.901092 26.7038 6.68285
6649 2 1.81031 28.3037 9.23814
6650 2 3.63049 28.2761 6.66452
6621 2 6.35733 26.7038 6.68285
480 1 5.44847 28.2901 7.95055
6601 2 7.26655 28.3037 9.23814
3590 1 10.9047 28.2901 7.95055
433 1 8.17526 26.7173 7.96894
6623 2 9.08673 28.2761 6.66452
464 1 2.72175 29.8628 7.93119
6651 2 0.903726 29.8484 6.64522
6640 2 1.81319 31.4501 9.19871
6653 2 3.63326 31.4207 6.62499
6602 2 4.53983 29.8769 9.2189
6607 2 6.35996 29.8484 6.64522
462 1 5.45134 31.4356 7.91088
6604 2 7.26943 31.4501 9.19871
3591 1 10.9076 31.4356 7.91088
432 1 8.17799 29.8628 7.93119
6568 2 9.99607 29.8769 9.2189
6605 2 9.0895 31.4207 6.62499
463 1 2.72477 33.0084 7.88966
6644 2 0.906626 32.9932 6.60387
6641 2 1.81637 34.5964 9.15565
6642 2 3.63628 34.5658 6.58191
6591 2 4.54286 33.0232 9.17761
6606 2 6.36286 32.9932 6.60387
465 1 5.4545 34.5813 7.86757
6589 2 7.27261 34.5964 9.15565
3589 1 10.9107 34.5813 7.86757
419 1 8.18101 33.0084 7.88966
6567 2 9.9991 33.0232 9.17761
6608 2 9.09252 34.5658 6.58191
453 1 2.72805 36.1542 7.84467
6643 2 0.909751 36.1385 6.55916
925 1 0.00164842 37.7272 7.82102
7071 2 1.81982 37.7427 9.10933
6590 2 4.54618 36.1695 9.13287
6592 2 6.36599 36.1385 6.55916
877 1 5.45789 37.7272 7.82102
7091 2 3.6395 37.7114 6.5357
418 1 8.18429 36.1542 7.84467
6560 2 10.0024 36.1695 9.13287
7036 2 7.27606 37.7427 9.10933
7037 2 9.09574 37.7114 6.5357
6664 2 1.80554 22.0105 9.30518
475 1 0.894319 20.4481 10.607
6614 2 2.71251 20.4588 11.8928
473 1 3.62343 22.0221 10.5929
6618 2 4.53268 20.4371 9.31938
6616 2 7.26178 22.0105 9.30518
438 1 6.35056 20.4481 10.607
6615 2 5.44158 22.0335 11.8787
6576 2 9.98891 20.4371 9.31938
6573 2 8.16875 20.4588 11.8928
439 1 9.07966 22.0221 10.5929
9910 2 10.8978 22.0335 11.8787
6648 2 1.80776 25.1572 9.27368
474 1 0.896378 23.5961 10.5777
6599 2 2.7145 23.608 11.8637
476 1 3.62566 25.17 10.5614
6617 2 4.53473 23.5839 9.28995
6619 2 7.264 25.1572 9.27368
430 1 6.35262 23.5961 10.5777
6597 2 5.44375 25.1825 11.8475
6575 2 9.99097 23.5839 9.28995
6572 2 8.17074 23.608 11.8637
428 1 9.08189 25.17 10.5614
9911 2 10.9 25.1825 11.8475
460 1 0.898784 26.7438 10.5442
6598 2 2.71684 26.7569 11.8304
458 1 3.62824 28.3175 10.5259
6603 2 4.53711 26.7305 9.25641
429 1 6.35502 26.7438 10.5442
6600 2 5.44627 28.3311 11.8123
6574 2 9.99335 26.7305 9.25641
6566 2 8.17308 26.7569 11.8304
431 1 9.08448 28.3175 10.5259
9902 2 10.9025 28.3311 11.8123
459 1 0.901543 29.8911 10.5066
6587 2 2.71955 29.9052 11.7932
461 1 3.63117 31.4647 10.4864
416 1 6.35778 29.8911 10.5066
6585 2 5.44916 31.4792 11.7732
6565 2 8.17579 29.9052 11.7932
414 1 9.08741 31.4647 10.4864
9903 2 10.9054 31.4792 11.7732
452 1 0.904652 33.0382 10.4653
6586 2 2.72262 33.0531 11.7522
450 1 3.63445 34.6116 10.4432
415 1 6.36089 33.0382 10.4653
6588 2 5.45241 34.6268 11.7303
6559 2 8.17886 33.0531 11.7522
417 1 9.09069 34.6116 10.4432
9901 2 10.9086 34.6268 11.7303
451 1 0.908086 36.1849 10.4203
6580 2 2.72605 36.2003 11.7076
405 1 6.36432 36.1849 10.4203
876 1 3.63803 37.7582 10.3967
7021 2 5.45601 37.7738 11.6841
6558 2 8.18229 36.2003 11.7076
10334 2 10.9122 37.7738 11.6841
821 1 9.09427 37.7582 10.3967
422 1 2.71042 20.4914 15.754
6595 2 0.892457 20.4804 14.466
6612 2 3.61977 18.9043 14.4788
472 1 1.80325 22.045 13.1668
421 1 5.43777 18.9146 15.7668
426 1 4.53043 20.4697 13.1808
6570 2 6.3487 20.4804 14.466
424 1 7.25949 22.045 13.1668
3542 1 10.894 18.9146 15.7668
393 1 8.16666 20.4914 15.754
396 1 9.98667 20.4697 13.1808
6569 2 9.07601 18.9043 14.4788
408 1 2.7122 23.6445 15.7255
6594 2 0.89431 23.6322 14.4373
6593 2 3.62146 22.0564 14.4521
456 1 1.80538 25.1953 13.1358
423 1 5.43939 22.068 15.7402
425 1 4.53239 23.6202 13.1518
6563 2 6.35055 23.6322 14.4373
427 1 7.26162 25.1953 13.1358
3526 1 10.8956 22.068 15.7402
392 1 8.16843 23.6445 15.7255
395 1 9.98863 23.6202 13.1518
6571 2 9.0777 22.0564 14.4521
407 1 2.71433 26.7968 15.6929
6583 2 0.896518 26.7834 14.4045
6596 2 3.62349 25.2079 14.4214
457 1 1.80789 28.3449 13.1006
406 1 5.44134 25.2207 15.7097
412 1 4.5347 26.7702 13.1187
6562 2 6.35276 26.7834 14.4045
410 1 7.26412 28.3449 13.1006
3527 1 10.8976 25.2207 15.7097
389 1 8.17057 26.7968 15.6929
394 1 9.99094 26.7702 13.1187
6561 2 9.07973 25.2079 14.4214
6581 2 3.62588 28.3586 14.3866
6582 2 0.899111 29.9337 14.3678
400 1 2.71686 29.9481 15.6564
448 1 1.81078 31.4938 13.0616
6556 2 6.35535 29.9337 14.3678
411 1 4.5374 29.9195 13.0816
409 1 5.44366 28.3726 15.6751
413 1 7.26702 31.4938 13.0616
3518 1 10.8999 28.3726 15.6751
6564 2 9.08212 28.3586 14.3866
391 1 9.99364 29.9195 13.0816
388 1 8.1731 29.9481 15.6564
6584 2 3.62868 31.5086 14.348
6579 2 0.902116 33.0832 14.3273
399 1 2.71983 33.0984 15.616
449 1 1.81408 34.642 13.0188
6555 2 6.35835 33.0832 14.3273
404 1 4.5405 33.068 13.0406
398 1 5.44641 31.5234 15.6367
402 1 7.27032 34.642 13.0188
6554 2 9.08492 31.5086 14.348
3519 1 10.9026 31.5234 15.6367
390 1 9.99674 33.068 13.0406
386 1 8.17607 33.0984 15.616
6577 2 3.6319 34.6575 14.3056
6578 2 0.905547 36.2316 14.2831
397 1 2.72326 36.2473 15.572
855 1 1.81776 37.7893 12.9724
6553 2 6.36179 36.2316 14.2831
403 1 4.54399 36.2158 12.996
401 1 5.4496 34.673 15.5945
820 1 7.274 37.7893 12.9724
3517 1 10.9058 34.673 15.5945
385 1 8.1795 36.2473 15.572
387 1 10.0002 36.2158 12.996
6557 2 9.08814 34.6575 14.3056
6935 2 1.79995 18.9246 17.0514
766 1 0.890558 20.5131 18.3266
768 1 3.61803 18.9349 18.3391
6922 2 4.52878 20.5021 17.0388
743 1 6.3468 20.5131 18.3266
6924 2 7.25619 18.9246 17.0514
742 1 9.07427 18.9349 18.3391
6876 2 9.98501 20.5021 17.0388
6936 2 1.80144 22.0794 17.0252
765 1 0.892083 23.6689 18.2987
764 1 3.6194 22.0911 18.3131
6921 2 4.53042 23.6565 17.0106
739 1 6.34832 23.6689 18.2987
6920 2 7.25767 22.0794 17.0252
744 1 9.07564 22.0911 18.3131
6875 2 9.98665 23.6565 17.0106
6932 2 1.80324 25.2334 16.995
759 1 0.893944 26.8237 18.2668
767 1 3.62109 25.2464 18.2832
6914 2 4.5324 26.8101 16.9784
738 1 6.35018 26.8237 18.2668
6923 2 7.25948 25.2334 16.995
737 1 9.07733 25.2464 18.2832
6874 2 9.98864 26.8101 16.9784
6933 2 1.80542 28.3865 16.9609
758 1 0.8962 29.9773 18.231
757 1 3.62314 28.4007 18.2494
6913 2 4.53478 29.9626 16.9424
727 1 6.35244 29.9773 18.231
6912 2 7.26166 28.3865 16.9609
740 1 9.07938 28.4007 18.2494
6867 2 9.99102 29.9626 16.9424
6928 2 1.80801 31.5384 16.9229
752 1 0.898913 33.1295 18.1915
760 1 3.62561 31.5536 18.2117
726 1 6.35515 33.1295 18.1915
6900 2 4.5376 33.1139 16.9025
6915 2 7.26425 31.5384 16.9229
725 1 9.08185 31.5536 18.2117
6866 2 9.99383 33.1139 16.9025
6929 2 1.81107 34.689 16.8812
751 1 0.902146 36.2801 18.1482
750 1 3.62858 34.705 18.1703
709 1 6.35838 36.2801 18.1482
6899 2 4.5409 36.2637 16.859
6898 2 7.26731 34.689 16.8812
728 1 9.08482 34.705 18.1703
6851 2 9.99714 36.2637 16.859
6918 2 2.70904 20.5239 19.6111
762 1 1.79851 18.9554 20.9108
6906 2 0.889543 20.546 22.1828
6916 2 3.61723 18.9656 22.1948
6917 2 5.43658 18.945 19.6234
735 1 4.52714 20.5351 20.8986
6870 2 6.34578 20.546 22.1828
741 1 7.25475 18.9554 20.9108
6873 2 8.16527 20.5239 19.6111
684 1 9.98338 20.5351 20.8986
6869 2 9.07347 18.9656 22.1948
10198 2 10.8928 18.945 19.6234
6910 2 2.7104 23.6811 19.5835
763 1 1.79959 22.1145 20.8854
6905 2 0.890572 23.706 22.1558
6904 2 3.61815 22.1261 22.1698
6919 2 5.4378 22.1026 19.5978
734 1 4.52835 23.6936 20.8713
6862 2 6.34681 23.706 22.1558
733 1 7.25583 22.1145 20.8854
6872 2 8.16664 23.6811 19.5835
683 1 9.98459 23.6936 20.8713
6871 2 9.07438 22.1261 22.1698
10194 2 10.894 22.1026 19.5978
6909 2 2.71208 26.8373 19.552
755 1 1.80095 25.2725 20.8562
6892 2 0.891872 26.865 22.1252
6907 2 3.6193 25.2857 22.1409
6908 2 5.43931 25.2593 19.5683
723 1 4.52986 26.8511 20.8402
6861 2 6.34811 26.865 22.1252
736 1 7.25719 25.2725 20.8562
6865 2 8.16832 26.8373 19.552
682 1 9.9861 26.8511 20.8402
6860 2 9.07554 25.2857 22.1409
10195 2 10.8956 25.2593 19.5683
6896 2 2.71413 29.9922 19.5168
756 1 1.80263 28.4294 20.8233
6891 2 0.893512 30.0226 22.0908
6890 2 3.62076 28.444 22.1084
6911 2 5.44117 28.4149 19.5349
722 1 4.53174 30.0073 20.8054
6847 2 6.34975 30.0226 22.0908
721 1 7.25887 28.4294 20.8233
6864 2 8.17037 29.9922 19.5168
675 1 9.98798 30.0073 20.8054
6863 2 9.077 28.444 22.1084
10190 2 10.8974 28.4149 19.5349
6895 2 2.71664 33.1456 19.4778
748 1 1.80472 31.5848 20.7866
6884 2 0.895582 33.1785 22.0528
6893 2 3.62261 31.6008 22.0723
6894 2 5.44344 31.5691 19.4978
708 1 4.53407 33.1618 20.7668
6846 2 6.35182 33.1785 22.0528
724 1 7.26096 31.5848 20.7866
6850 2 8.17288 33.1456 19.4778
674 1 9.9903 33.1618 20.7668
6845 2 9.07884 31.6008 22.0723
10191 2 10.8997 31.5691 19.4978
6885 2 2.71967 36.2972 19.4351
749 1 1.80731 34.7383 20.7462
6883 2 0.898189 36.3323 22.0113
6882 2 3.62493 34.7557 22.0325
6897 2 5.44621 34.7216 19.4569
707 1 4.53694 36.3143 20.7246
6829 2 6.35443 36.3323 22.0113
706 1 7.26355 34.7383 20.7462
6849 2 8.17591 36.2972 19.4351
659 1 9.99318 36.3143 20.7246
6848 2 9.08117 34.7557 22.0325
10189 2 10.9024 34.7216 19.4569
731 1 2.70777 20.5572 23.4699
6902 2 1.79822 18.9864 24.7654
730 1 5.43554 18.9761 23.4818
6858 2 4.52661 20.5683 24.7537
6868 2 7.25446 18.9864 24.7654
681 1 8.16401 20.5572 23.4699
6804 2 9.98285 20.5683 24.7537
3833 1 10.8918 18.9761 23.4818
719 1 2.70862 23.7187 23.4433
6903 2 1.7988 22.1499 24.741
732 1 5.43629 22.1381 23.4571
6857 2 4.52727 23.7313 24.7274
6856 2 7.25504 22.1499 24.741
680 1 8.16486 23.7187 23.4433
6803 2 9.98351 23.7313 24.7274
3825 1 10.8925 22.1381 23.4571
718 1 2.70971 26.8792 23.413
6888 2 1.79955 25.3125 24.7129
717 1 5.43725 25.2991 23.4286
6843 2 4.52814 26.8933 24.6976
6859 2 7.25579 25.3125 24.7129
673 1 8.16595 26.8792 23.413
6802 2 9.98438 26.8933 24.6976
3826 1 10.8935 25.2991 23.4286
704 1 2.71112 30.0381 23.3792
6889 2 1.80055 28.4738 24.6813
720 1 5.43849 28.4589 23.3966
6842 2 4.52928 30.0538 24.6642
6841 2 7.25679 28.4738 24.6813
672 1 8.16735 30.0381 23.3792
6795 2 9.98552 30.0538 24.6642
3818 1 10.8947 28.4589 23.3966
692 1 0.891932 33.2302 25.9159
703 1 2.71294 33.1954 23.3417
6880 2 1.80187 31.6335 24.6462
654 1 6.34817 33.2302 25.9159
702 1 5.44009 31.617 23.3609
6828 2 4.53081 33.2126 24.6273
6844 2 7.25811 31.6335 24.6462
658 1 8.16917 33.1954 23.3417
6794 2 9.98705 33.2126 24.6273
3819 1 10.8963 31.617 23.3609
691 1 0.893624 36.3883 25.8763
693 1 2.71529 36.3504 23.3007
6881 2 1.80363 34.7912 24.6076
690 1 3.62083 34.8096 25.8965
638 1 6.34986 36.3883 25.8763
705 1 5.44216 34.7732 23.3217
6827 2 4.53283 36.3692 24.587
6826 2 7.25987 34.7912 24.6076
656 1 9.07707 34.8096 25.8965
657 1 8.17153 36.3504 23.3007
6780 2 9.98907 36.3692 24.587
3817 1 10.8984 34.7732 23.3217
715 1 0.88876 20.5796 26.0404
729 1 3.6167 18.997 26.052
711 1 1.79831 19.018 28.6214
6854 2 2.70785 20.5908 27.3237
678 1 6.345 20.5796 26.0404
666 1 4.52644 20.6023 28.61
6853 2 5.43586 19.0074 27.3352
676 1 7.25455 19.018 28.6214
677 1 9.07294 18.997 26.052
618 1 9.98268 20.6023 28.61
6801 2 8.16408 20.5908 27.3237
10165 2 10.8921 19.0074 27.3352
714 1 0.889218 23.7442 26.0145
713 1 3.61709 22.1621 26.0279
712 1 1.79834 22.1863 28.5978
6839 2 2.70812 23.757 27.2981
670 1 6.34546 23.7442 26.0145
665 1 4.5265 23.7701 28.5847
6855 2 5.43609 22.174 27.3113
664 1 7.25458 22.1863 28.5978
679 1 9.07333 22.1621 26.0279
617 1 9.98274 23.7701 28.5847
6800 2 8.16436 23.757 27.2981
10150 2 10.8923 22.174 27.3113
700 1 0.889848 26.9078 25.9851
716 1 3.61763 25.3262 26.0002
696 1 1.79845 25.3537 28.5708
6838 2 2.70853 26.9222 27.2691
669 1 6.34609 26.9078 25.9851
651 1 4.52666 26.937 28.5561
6837 2 5.43642 25.3398 27.284
667 1 7.25468 25.3537 28.5708
668 1 9.07387 25.3262 26.0002
616 1 9.98289 26.937 28.5561
6793 2 8.16476 26.9222 27.2691
10151 2 10.8927 25.3398 27.284
699 1 0.890719 30.0699 25.9522
698 1 3.61837 28.489 25.9691
697 1 1.79866 28.5199 28.5405
6824 2 2.70913 30.086 27.2367
655 1 6.34696 30.0699 25.9522
650 1 4.52696 30.1025 28.5242
6840 2 5.43692 28.5043 27.2533
649 1 7.2549 28.5199 28.5405
671 1 9.07461 28.489 25.9691
609 1 9.9832 30.1025 28.5242
6792 2 8.16537 30.086 27.2367
10142 2 10.8932 28.5043 27.2533
701 1 3.61939 31.6503 25.9345
688 1 1.79907 31.6847 28.507
6823 2 2.71003 33.2481 27.2009
637 1 4.5275 33.2664 28.4891
6822 2 5.43765 31.6673 27.2192
652 1 7.25531 31.6847 28.507
653 1 9.07563 31.6503 25.9345
608 1 9.98374 33.2664 28.4891
6779 2 8.16627 33.2481 27.2009
10143 2 10.8939 31.6673 27.2192
689 1 1.79978 34.8476 28.4703
6813 2 2.71135 36.408 27.1619
636 1 4.52841 36.4281 28.4508
6825 2 5.43874 34.8284 27.1818
635 1 7.25602 34.8476 28.4703
597 1 9.98465 36.4281 28.4508
6778 2 8.16759 36.408 27.1619
10141 2 10.895 34.8284 27.1818
662 1 2.70842 20.6252 31.1786
6831 2 1.80021 19.0499 32.4718
6835 2 0.889575 20.6136 29.8928
6852 2 3.61776 19.0285 29.904
661 1 5.43669 19.0393 31.1897
6786 2 4.52812 20.6366 32.4608
6798 2 6.34581 20.6136 29.8928
6796 2 7.25645 19.0499 32.4718
615 1 8.16466 20.6252 31.1786
6756 2 9.98435 20.6366 32.4608
6797 2 9.07399 19.0285 29.904
3782 1 10.8929 19.0393 31.1897
647 1 2.7081 23.7964 31.1538
6832 2 1.79977 22.2232 32.4489
6834 2 0.889468 23.7831 29.8678
6833 2 3.61764 22.1985 29.8807
663 1 5.43638 22.2109 31.1666
6785 2 4.52766 23.8096 32.4363
6790 2 6.34571 23.7831 29.8678
6784 2 7.25601 22.2232 32.4489
614 1 8.16434 23.7964 31.1538
6755 2 9.9839 23.8096 32.4363
6799 2 9.07388 22.1985 29.8807
3766 1 10.8926 22.2109 31.1666
646 1 2.70779 26.9668 31.1259
6816 2 1.7993 25.3958 32.4228
6820 2 0.889412 26.9517 29.8395
6836 2 3.61755 25.3675 29.854
645 1 5.43606 25.3817 31.1402
6772 2 4.52717 26.9817 32.4085
6789 2 6.34565 26.9517 29.8395
6787 2 7.25553 25.3958 32.4228
607 1 8.16403 26.9668 31.1259
6754 2 9.98341 26.9817 32.4085
6788 2 9.07379 25.3675 29.854
3767 1 10.8923 25.3817 31.1402
633 1 2.70753 30.136 31.0948
6817 2 1.79881 28.5674 32.3935
6819 2 0.889462 30.1191 29.8079
6818 2 3.61754 28.5355 29.8241
648 1 5.43577 28.5515 31.1107
6771 2 4.52669 30.1528 32.3778
6776 2 6.3457 30.1191 29.8079
6770 2 7.25504 28.5674 32.3935
606 1 8.16377 30.136 31.0948
6751 2 9.98293 30.1528 32.3778
6791 2 9.07378 28.5355 29.8241
3758 1 10.892 28.5515 31.1107
632 1 2.70739 33.3037 31.0607
6808 2 1.79835 31.738 32.3613
6812 2 0.889696 33.2849 29.7733
6821 2 3.61767 31.7022 29.791
631 1 5.43556 31.7201 31.0781
6764 2 4.52628 33.3227 32.344
6775 2 6.34593 33.2849 29.7733
6773 2 7.25459 31.738 32.3613
596 1 8.16363 33.3037 31.0607
6750 2 9.98251 33.3227 32.344
6774 2 9.07391 31.7022 29.791
3759 1 10.8918 31.7201 31.0781
624 1 2.70748 36.4697 31.0237
6809 2 1.798 34.907 32.3261
6811 2 0.890234 36.4487 29.7355
6810 2 3.61804 34.867 29.7548
634 1 5.43552 34.887 31.0426
6763 2 4.52602 36.4909 32.3074
6765 2 6.34647 36.4487 29.7355
6762 2 7.25424 34.907 32.3261
595 1 8.16372 36.4697 31.0237
6747 2 9.98226 36.4909 32.3074
6777 2 9.07428 34.867 29.7548
3757 1 10.8918 34.887 31.0426
643 1 0.891008 20.6483 33.746
6782 2 2.71106 20.6599 35.0276
660 1 3.61942 19.0608 33.7569
612 1 6.34725 20.6483 33.746
6781 2 5.43952 19.0715 35.0385
611 1 9.07566 19.0608 33.7569
6753 2 8.1673 20.6599 35.0276
10094 2 10.8958 19.0715 35.0385
642 1 0.890357 23.823 33.7217
6768 2 2.7103 23.8364 35.0035
641 1 3.61881 22.2358 33.7342
604 1 6.3466 23.823 33.7217
6783 2 5.43881 22.2482 35.0159
613 1 9.07505 22.2358 33.7342
6752 2 8.16654 23.8364 35.0035
10078 2 10.8951 22.2482 35.0159
644 1 3.61812 25.4101 33.7084
629 1 0.88963 26.997 33.6943
6767 2 2.70944 27.0122 34.9762
6766 2 5.438 25.4244 34.9902
603 1 6.34587 26.997 33.6943
6749 2 8.16567 27.0122 34.9762
602 1 9.07436 25.4101 33.7084
10079 2 10.8942 25.4244 34.9902
627 1 3.61736 28.5837 33.6795
6760 2 2.70849 30.1873 34.946
628 1 0.888854 30.1701 33.6639
6769 2 5.43709 28.5998 34.9614
593 1 6.34509 30.1701 33.6639
6748 2 8.16473 30.1873 34.946
605 1 9.0736 28.5837 33.6795
10070 2 10.8933 28.5998 34.9614
630 1 3.61658 31.7563 33.6476
6759 2 2.7075 33.3614 34.9129
623 1 0.888074 33.3421 33.6306
6758 2 5.43612 31.7745 34.9298
592 1 6.34431 33.3421 33.6306
6746 2 8.16374 33.3614 34.9129
591 1 9.07282 31.7563 33.6476
10071 2 10.8924 31.7745 34.9298
621 1 3.61582 34.9276 33.613
6757 2 2.70652 36.5344 34.8771
622 1 0.887363 36.5126 33.5946
6761 2 5.43512 34.9481 34.8953
586 1 6.3436 36.5126 33.5946
6745 2 8.16276 36.5344 34.8771
594 1 9.07206 34.9276 33.613
10069 2 10.8914 34.9481 34.8953
6958 2 0.894713 20.6834 37.5932
13217 1 2.71452 20.6953 38.8772
639 1 1.80281 19.0824 36.323
6960 2 3.62328 19.0933 37.604
6947 2 6.35095 20.6834 37.5932
13216 1 5.44314 19.1043 38.888
600 1 4.53052 20.6717 36.3122
610 1 7.25905 19.0824 36.323
6946 2 9.07952 19.0933 37.604
13182 1 8.17075 20.6953 38.8772
582 1 9.98676 20.6717 36.3122
16044 1 10.8994 19.1043 38.888
6957 2 0.893707 23.8634 37.5693
13213 1 2.71337 23.8771 38.8534
640 1 1.80195 22.2609 36.3006
6956 2 3.62235 22.2734 37.5817
6944 2 6.34995 23.8634 37.5693
13218 1 5.44209 22.2862 38.8657
599 1 4.52959 23.8499 36.2882
598 1 7.25819 22.2609 36.3006
6948 2 9.07859 22.2734 37.5817
13181 1 8.16961 23.8771 38.8534
581 1 9.98582 23.8499 36.2882
16042 1 10.8983 22.2862 38.8657
6954 2 0.892544 27.043 37.5423
13212 1 2.71204 27.0586 38.8265
625 1 1.80095 25.4389 36.2751
6959 2 3.62126 25.4533 37.5562
6943 2 6.34878 27.043 37.5423
13211 1 5.44085 25.4679 38.8403
589 1 4.52851 27.0277 36.2612
601 1 7.25719 25.4389 36.2751
6942 2 9.0775 25.4533 37.5562
13176 1 8.16828 27.0586 38.8265
580 1 9.98475 27.0277 36.2612
16043 1 10.8971 25.4679 38.8403
6953 2 0.89123 30.2222 37.5123
13202 1 2.71051 30.2399 38.7967
626 1 1.7998 28.6163 36.2466
6952 2 3.62002 28.6327 37.5277
6940 2 6.34747 30.2222 37.5123
13214 1 5.43942 28.6493 38.8119
588 1 4.5273 30.2048 36.2312
587 1 7.25604 28.6163 36.2466
6945 2 9.07626 28.6327 37.5277
13175 1 8.16675 30.2399 38.7967
579 1 9.98354 30.2048 36.2312
16040 1 10.8957 28.6493 38.8119
6951 2 0.889778 33.4008 37.4796
13201 1 2.70879 33.4208 38.7642
619 1 1.79854 31.7931 36.2152
6955 2 3.61864 31.8116 37.4963
6939 2 6.34602 33.4008 37.4796
13200 1 5.4378 31.8304 38.7808
585 1 4.52598 33.3812 36.1985
590 1 7.25478 31.7931 36.2152
6938 2 9.07488 31.8116 37.4963
13162 1 8.16503 33.4208 38.7642
578 1 9.98222 33.3812 36.1985
16041 1 10.894 31.8304 38.7808
6950 2 0.888217 36.5788 37.4443
13191 1 2.70688 36.6015 38.7291
620 1 1.79717 34.9691 36.1812
6949 2 3.61713 34.9899 37.4623
6937 2 6.34446 36.5788 37.4443
13203 1 5.43598 35.0112 38.7469
584 1 4.52458 36.5567 36.1632
583 1 7.25341 34.9691 36.1812
6941 2 9.07337 34.9899 37.4623
13161 1 8.16312 36.6015 38.7291
577 1 9.98082 36.5567 36.1632
16039 1 10.8922 35.0112 38.7469
18839 2 1.80774 19.1152 40.1683
13209 1 0.899271 20.719 41.4409
13215 1 3.62795 19.1262 41.4517
18826 2 4.53534 20.7071 40.1576
13179 1 6.35551 20.719 41.4409
18828 2 7.26398 19.1152 40.1683
13178 1 9.08419 19.1262 41.4517
18780 2 9.99158 20.7071 40.1576
18840 2 1.80666 22.2989 40.146
13208 1 0.897997 23.9044 41.4171
13207 1 3.62678 22.3117 41.4294
18825 2 4.53416 23.8907 40.1337
13173 1 6.35424 23.9044 41.4171
18824 2 7.2629 22.2989 40.146
13180 1 9.08302 22.3117 41.4294
18779 2 9.9904 23.8907 40.1337
18836 2 1.80538 25.4824 40.1206
13198 1 0.896505 27.0898 41.3901
13210 1 3.6254 25.4971 41.404
18818 2 4.53279 27.0741 40.1067
13172 1 6.35274 27.0898 41.3901
18827 2 7.26162 25.4824 40.1206
13171 1 9.08164 25.4971 41.404
18778 2 9.98903 27.0741 40.1067
18837 2 1.80392 28.6658 40.0921
13197 1 0.894783 30.2752 41.3602
13196 1 3.62379 28.6825 41.3755
18817 2 4.53123 30.2574 40.0768
13159 1 6.35102 30.2752 41.3602
18816 2 7.26015 28.6658 40.0921
13174 1 9.08003 28.6825 41.3755
18771 2 9.98747 30.2574 40.0768
18832 2 1.80225 31.849 40.0608
13190 1 0.89282 33.4608 41.3275
13199 1 3.62195 31.868 41.3442
13158 1 6.34906 33.4608 41.3275
18804 2 4.52946 33.4406 40.0441
18819 2 7.25849 31.849 40.0608
13157 1 9.07819 31.868 41.3442
18770 2 9.9857 33.4406 40.0441
18833 2 1.80039 35.0321 40.0268
13189 1 0.890606 36.6466 41.2922
18789 2 2.71197 36.6688 42.5705
13188 1 3.61986 35.0537 41.3102
13141 1 6.34684 36.6466 41.2922
18801 2 5.44119 35.0746 42.5888
18803 2 4.5275 36.6237 40.0087
18802 2 7.25662 35.0321 40.0268
13160 1 9.0761 35.0537 41.3102
18753 2 8.16821 36.6688 42.5705
18755 2 9.98374 36.6237 40.0087
21649 2 10.8974 35.0746 42.5888
18822 2 2.72049 20.7309 42.7207
13205 1 1.8135 19.1484 44.0142
18810 2 0.906402 20.7548 45.2824
18820 2 3.6351 19.1594 45.2933
18821 2 5.44917 19.1372 42.7314
13169 1 4.54103 20.7429 44.0034
18774 2 6.36264 20.7548 45.2824
13177 1 7.26974 19.1484 44.0142
18777 2 8.17673 20.7309 42.7207
13116 1 9.99727 20.7429 44.0034
18773 2 9.09133 19.1594 45.2933
21658 2 10.9054 19.1372 42.7314
18814 2 2.71922 23.9181 42.6967
13206 1 1.81228 22.3374 43.9918
18809 2 0.905104 23.9457 45.2582
18808 2 3.6339 22.3502 45.2707
18823 2 5.448 22.3245 42.7091
13168 1 4.5397 23.9319 43.9793
18766 2 6.36134 23.9457 45.2582
13167 1 7.26851 22.3374 43.9918
18776 2 8.17546 23.9181 42.6967
13115 1 9.99594 23.9319 43.9793
18775 2 9.09014 22.3502 45.2707
21654 2 10.9042 22.3245 42.7091
18813 2 2.71774 27.1054 42.6696
13194 1 1.81083 25.5265 43.9661
18796 2 0.9036 27.1368 45.2308
18811 2 3.6325 25.5412 45.2449
18812 2 5.44662 25.5117 42.6835
13155 1 4.53815 27.1212 43.9521
18765 2 6.35984 27.1368 45.2308
13170 1 7.26707 25.5265 43.9661
18769 2 8.17398 27.1054 42.6696
13114 1 9.99438 27.1212 43.9521
18764 2 9.08874 25.5412 45.2449
21655 2 10.9029 25.5117 42.6835
18800 2 2.71604 30.2928 42.6394
13195 1 1.80916 28.7159 43.9374
18795 2 0.901886 30.3283 45.2001
18794 2 3.63089 28.7325 45.2158
18815 2 5.44503 28.6991 42.6549
13154 1 4.53636 30.3107 43.9219
18751 2 6.35812 30.3283 45.2001
13153 1 7.2654 28.7159 43.9374
18768 2 8.17228 30.2928 42.6394
13107 1 9.99259 30.3107 43.9219
18767 2 9.08713 28.7325 45.2158
21650 2 10.9013 28.6991 42.6549
18799 2 2.71412 33.4805 42.6063
13186 1 1.80725 31.9057 43.9056
18788 2 0.899957 33.5205 45.1664
18797 2 3.62907 31.9243 45.1836
18798 2 5.44322 31.8866 42.6232
13140 1 4.53432 33.5008 43.8886
18750 2 6.3562 33.5205 45.1664
13156 1 7.26349 31.9057 43.9056
18754 2 8.17035 33.4805 42.6063
13106 1 9.99056 33.5008 43.8886
18749 2 9.08531 31.9243 45.1836
21651 2 10.8995 31.8866 42.6232
13187 1 1.80508 35.0962 43.871
18787 2 0.897813 36.7137 45.1296
18786 2 3.62703 35.1169 45.1484
13139 1 4.53202 36.6918 43.8526
18734 2 6.35405 36.7137 45.1296
13138 1 7.26132 35.0962 43.871
13091 1 9.98826 36.6918 43.8526
18752 2 9.08327 35.1169 45.1484
13147 1 0.914338 20.791 49.1245
13165 1 2.72732 20.7669 46.5645
18806 2 1.82174 19.1818 47.854
13110 1 6.37058 20.791 49.1245
13163 1 3.64302 19.193 49.1356
13164 1 5.45602 19.1706 46.5755
18762 2 4.5493 20.7789 47.843
13109 1 9.09926 19.193 49.1356
13113 1 8.18356 20.7669 46.5645
18714 2 10.0055 20.7789 47.843
18772 2 7.27798 19.1818 47.854
16024 1 10.9123 19.1706 46.5755
13146 1 0.91308 23.9873 49.0997
13151 1 2.726 23.9596 46.5402
18807 2 1.82057 22.3761 47.8311
13102 1 6.36932 23.9873 49.0997
13145 1 3.64185 22.3891 49.1125
13166 1 5.4548 22.3632 46.5528
18761 2 4.54803 23.9733 47.8184
13111 1 9.09809 22.3891 49.1125
13112 1 8.18223 23.9596 46.5402
18713 2 10.0043 23.9733 47.8184
18760 2 7.27681 22.3761 47.8311
16012 1 10.911 22.3632 46.5528
13132 1 0.911644 27.184 49.0715
13150 1 2.72447 27.1526 46.5125
18792 2 1.81921 25.5707 47.8048
13101 1 6.36788 27.184 49.0715
13148 1 3.6405 25.5856 49.086
13149 1 5.45338 25.556 46.5268
18747 2 4.54658 27.1682 47.7904
13100 1 9.09674 25.5856 49.086
13105 1 8.1807 27.1526 46.5125
18712 2 10.0028 27.1682 47.7904
18763 2 7.27545 25.5707 47.8048
16013 1 10.9096 25.556 46.5268
13131 1 0.910032 30.3816 49.0398
13136 1 2.72272 30.3462 46.4816
18793 2 1.81767 28.7659 47.7752
13087 1 6.36627 30.3816 49.0398
13130 1 3.63898 28.7827 49.056
13152 1 5.45174 28.7493 46.4975
18746 2 4.54495 30.3637 47.7591
18745 2 7.27391 28.7659 47.7752
13103 1 9.09522 28.7827 49.056
13104 1 8.17896 30.3462 46.4816
18705 2 10.0012 30.3637 47.7591
16004 1 10.908 28.7493 46.4975
13124 1 0.908244 33.5803 49.0046
13135 1 2.72075 33.5407 46.4476
18784 2 1.81594 31.9618 47.7421
13133 1 3.63728 31.9808 49.0226
13086 1 6.36448 33.5803 49.0046
13134 1 5.44988 31.9433 46.465
18733 2 4.54313 33.5602 47.7244
18748 2 7.27218 31.9618 47.7421
13085 1 9.09352 31.9808 49.0226
13090 1 8.17699 33.5407 46.4476
18704 2 9.99937 33.5602 47.7244
16005 1 10.9061 31.9433 46.465
13123 1 0.906286 36.7808 48.966
13125 1 2.71856 36.7366 46.4104
18785 2 1.81404 35.1589 47.7058
13122 1 3.6354 35.1803 48.9858
13072 1 6.36252 36.7808 48.966
13137 1 5.4478 35.1385 46.4294
18732 2 4.54114 36.758 47.6864
18731 2 7.27028 35.1589 47.7058
13088 1 9.09164 35.1803 48.9858
13089 1 8.17479 36.7366 46.4104
18693 2 9.99738 36.758 47.6864
16003 1 10.904 35.1385 46.4294
13143 1 1.8307 19.2154 51.6945
18758 2 2.73667 20.803 50.4023
18805 2 0.00908699 19.2041 50.4135
13098 1 4.5583 20.8152 51.6832
18757 2 5.46533 19.2041 50.4135
13056 1 10.0145 20.8152 51.6832
13108 1 7.28694 19.2154 51.6945
18711 2 8.19291 20.803 50.4023
13144 1 1.82962 22.415 51.6711
18743 2 2.73548 24.001 50.3773
18790 2 0.00797648 22.402 50.3903
13097 1 4.55714 24.015 51.658
18759 2 5.46421 22.402 50.3903
13055 1 10.0134 24.015 51.658
13096 1 7.28585 22.415 51.6711
18710 2 8.19172 24.001 50.3773
13128 1 1.82839 25.6151 51.6439
18742 2 2.73414 27.1996 50.3486
18791 2 0.00671147 25.6002 50.3634
13083 1 4.55584 27.2154 51.629
18741 2 5.46295 25.6002 50.3634
13054 1 10.0121 27.2154 51.629
13099 1 7.28463 25.6151 51.6439
18703 2 8.19038 27.1996 50.3486
13129 1 1.82703 28.8159 51.6131
18729 2 2.73266 30.3989 50.3164
18782 2 0.00529799 28.7991 50.333
13082 1 4.55442 30.4168 51.5964
18744 2 5.46154 28.7991 50.333
13048 1 10.0107 30.4168 51.5964
13081 1 7.28327 28.8159 51.6131
18702 2 8.1889 30.3989 50.3164
13120 1 1.82554 32.0179 51.5786
18728 2 2.73104 33.5995 50.2806
18783 2 0.00374406 31.999 50.299
13071 1 4.55288 33.6195 51.56
18727 2 5.45998 31.999 50.299
13047 1 10.0091 33.6195 51.56
13084 1 7.28178 32.0179 51.5786
18692 2 8.18728 33.5995 50.2806
13121 1 1.82395 35.2215 51.5404
18720 2 2.72929 36.8017 50.2411
18781 2 0.00206018 35.2003 50.2613
13070 1 4.55123 36.824 51.5198
18730 2 5.4583 35.2003 50.2613
13040 1 10.0075 36.824 51.5198
13069 1 7.28019 35.2215 51.5404
18691 2 8.18553 36.8017 50.2411
13094 1 2.74667 20.8394 54.2409
13142 1 0.0190294 19.2379 54.2524
18735 2 1.84197 19.2491 55.5293
18739 2 0.924718 20.8272 52.9605
13093 1 5.47527 19.2379 54.2524
18696 2 4.56963 20.8514 55.5177
18708 2 6.38096 20.8272 52.9605
18756 2 3.65333 19.2266 52.9719
13053 1 8.20291 20.8394 54.2409
18678 2 10.0259 20.8514 55.5177
18706 2 7.2982 19.2491 55.5293
18707 2 9.10957 19.2266 52.9719
13079 1 2.74563 24.0427 54.2151
13126 1 0.0180432 22.4409 54.2285
18736 2 1.84103 22.4538 55.5051
18738 2 0.923631 24.0287 52.9349
13095 1 5.47428 22.4409 54.2285
18695 2 4.56865 24.0564 55.4915
18700 2 6.37987 24.0287 52.9349
18737 2 3.65231 22.4279 52.9482
13052 1 8.20187 24.0427 54.2151
18677 2 10.0249 24.0564 55.4915
18694 2 7.29727 22.4538 55.5051
18709 2 9.10855 22.4279 52.9482
13078 1 2.74449 27.2466 54.1853
13127 1 0.0169538 25.6446 54.2007
18721 2 1.84001 25.6591 55.477
18725 2 0.922432 27.2309 52.9056
13077 1 5.47319 25.6446 54.2007
18685 2 4.5676 27.262 55.4614
18699 2 6.37867 27.2309 52.9056
18740 2 3.65116 25.6297 52.9207
13046 1 8.20073 27.2466 54.1853
18676 2 10.0238 27.262 55.4614
18697 2 7.29625 25.6591 55.477
18698 2 9.1074 25.6297 52.9207
13067 1 2.74328 30.4516 54.1517
13118 1 0.0157778 28.849 54.169
18722 2 1.83893 28.8651 55.4448
18724 2 0.921132 30.4339 52.8724
13080 1 5.47202 28.849 54.169
18684 2 4.56649 30.4686 55.4273
18689 2 6.37737 30.4339 52.8724
18723 2 3.64991 28.8322 52.8895
13045 1 8.19952 30.4516 54.1517
18675 2 10.0227 30.4686 55.4273
18683 2 7.29517 28.8651 55.4448
18701 2 9.10615 28.8322 52.8895
13066 1 2.74201 33.658 54.114
13119 1 0.0145323 32.0546 54.1334
18715 2 1.83779 32.0723 55.4086
18719 2 0.919745 33.6383 52.8354
18726 2 3.64857 32.0359 52.8544
18688 2 6.37598 33.6383 52.8354
13065 1 5.47077 32.0546 54.1334
18681 2 4.56533 33.6764 55.3889
18687 2 9.10481 32.0359 52.8544
18686 2 7.29403 32.0723 55.4086
18674 2 10.0216 33.6764 55.3889
13039 1 8.19825 33.658 54.114
18718 2 0.918284 36.8444 52.7943
18716 2 1.83662 35.281 55.3682
13117 1 0.0132329 35.2618 54.0936
13060 1 2.74069 36.8663 54.0722
18717 2 3.64714 35.2411 52.8153
18682 2 6.37452 36.8444 52.7943
18680 2 4.56414 36.886 55.3463
13068 1 5.46947 35.2618 54.0936
18690 2 9.10338 35.2411 52.8153
18679 2 7.29286 35.281 55.3682
18673 2 10.0204 36.886 55.3463
13038 1 8.19692 36.8663 54.0722
19025 2 2.75888 20.8755 58.0738
19032 2 0.0311821 19.2715 58.0856
13075 1 0.935646 20.8636 56.7975
19024 2 5.48742 19.2715 58.0856
13050 1 6.39188 20.8636 56.7975
13092 1 3.6642 19.2604 56.8093
18990 2 8.21512 20.8755 58.0738
13049 1 9.12044 19.2604 56.8093
19021 2 2.758 24.0839 58.0471
19030 2 0.030329 22.4797 58.0609
13074 1 0.934719 24.0703 56.7711
19026 2 5.48657 22.4797 58.0609
13043 1 6.39096 24.0703 56.7711
13073 1 3.66331 22.4669 56.7848
18989 2 8.21424 24.0839 58.0471
13051 1 9.11955 22.4669 56.7848
19020 2 2.75707 27.2929 58.0162
19031 2 0.0294201 25.6883 58.0322
13063 1 0.933738 27.2777 56.7406
19019 2 5.48566 25.6883 58.0322
13042 1 6.38998 27.2777 56.7406
13076 1 3.66235 25.6739 56.7564
18984 2 8.21331 27.2929 58.0162
13041 1 9.11859 25.6739 56.7564
19010 2 2.75612 30.5028 57.9812
19028 2 0.0284786 28.8977 57.9992
13062 1 0.932723 30.4861 56.706
13369 1 4.57886 30.5202 59.2595
19022 2 5.48472 28.8977 57.9992
13036 1 6.38896 30.4861 56.706
13061 1 3.66135 28.8817 56.7238
13323 1 10.0351 30.5202 59.2595
18983 2 8.21236 30.5028 57.9812
13044 1 9.11759 28.8817 56.7238
13384 1 1.85032 32.1264 59.24
19009 2 2.75516 33.7139 57.9417
19029 2 0.0275217 32.1082 57.962
13059 1 0.931694 33.6958 56.667
13356 1 4.57802 33.733 59.2194
19008 2 5.48376 32.1082 57.962
13035 1 6.38793 33.6958 56.667
13064 1 3.66033 32.0907 56.6871
13322 1 10.0343 33.733 59.2194
13371 1 7.30655 32.1264 59.24
18970 2 8.2114 33.7139 57.9417
13034 1 9.11657 32.0907 56.6871
13385 1 1.84948 35.3399 59.1976
18999 2 2.75418 36.9266 57.8976
19027 2 0.0265539 35.3201 57.9202
13058 1 0.930657 36.9073 56.6236
13355 1 4.57719 36.9473 59.1746
19011 2 5.48279 35.3201 57.9202
13033 1 6.3869 36.9073 56.6236
13057 1 3.6593 35.3013 56.6459
13307 1 10.0334 36.9473 59.1746
13354 1 7.30572 35.3399 59.1976
18969 2 8.21042 36.9266 57.8976
13037 1 9.11553 35.3013 56.6459
13391 1 1.85369 19.2829 59.3652
13374 1 2.77144 20.9118 61.9081
13390 1 0.0437013 19.3053 61.9203
19017 2 0.948668 20.8996 60.6289
13378 1 4.58141 20.8877 59.3532
13373 1 5.49994 19.3053 61.9203
18987 2 6.40491 20.8996 60.6289
19023 2 3.67718 19.294 60.641
13332 1 10.0377 20.8877 59.3532
13380 1 7.30993 19.2829 59.3652
13329 1 8.22768 20.9118 61.9081
18986 2 9.13342 19.294 60.641
13392 1 1.85288 22.4927 59.3403
13366 1 2.77065 24.1252 61.8807
13386 1 0.0429275 22.5185 61.8949
19016 2 0.947848 24.1113 60.6017
13377 1 4.58058 24.0978 59.3263
13375 1 5.49917 22.5185 61.8949
18981 2 6.40409 24.1113 60.6017
19015 2 3.67638 22.5054 60.6159
13331 1 10.0368 24.0978 59.3263
13376 1 7.30912 22.4927 59.3403
13328 1 8.22689 24.1252 61.8807
18988 2 9.13262 22.5054 60.6159
13388 1 1.85203 25.7031 59.3112
13365 1 2.76986 27.3392 61.8489
13387 1 0.0421354 25.7321 61.8653
19006 2 0.947007 27.3236 60.5702
13370 1 4.57972 27.3085 59.2951
13364 1 5.49837 25.7321 61.8653
18980 2 6.40325 27.3236 60.5702
19018 2 3.67555 25.7174 60.5865
13330 1 10.036 27.3085 59.2951
13379 1 7.30827 25.7031 59.3112
13321 1 8.2261 27.3392 61.8489
18979 2 9.13179 25.7174 60.5865
13389 1 1.85117 28.9142 59.2778
13352 1 2.7691 30.5539 61.8125
13382 1 0.0413558 28.9464 61.8313
19005 2 0.946168 30.5367 60.5343
13367 1 5.49759 28.9464 61.8313
18967 2 6.40241 30.5367 60.5343
19004 2 3.67471 28.9301 60.5528
13368 1 7.3074 28.9142 59.2778
13320 1 8.22534 30.5539 61.8125
18982 2 9.13094 28.9301 60.5528
13351 1 2.76837 33.7695 61.7715
13383 1 0.0406079 32.1615 61.7926
18998 2 0.945336 33.7508 60.4938
13350 1 5.49685 32.1615 61.7926
18966 2 6.40157 33.7508 60.4938
19007 2 3.67387 32.1436 60.5146
13306 1 8.2246 33.7695 61.7715
18965 2 9.13011 32.1436 60.5146
13341 1 2.76765 36.9863 61.7256
13381 1 0.0398878 35.3777 61.7492
18997 2 0.944495 36.9662 60.4486
13353 1 5.49613 35.3777 61.7492
18949 2 6.40073 36.9662 60.4486
18996 2 3.67304 35.3583 60.4718
13305 1 8.22389 36.9863 61.7256
18968 2 9.12928 35.3583 60.4718
13362 1 0.961887 20.9359 64.4626
18973 2 2.78589 20.9474 65.7362
19012 2 0.058169 19.3384 65.7486
19013 2 1.86745 19.3163 63.1954
13326 1 6.41813 20.9359 64.4626
13372 1 3.69039 19.3277 64.4749
18972 2 5.51441 19.3384 65.7486
18977 2 4.59518 20.9236 63.1831
13325 1 9.14663 19.3277 64.4749
18921 2 8.24213 20.9474 65.7362
18924 2 10.0514 20.9236 63.1831
18985 2 7.32369 19.3163 63.1954
13361 1 0.961097 24.1525 64.4347
18959 2 2.78506 24.1656 65.7082
19000 2 0.0573567 22.5565 65.7228
19014 2 1.86666 22.531 63.1699
13318 1 6.41734 24.1525 64.4347
13360 1 3.68961 22.5442 64.4492
18974 2 5.5136 22.5565 65.7228
18976 2 4.59438 24.1386 63.1555
13327 1 9.14585 22.5442 64.4492
18920 2 8.2413 24.1656 65.7082
18923 2 10.0506 24.1386 63.1555
18975 2 7.3229 22.531 63.1699
13348 1 0.960312 27.3696 64.4024
18958 2 2.78422 27.3843 65.6757
19001 2 0.0565183 25.7749 65.6925
19002 2 1.86586 25.7463 63.14
13317 1 6.41655 27.3696 64.4024
13363 1 3.68882 25.761 64.4191
18957 2 5.51276 25.7749 65.6925
18963 2 4.59357 27.3541 63.1235
13316 1 9.14506 25.761 64.4191
18913 2 8.24046 27.3843 65.6757
18922 2 10.0498 27.3541 63.1235
18978 2 7.32209 25.7463 63.14
13347 1 0.959557 30.5873 64.3654
18944 2 2.78339 30.6035 65.6386
18992 2 0.0556824 28.9939 65.6578
19003 2 1.86505 28.9621 63.1057
13303 1 6.4158 30.5873 64.3654
13346 1 3.68805 28.9784 64.3845
18960 2 5.51192 28.9939 65.6578
18962 2 4.59278 30.5703 63.0868
13319 1 9.14429 28.9784 64.3845
18912 2 8.23963 30.6035 65.6386
18915 2 10.049 30.5703 63.0868
18961 2 7.32129 28.9621 63.1057
13340 1 0.958843 33.8055 64.3237
18943 2 2.78258 33.8231 65.5967
18993 2 0.0548641 32.2132 65.6183
18994 2 1.86427 32.1786 63.0668
13302 1 6.41508 33.8055 64.3237
13349 1 3.68731 32.1963 64.3452
18942 2 5.5111 32.2132 65.6183
18948 2 4.592 33.7872 63.0455
13301 1 9.14355 32.1963 64.3452
18898 2 8.23882 33.8231 65.5967
18914 2 10.0482 33.7872 63.0455
18964 2 7.3205 32.1786 63.0668
13339 1 0.95813 37.0245 64.277
18933 2 2.78175 37.0433 65.55
18991 2 0.0540521 35.4331 65.574
18995 2 1.86349 35.396 63.0231
13286 1 6.41437 37.0245 64.277
13338 1 3.6866 35.4149 64.301
18945 2 5.51029 35.4331 65.574
18947 2 4.5912 37.005 62.9994
13304 1 9.14284 35.4149 64.301
18897 2 8.23799 37.0433 65.55
18899 2 10.0474 37.005 62.9994
18946 2 7.31972 35.396 63.0231
13358 1 1.88111 19.3503 67.0299
18955 2 0.976918 20.9708 68.2873
13314 1 4.60881 20.9601 67.0175
18918 2 6.43316 20.9708 68.2873
18971 2 3.70547 19.3602 68.2998
13266 1 10.0651 20.9601 67.0175
13324 1 7.33735 19.3503 67.0299
18917 2 9.16171 19.3602 68.2998
13359 1 1.88027 22.57 67.004
18954 2 0.976009 24.1923 68.2591
13313 1 4.60796 24.18 66.9893
18910 2 6.43225 24.1923 68.2591
18953 2 3.70459 22.5815 68.2737
13265 1 10.0642 24.18 66.9893
13312 1 7.33651 22.57 67.004
18919 2 9.16083 22.5815 68.2737
13344 1 1.87941 25.7901 66.9736
18940 2 0.975075 27.4142 68.2263
13299 1 4.6071 27.4002 66.9567
18909 2 6.43131 27.4142 68.2263
18956 2 3.70366 25.8032 68.2432
13264 1 10.0633 27.4002 66.9567
13315 1 7.33565 25.7901 66.9736
18908 2 9.1599 25.8032 68.2432
13345 1 1.87856 29.0104 66.9386
18939 2 0.97414 30.6364 68.1888
13298 1 4.60626 30.6207 66.9193
18895 2 6.43038 30.6364 68.1888
18938 2 3.70273 29.0253 68.2082
13257 1 10.0625 30.6207 66.9193
13297 1 7.33479 29.0104 66.9386
18911 2 9.15896 29.0253 68.2082
13336 1 1.87773 32.2311 66.8988
18932 2 0.973207 33.8588 68.1466
13285 1 4.60544 33.8415 66.8771
18894 2 6.42945 33.8588 68.1466
18941 2 3.70179 32.2476 68.1683
13256 1 10.0617 33.8415 66.8771
13300 1 7.33397 32.2311 66.8988
18893 2 9.15803 32.2476 68.1683
13337 1 1.87691 35.452 66.8542
18931 2 0.972241 37.0813 68.0996
13284 1 4.60466 37.0624 66.83
18880 2 6.42848 37.0813 68.0996
18930 2 3.70085 35.47 68.1237
13245 1 10.0609 37.0624 66.83
13283 1 7.33315 35.452 66.8542
18896 2 9.15709 35.47 68.1237
13291 1 0.984367 21.0078 72.1521
13310 1 2.79898 20.9838 69.5765
13357 1 0.0713281 19.3723 69.589
18951 2 1.89654 19.3811 70.8462
13260 1 6.44061 21.0078 72.1521
13308 1 3.71304 19.3947 72.1647
13309 1 5.52757 19.3723 69.589
18906 2 4.62417 20.9934 70.8337
13259 1 9.16928 19.3947 72.1647
13263 1 8.25522 20.9838 69.5765
18864 2 10.0804 20.9934 70.8337
18916 2 7.35278 19.3811 70.8462
13290 1 0.983197 24.2341 72.1236
13295 1 2.79801 24.2068 69.5481
13342 1 0.0703796 22.5953 69.5629
18952 2 1.89555 22.6057 70.82
13252 1 6.43944 24.2341 72.1236
13289 1 3.71191 22.6209 72.1384
13311 1 5.52662 22.5953 69.5629
18905 2 4.62314 24.2182 70.8053
13261 1 9.16815 22.6209 72.1384
13262 1 8.25424 24.2068 69.5481
18863 2 10.0794 24.2182 70.8053
18904 2 7.35178 22.6057 70.82
13277 1 0.981983 27.4604 72.0906
13294 1 2.79701 27.4301 69.5152
13343 1 0.0693881 25.8185 69.5322
18936 2 1.89449 25.8307 70.7894
13251 1 6.43822 27.4604 72.0906
13292 1 3.71071 25.8472 72.1077
13293 1 5.52563 25.8185 69.5322
18891 2 4.62207 27.4433 70.7723
13250 1 9.16695 25.8472 72.1077
13255 1 8.25325 27.4301 69.5152
18862 2 10.0783 27.4433 70.7723
18907 2 7.35073 25.8307 70.7894
13276 1 0.980773 30.6866 72.0528
13281 1 2.79602 30.6535 69.4776
13334 1 0.0683908 29.0418 69.497
18937 2 1.89341 29.0559 70.7541
13241 1 6.43701 30.6866 72.0528
13275 1 3.70949 29.0735 72.0723
13296 1 5.52463 29.0418 69.497
18890 2 4.62098 30.6686 70.7347
13253 1 9.16573 29.0735 72.0723
13254 1 8.25226 30.6535 69.4776
18856 2 10.0772 30.6686 70.7347
18889 2 7.34965 29.0559 70.7541
13271 1 0.979599 33.9125 72.0103
13280 1 2.79505 33.8769 69.4351
13335 1 0.0674115 32.2653 69.457
18928 2 1.89232 32.2813 70.7141
13240 1 6.43584 33.9125 72.0103
13278 1 3.7083 32.2996 72.0322
13279 1 5.52365 32.2653 69.457
18879 2 4.6199 33.8939 70.6924
13239 1 9.16454 32.2996 72.0322
13244 1 8.25129 33.8769 69.4351
18855 2 10.0761 33.8939 70.6924
18892 2 7.34856 32.2813 70.7141
13270 1 0.978457 37.1378 71.9631
13272 1 2.79407 37.1001 69.3879
13333 1 0.0664444 35.4886 69.4121
18929 2 1.89122 35.5065 70.6694
13234 1 6.4347 37.1378 71.9631
13269 1 3.70715 35.5252 71.9873
13282 1 5.52268 35.4886 69.4121
18878 2 4.61878 37.119 70.6453
13242 1 9.16338 35.5252 71.9873
13243 1 8.25031 37.1001 69.3879
18848 2 10.075 37.119 70.6453
18877 2 7.34746 35.5065 70.6694
13287 1 1.83944 19.4248 74.8159
18883 2 0.975286 21.0418 75.8398
18902 2 2.81344 21.0153 73.3655
18950 2 0.0858837 19.4013 73.3781
13248 1 4.56684 21.0394 74.8033
18858 2 6.43152 21.0418 75.8398
18900 2 3.70409 19.4264 75.8524
18901 2 5.54212 19.4013 73.3781
13230 1 10.0231 21.0394 74.8033
13258 1 7.29568 19.4248 74.8159
18857 2 9.16033 19.4264 75.8524
18861 2 8.26968 21.0153 73.3655
13288 1 1.83798 22.654 74.7896
18882 2 0.973824 24.2727 75.8113
18887 2 2.81225 24.2434 73.337
18934 2 0.0847394 22.6293 73.3518
13247 1 4.56535 24.2684 74.7748
18851 2 6.43006 24.2727 75.8113
18881 2 3.70269 22.6573 75.8261
18903 2 5.54098 22.6293 73.3518
13229 1 10.0216 24.2684 74.7748
13246 1 7.29422 22.654 74.7896
18859 2 9.15892 22.6573 75.8261
18860 2 8.26849 24.2434 73.337
13273 1 1.83648 25.8827 74.7589
18871 2 0.972304 27.5035 75.7784
18886 2 2.81099 27.4718 73.304
18935 2 0.0835088 25.8575 73.3211
13237 1 4.56386 27.4968 74.7418
18850 2 6.42854 27.5035 75.7784
18884 2 3.70119 25.8881 75.7954
18885 2 5.53975 25.8575 73.3211
13228 1 10.0201 27.4968 74.7418
13249 1 7.29272 25.8827 74.7589
18849 2 9.15742 25.8881 75.7954
18854 2 8.26723 27.4718 73.304
13274 1 1.83504 29.1108 74.7236
18870 2 0.970813 30.734 75.7409
18875 2 2.80972 30.7003 73.2663
18926 2 0.0822364 29.086 73.2857
13236 1 4.56251 30.7245 74.7042
18844 2 6.42705 30.734 75.7409
18869 2 3.69967 29.1188 75.7602
18888 2 5.53847 29.086 73.2857
13227 1 10.0187 30.7245 74.7042
13235 1 7.29128 29.1108 74.7236
18852 2 9.15591 29.1188 75.7602
18853 2 8.26595 30.7003 73.2663
13267 1 1.83381 32.338 74.6836
18867 2 0.969437 33.9639 75.6989
18874 2 2.80844 33.9287 73.224
18927 2 0.0809598 32.3145 73.2458
13233 1 4.56143 33.9512 74.6619
18843 2 6.42568 33.9639 75.6989
18872 2 3.69823 32.349 75.7204
18873 2 5.5372 32.3145 73.2458
13226 1 10.0177 33.9512 74.6619
13238 1 7.29004 32.338 74.6836
18842 2 9.15446 32.349 75.7204
18847 2 8.26468 33.9287 73.224
13268 1 1.83291 35.5641 74.639
18866 2 0.968231 37.1928 75.6524
18868 2 2.80717 37.1565 73.1771
18925 2 0.079691 35.5427 73.2011
13232 1 4.56073 37.1767 74.615
18841 2 6.42447 37.1928 75.6524
18865 2 3.69693 35.5785 75.6761
18876 2 5.53593 35.5427 73.2011
13225 1 10.017 37.1767 74.615
13231 1 7.28915 35.5641 74.639
18845 2 9.15317 35.5785 75.6761
18846 2 8.26341 37.1565 73.1771
7137 2 0.914115 39.1843 -1.17868
7145 2 2.73052 39.1521 -3.68226
960 1 1.82058 40.7474 -2.64538
7150 2 0.00419819 40.7248 -3.70564
946 1 4.54552 39.1739 -2.62156
7107 2 6.37035 39.1843 -1.17868
7135 2 3.64333 40.7571 -1.20255
7146 2 5.46044 40.7248 -3.70564
900 1 10.0018 39.1739 -2.62156
7110 2 8.18676 39.1521 -3.68226
944 1 7.27682 40.7474 -2.64538
7108 2 9.09957 40.7571 -1.20255
7136 2 0.916314 42.3307 -1.22678
7141 2 2.73415 42.2985 -3.72935
956 1 1.82727 43.8968 -2.694
7151 2 0.00790441 43.8731 -3.75329
945 1 4.552 42.3216 -2.66957
7101 2 6.37255 42.3307 -1.22678
7138 2 3.64553 43.905 -1.25126
7139 2 5.46414 43.8731 -3.75329
899 1 10.0082 42.3216 -2.66957
7109 2 8.19039 42.2985 -3.72935
947 1 7.2835 43.8968 -2.694
7099 2 9.10177 43.905 -1.25126
7126 2 0.9185 45.4802 -1.27587
7140 2 2.73792 45.4487 -3.77732
957 1 1.83423 47.0498 -2.7431
7148 2 0.0117075 47.0254 -3.80133
938 1 4.55884 45.4728 -2.71856
7100 2 6.37474 45.4802 -1.27587
7124 2 3.64771 47.0563 -1.30046
7142 2 5.46795 47.0254 -3.80133
898 1 10.0151 45.4728 -2.71856
7104 2 8.19415 45.4487 -3.77732
936 1 7.29047 47.0498 -2.7431
7102 2 9.10394 47.0563 -1.30046
7125 2 0.92067 48.6332 -1.32491
7130 2 2.74175 48.6031 -3.82517
952 1 1.84131 50.2066 -2.79162
7149 2 0.0155506 50.182 -3.84872
937 1 4.56589 48.6277 -2.76751
7087 2 6.37691 48.6332 -1.32491
7127 2 3.64987 50.2111 -1.34907
7128 2 5.47179 50.182 -3.84872
891 1 10.0221 48.6277 -2.76751
7103 2 8.19799 48.6031 -3.82517
939 1 7.29755 50.2066 -2.79162
7085 2 9.10611 50.2111 -1.34907
7118 2 0.92283 51.79 -1.37279
7129 2 2.74559 51.762 -3.87182
953 1 1.84829 53.3672 -2.83834
7147 2 0.0193729 53.3432 -3.89433
924 1 4.57294 51.7864 -2.81528
7086 2 6.37907 51.79 -1.37279
7116 2 3.65203 53.3699 -1.39591
7131 2 5.47561 53.3432 -3.89433
890 1 10.0292 51.7864 -2.81528
7090 2 8.20183 51.762 -3.87182
922 1 7.30453 53.3672 -2.83834
7088 2 9.10826 53.3699 -1.39591
7117 2 0.924981 54.9508 -1.41827
7119 2 2.74937 54.9255 -3.91609
1343 1 1.85497 56.5315 -2.88205
7560 2 0.0231031 56.5088 -3.93697
923 1 4.5798 54.9489 -2.86065
7069 2 6.38122 54.9508 -1.41827
7551 2 3.65417 56.5326 -1.43974
7552 2 5.47934 56.5088 -3.93697
875 1 10.036 54.9489 -2.86065
7089 2 8.20561 54.9255 -3.91609
1332 1 7.31121 56.5315 -2.88205
7514 2 9.11041 56.5326 -1.43974
942 1 2.73202 39.2036 0.0430212
954 1 0.00536064 40.7769 0.0189779
7134 2 1.82458 40.792 1.34987
7097 2 4.55139 39.2189 1.37405
943 1 5.4616 40.7769 0.0189779
897 1 8.18826 39.2036 0.0430212
7044 2 10.0076 39.2189 1.37405
7095 2 7.28082 40.792 1.34987
934 1 2.73495 42.3507 -0.00543419
955 1 0.00830212 43.9253 -0.0301001
7122 2 1.82721 43.94 1.30048
7096 2 4.55401 42.3657 1.32531
931 1 3.6462 43.9582 2.56498
932 1 5.46454 43.9253 -0.0301001
896 1 8.19119 42.3507 -0.00543419
7043 2 10.0103 42.3657 1.32531
884 1 9.10243 43.9582 2.56498
7098 2 7.28344 43.94 1.30048
916 1 0.919556 45.5331 2.53975
933 1 2.7379 45.5007 -0.054895
950 1 0.0112531 47.0768 -0.0796853
7123 2 1.82981 47.0907 1.25052
885 1 6.37579 45.5331 2.53975
7083 2 4.55663 45.515 1.27551
914 1 3.64915 47.1087 2.51449
935 1 5.46749 47.0768 -0.0796853
889 1 8.19414 45.5007 -0.054895
7042 2 10.0129 45.515 1.27551
887 1 9.10539 47.1087 2.51449
7081 2 7.28605 47.0907 1.25052
915 1 0.922486 48.6849 2.48936
920 1 2.74084 48.6537 -0.104329
951 1 0.0141819 50.2314 -0.128679
7114 2 1.83237 50.2442 1.2011
871 1 6.37872 48.6849 2.48936
7082 2 4.55921 48.6671 1.22567
917 1 3.65205 50.2617 2.46451
918 1 5.47042 50.2314 -0.128679
888 1 8.19708 48.6537 -0.104329
7035 2 10.0155 48.6671 1.22567
869 1 9.10829 50.2617 2.46451
7084 2 7.28861 50.2442 1.2011
908 1 0.92535 51.8393 2.4401
919 1 2.74375 51.81 -0.15258
949 1 0.0170596 53.3894 -0.175878
7115 2 1.83487 53.401 1.15342
870 1 6.38159 51.8393 2.4401
7068 2 4.56175 51.8222 1.17697
906 1 3.65487 53.4175 2.41627
921 1 5.4733 53.3894 -0.175878
874 1 8.19999 51.81 -0.15258
7034 2 10.018 51.8222 1.17697
872 1 9.11111 53.4175 2.41627
7066 2 7.29111 53.401 1.15342
907 1 0.928123 54.9965 2.39321
909 1 2.74659 54.9696 -0.198414
1342 1 0.0198515 56.5508 -0.220032
7541 2 1.8373 56.5609 1.10876
853 1 6.38436 54.9965 2.39321
7067 2 4.56422 54.9805 1.13064
1324 1 3.65759 56.5761 2.37108
1325 1 5.47609 56.5508 -0.220032
873 1 8.20283 54.9696 -0.198414
7019 2 10.0205 54.9805 1.13064
1277 1 9.11382 56.5761 2.37108
7513 2 7.29354 56.5609 1.10876
930 1 0.913635 39.2367 2.63925
7093 2 2.73228 39.2523 3.94033
927 1 1.82438 40.8424 5.19546
7120 2 0.00567179 40.8255 3.9159
894 1 6.36987 39.2367 2.63925
928 1 3.64323 40.81 2.61485
882 1 4.55087 39.269 5.22016
7094 2 5.46191 40.8255 3.9159
895 1 9.09947 40.81 2.61485
828 1 10.0071 39.269 5.22016
7041 2 8.18852 39.2523 3.94033
880 1 7.28062 40.8424 5.19546
929 1 0.916592 42.3838 2.59006
7079 2 2.73531 42.3992 3.89106
912 1 1.82768 43.9901 5.14487
7121 2 0.00872029 43.9734 3.86592
886 1 6.37283 42.3838 2.59006
881 1 4.55415 42.4161 5.17033
7077 2 5.46496 43.9734 3.86592
827 1 10.0104 42.4161 5.17033
7040 2 8.19155 42.3992 3.89106
883 1 7.28392 43.9901 5.14487
7078 2 2.73836 45.548 3.84061
913 1 1.83095 47.1396 5.09349
7112 2 0.0117535 47.1232 3.81526
867 1 4.55744 45.5646 5.11921
7080 2 5.46799 47.1232 3.81526
826 1 10.0137 45.5646 5.11921
7033 2 8.1946 45.548 3.84061
865 1 7.28719 47.1396 5.09349
7064 2 2.74137 48.6989 3.79002
904 1 1.83417 50.2909 5.04248
7113 2 0.014731 50.2753 3.76504
866 1 4.56069 48.715 5.06786
7062 2 5.47097 50.2753 3.76504
819 1 10.0169 48.715 5.06786
7032 2 8.19761 48.6989 3.79002
868 1 7.29041 50.2909 5.04248
7063 2 2.74431 51.8523 3.74048
905 1 1.83728 53.4444 4.99352
7111 2 0.0176239 53.4299 3.7165
852 1 4.56385 51.8675 5.0175
7065 2 5.47386 53.4299 3.7165
818 1 10.0201 51.8675 5.0175
7018 2 8.20055 51.8523 3.74048
850 1 7.29352 53.4444 4.99352
7053 2 2.74715 55.0082 3.69327
1310 1 1.84027 56.6003 4.94722
7540 2 0.0204081 56.5872 3.67095
851 1 4.56691 55.022 4.9699
7500 2 5.47665 56.5872 3.67095
804 1 10.0231 55.022 4.9699
7017 2 8.20339 55.0082 3.69327
1276 1 7.29651 56.6003 4.94722
878 1 2.73153 39.3004 7.79669
7075 2 0.913049 39.2845 6.51159
910 1 0.00520742 40.8737 7.77177
7072 2 1.82347 40.8892 9.06027
7026 2 4.54974 39.3159 9.0851
7038 2 6.36929 39.2845 6.51159
879 1 5.46145 40.8737 7.77177
7073 2 3.64286 40.8578 6.48692
825 1 8.18777 39.3004 7.79669
6984 2 10.006 39.3159 9.0851
7024 2 7.27971 40.8892 9.06027
7039 2 9.0991 40.8578 6.48692
863 1 2.73514 42.4472 7.74636
7074 2 0.916453 42.4314 6.4618
911 1 0.00885517 44.0209 7.72057
7056 2 1.82726 44.0361 9.00917
7025 2 4.55347 42.4626 9.03492
7030 2 6.37269 42.4314 6.4618
861 1 5.46509 44.0209 7.72057
7076 2 3.64629 44.0052 6.43634
824 1 8.19138 42.4472 7.74636
6983 2 10.0097 42.4626 9.03492
7027 2 7.28349 44.0361 9.00917
7028 2 9.10253 44.0052 6.43634
862 1 2.7388 45.5949 7.69453
7060 2 0.919888 45.5794 6.41066
902 1 0.0125047 47.1692 7.66837
7057 2 1.83107 47.1838 8.95697
7011 2 4.55728 45.6098 8.98314
7029 2 6.37613 45.5794 6.41066
864 1 5.46874 47.1692 7.66837
7058 2 3.64971 47.154 6.3849
817 1 8.19504 45.5949 7.69453
6982 2 10.0135 45.6098 8.98314
7009 2 7.28731 47.1838 8.95697
7031 2 9.10595 47.154 6.3849
848 1 2.74242 48.7438 7.64225
7059 2 0.923284 48.729 6.35921
903 1 0.0160742 50.3188 7.61635
7048 2 1.83484 50.3325 8.90481
7010 2 4.56108 48.758 8.9308
7015 2 6.37952 48.729 6.35921
846 1 5.47231 50.3188 7.61635
7061 2 3.65307 50.3045 6.33374
816 1 8.19866 48.7438 7.64225
6976 2 10.0173 48.758 8.9308
7012 2 7.29108 50.3325 8.90481
7013 2 9.10931 50.3045 6.33374
847 1 2.74596 51.8942 7.59086
7052 2 0.926573 51.8805 6.30869
901 1 0.0195347 53.4702 7.56592
7049 2 1.8385 53.4828 8.85401
6999 2 4.56481 51.9074 8.87916
7014 2 6.38281 51.8805 6.30869
849 1 5.47577 53.4702 7.56592
7050 2 3.65633 53.457 6.28419
803 1 8.2022 51.8942 7.59086
6975 2 10.021 51.9074 8.87916
6997 2 7.29474 53.4828 8.85401
7016 2 9.11257 53.457 6.28419
837 1 2.74933 55.0466 7.54168
7051 2 0.929787 55.034 6.26041
1309 1 0.0228286 56.6236 7.51832
7479 2 1.84201 56.6348 8.80602
6998 2 4.5684 55.0585 8.82957
7000 2 6.38603 55.034 6.26041
1261 1 5.47907 56.6236 7.51832
7499 2 3.65944 56.6116 6.23753
802 1 8.20557 55.0466 7.54168
6968 2 10.0246 55.0585 8.82957
7444 2 7.29825 56.6348 8.80602
7445 2 9.11568 56.6116 6.23753
859 1 0.9118 39.3314 10.3723
7022 2 2.7298 39.3471 11.6599
7054 2 0.00366095 40.9204 11.6349
822 1 6.36804 39.3314 10.3723
857 1 3.64186 40.9046 10.3472
7023 2 5.4599 40.9204 11.6349
6981 2 8.18604 39.3471 11.6599
823 1 9.0981 40.9046 10.3472
858 1 0.91572 42.4779 10.3216
7007 2 2.73381 42.4936 11.6094
7055 2 0.00776692 44.0668 11.5835
814 1 6.37196 42.4779 10.3216
860 1 3.64585 44.0512 10.2956
7005 2 5.46401 44.0668 11.5835
6980 2 8.19005 42.4936 11.6094
812 1 9.10208 44.0512 10.2956
844 1 0.919748 45.6247 10.2692
7006 2 2.73799 45.64 11.5571
7046 2 0.0119844 47.2133 11.5305
813 1 6.37599 45.6247 10.2692
842 1 3.64989 47.1982 10.2426
7008 2 5.46822 47.2133 11.5305
6974 2 8.19423 45.64 11.5571
815 1 9.10613 47.1982 10.2426
843 1 0.92378 48.772 10.216
6995 2 2.74222 48.7867 11.5039
7047 2 0.0162076 50.3602 11.4773
800 1 6.38002 48.772 10.216
845 1 3.65389 50.3461 10.1895
6993 2 5.47245 50.3602 11.4773
6973 2 8.19846 48.7867 11.5039
798 1 9.11013 50.3461 10.1895
836 1 0.927733 51.9205 10.1633
6994 2 2.74641 51.934 11.451
7045 2 0.020348 53.5081 11.4251
799 1 6.38397 51.9205 10.1633
834 1 3.65777 53.4952 10.1376
6996 2 5.47659 53.5081 11.4251
6967 2 8.20265 51.934 11.451
801 1 9.11401 53.4952 10.1376
835 1 0.931532 55.0703 10.1126
6988 2 2.75049 55.0826 11.3999
7478 2 0.0243446 56.6574 11.3755
789 1 6.38777 55.0703 10.1126
1260 1 3.66148 56.6459 10.0885
7429 2 5.48058 56.6574 11.3755
6966 2 8.20672 55.0826 11.3999
1205 1 9.11772 56.6459 10.0885
806 1 2.72717 39.3949 15.5244
7003 2 0.909396 39.379 14.2355
7020 2 3.63554 37.8054 14.2597
856 1 1.82179 40.9359 12.923
805 1 5.45327 37.8213 15.5486
810 1 4.54785 39.3627 12.9481
6978 2 6.36563 39.379 14.2355
3926 1 10.9095 37.8213 15.5486
777 1 8.1834 39.3949 15.5244
780 1 10.0041 39.3627 12.9481
6977 2 9.09178 37.8054 14.2597
808 1 7.27803 40.9359 12.923
792 1 2.73152 42.5411 15.4737
838 1 0.00117005 40.9682 15.4994
7002 2 0.913621 42.5253 14.1851
840 1 1.82608 44.0819 12.871
807 1 5.45741 40.9682 15.4994
809 1 4.55203 42.509 12.8973
6971 2 6.36986 42.5253 14.1851
7001 2 3.63959 40.9523 14.2106
7004 2 3.64397 44.0982 14.1589
776 1 8.18775 42.5411 15.4737
779 1 10.0083 42.509 12.8973
6979 2 9.09582 40.9523 14.2106
811 1 7.28232 44.0819 12.871
6969 2 9.10021 44.0982 14.1589
791 1 2.73623 45.6862 15.4205
839 1 0.00571472 44.1138 15.4474
6991 2 0.918138 45.6709 14.1323
841 1 1.83053 47.2277 12.8174
790 1 5.46195 44.1138 15.4474
796 1 4.55642 45.6548 12.8443
6970 2 6.37438 45.6709 14.1323
6989 2 3.64859 47.2435 14.1054
773 1 8.19247 45.6862 15.4205
778 1 10.0127 45.6548 12.8443
6972 2 9.10483 47.2435 14.1054
794 1 7.28677 47.2277 12.8174
832 1 1.83501 50.3736 12.7631
784 1 2.74118 48.8304 15.3655
830 1 0.0105649 47.2584 15.3932
6990 2 0.922826 48.8161 14.0782
831 1 0.0155728 50.4024 15.3377
793 1 5.4668 47.2584 15.3932
795 1 4.5609 48.8006 12.7902
6964 2 6.37906 48.8161 14.0782
6992 2 3.65331 50.3886 14.051
782 1 5.47181 50.4024 15.3377
797 1 7.29125 50.3736 12.7631
772 1 8.19742 48.8304 15.3655
775 1 10.0171 48.8006 12.7902
6962 2 9.10955 50.3886 14.051
833 1 1.83941 53.5203 12.7097
6987 2 0.927554 51.9613 14.0239
783 1 2.74621 51.9744 15.31
829 1 0.0205877 53.5465 15.2826
6963 2 6.38379 51.9613 14.0239
788 1 4.56535 51.9468 12.7362
6985 2 3.65802 53.5341 13.9972
785 1 5.47683 53.5465 15.2826
6965 2 9.11426 53.5341 13.9972
774 1 10.0216 51.9468 12.7362
770 1 8.20244 51.9744 15.31
786 1 7.29565 53.5203 12.7097
6986 2 0.93222 55.1071 13.9711
781 1 2.75118 55.1188 15.2557
1239 1 1.84366 56.6682 12.6587
1238 1 0.025516 56.6914 15.2295
6961 2 6.38846 55.1071 13.9711
787 1 4.56968 55.0941 12.6838
1189 1 5.48175 56.6914 15.2295
7428 2 3.66263 56.6805 13.9458
1204 1 7.2999 56.6682 12.6587
771 1 10.0259 55.0941 12.6838
769 1 8.20742 55.1188 15.2557
7385 2 9.11887 56.6805 13.9458
7343 2 1.81463 37.838 16.8359
1150 1 0.905951 39.4287 18.1013
1152 1 3.63209 37.8546 18.1252
7330 2 4.54473 39.4119 16.8119
1127 1 6.36219 39.4287 18.1013
7332 2 7.27087 37.838 16.8359
1126 1 9.08833 37.8546 18.1252
7284 2 10.001 39.4119 16.8119
7344 2 1.81871 40.9854 16.7872
1149 1 0.910351 42.5752 18.0511
1148 1 3.6362 41.0022 18.0766
7329 2 4.54906 42.5585 16.7617
1123 1 6.36659 42.5752 18.0511
7328 2 7.27495 40.9854 16.7872
1128 1 9.09244 41.0022 18.0766
7283 2 10.0053 42.5585 16.7617
7340 2 1.82329 44.1312 16.7355
1143 1 0.915309 45.7198 17.9978
7322 2 4.55386 45.7035 16.7088
1122 1 6.37155 45.7198 17.9978
1151 1 3.64088 44.1477 18.0248
7331 2 7.27953 44.1312 16.7355
1121 1 9.09712 44.1477 18.0248
7282 2 10.0101 45.7035 16.7088
7341 2 1.82828 47.2755 16.6815
1142 1 0.920715 48.8626 17.9421
7304 2 2.73814 48.8813 19.2309
7321 2 4.55901 48.8472 16.6538
1111 1 6.37695 48.8626 17.9421
1141 1 3.64609 47.2914 17.9702
1124 1 9.10232 47.2914 17.9702
7272 2 8.19438 48.8813 19.2309
7275 2 10.0152 48.8472 16.6538
7320 2 7.28452 47.2755 16.6815
7336 2 1.83355 50.4188 16.626
7335 2 0.0129759 50.4519 19.2024
1136 1 0.926389 52.0043 17.8852
7303 2 2.74413 52.0222 19.1738
1110 1 6.38263 52.0043 17.8852
1144 1 3.65165 50.4335 17.9137
7302 2 5.46921 50.4519 19.2024
7308 2 4.56435 51.9902 16.5981
7323 2 7.28978 50.4188 16.626
1109 1 9.10789 50.4335 17.9137
7258 2 8.20037 52.0222 19.1738
7274 2 10.0206 51.9902 16.5981
7337 2 1.83892 53.5617 16.5705
7333 2 0.0191037 53.5922 19.1451
1135 1 0.932149 55.1457 17.8286
7293 2 2.75035 55.1622 19.1167
1093 1 6.38839 55.1457 17.8286
1134 1 3.65739 53.5749 17.8567
7305 2 5.47534 53.5922 19.1451
7307 2 4.56973 55.1333 16.5433
1112 1 9.11362 53.5749 17.8567
7257 2 8.20659 55.1622 19.1167
7259 2 10.026 55.1333 16.5433
7306 2 7.29516 53.5617 16.5705
7326 2 2.72332 39.4467 19.3889
1146 1 1.8105 37.8897 20.7021
7314 2 0.901458 39.4836 21.9661
7324 2 3.62785 37.9083 21.9891
7325 2 5.44953 37.8722 19.4124
1119 1 4.54047 39.4645 20.6787
7278 2 6.3577 39.4836 21.9661
1125 1 7.26674 37.8897 20.7021
7281 2 8.17955 39.4467 19.3889
1068 1 9.99671 39.4645 20.6787
7277 2 9.08409 37.9083 21.9891
10606 2 10.9058 37.8722 19.4124
7318 2 2.72762 42.5938 19.3392
1147 1 1.81439 41.0385 20.6544
7313 2 0.905513 42.6321 21.9173
7312 2 3.6315 41.0582 21.9421
7327 2 5.4535 41.0206 19.3644
1118 1 4.54474 42.6119 20.6292
7270 2 6.36175 42.6321 21.9173
1117 1 7.27063 41.0385 20.6544
7280 2 8.18385 42.5938 19.3392
1067 1 10.001 42.6119 20.6292
7279 2 9.08774 41.0582 21.9421
10602 2 10.9097 41.0206 19.3644
7339 2 0.00189946 44.1665 19.3131
7317 2 2.73258 45.7387 19.2863
1139 1 1.81905 44.1845 20.6032
7300 2 0.910449 45.7773 21.8649
7315 2 3.63599 44.2051 21.8915
7316 2 5.45814 44.1665 19.3131
1107 1 4.54979 45.7565 20.5763
7269 2 6.36669 45.7773 21.8649
7273 2 8.18882 45.7387 19.2863
1066 1 10.006 45.7565 20.5763
1120 1 7.27529 44.1845 20.6032
7268 2 9.09223 44.2051 21.8915
7334 2 0.00717744 47.3102 19.2589
1140 1 1.82448 47.3277 20.5486
7299 2 0.916284 48.9193 21.8093
7319 2 5.46342 47.3102 19.2589
1106 1 4.55557 48.8983 20.5202
7255 2 6.37252 48.9193 21.8093
7298 2 3.64138 47.3487 21.8375
1059 1 10.0118 48.8983 20.5202
1105 1 7.28072 47.3277 20.5486
7271 2 9.09762 47.3487 21.8375
1132 1 1.83057 50.4682 20.4913
7292 2 0.922905 52.0584 21.751
1092 1 4.56192 52.0378 20.4619
7254 2 6.37914 52.0584 21.751
7301 2 3.64763 50.4892 21.7804
1058 1 10.0182 52.0378 20.4619
1108 1 7.28681 50.4682 20.4913
7253 2 9.10387 50.4892 21.7804
1133 1 1.83711 53.607 20.4324
7291 2 0.93008 55.1954 21.6915
1091 1 4.56859 55.176 20.4029
7237 2 6.38632 55.1954 21.6915
7290 2 3.65456 53.6271 21.7213
1043 1 10.0248 55.176 20.4029
1090 1 7.29335 53.607 20.4324
7256 2 9.1108 53.6271 21.7213
1099 1 0.895974 39.5436 25.8331
1115 1 2.71834 39.5027 23.2561
7310 2 1.80597 37.9465 24.5655
1113 1 3.62282 37.9663 25.8552
1062 1 6.35221 39.5436 25.8331
1114 1 5.44484 37.9269 23.2789
7266 2 4.53553 39.5231 24.5431
7276 2 7.26221 37.9465 24.5655
1061 1 9.07906 37.9663 25.8552
1065 1 8.17458 39.5027 23.2561
7212 2 9.99177 39.5231 24.5431
4217 1 10.9011 37.9269 23.2789
1098 1 0.899211 42.6953 25.7864
1103 1 2.72224 42.6518 23.2078
7311 2 1.80906 41.0988 24.5198
1097 1 3.62559 41.1199 25.8102
1054 1 6.35545 42.6953 25.7864
1116 1 5.44829 41.0777 23.2324
7265 2 4.53908 42.6736 24.4956
7264 2 7.2653 41.0988 24.5198
1063 1 9.08182 41.1199 25.8102
1064 1 8.17847 42.6518 23.2078
7211 2 9.99532 42.6736 24.4956
4209 1 10.9045 41.0777 23.2324
1084 1 0.903596 45.8428 25.7357
1102 1 2.72713 45.7972 23.1557
7296 2 1.81312 44.2475 24.4704
1100 1 3.62936 44.2696 25.7616
1053 1 6.35983 45.8428 25.7357
1101 1 5.45267 44.225 23.1822
7251 2 4.54369 45.8203 24.4443
7267 2 7.26936 44.2475 24.4704
1052 1 9.0856 44.2696 25.7616
1057 1 8.18337 45.7972 23.1557
7210 2 9.99993 45.8203 24.4443
4210 1 10.9089 44.225 23.1822
1083 1 0.909374 48.9852 25.6808
1088 1 2.73309 48.9387 23.0999
1130 1 0.00185634 47.3685 23.1283
7297 2 1.81833 47.3921 24.4172
1082 1 3.63442 47.4147 25.7088
1039 1 6.36561 48.9852 25.6808
1104 1 5.45809 47.3685 23.1283
7250 2 4.54952 48.9627 24.3891
7249 2 7.27457 47.3921 24.4172
1055 1 9.09066 47.4147 25.7088
1056 1 8.18933 48.9387 23.0999
7203 2 10.0058 48.9627 24.3891
1076 1 0.916668 52.1223 25.6214
1087 1 2.74004 52.0765 23.0406
1131 1 0.00833476 50.508 23.0706
7288 2 1.8248 50.5322 24.36
1038 1 6.37291 52.1223 25.6214
1085 1 3.64095 50.5544 25.6517
1086 1 5.46457 50.508 23.0706
7236 2 4.55661 52.1006 24.3301
1037 1 9.09719 50.5544 25.6517
1042 1 8.19628 52.0765 23.0406
7202 2 10.0128 52.1006 24.3301
7252 2 7.28103 50.5322 24.36
1075 1 0.925318 55.2543 25.5579
1077 1 2.74772 55.2114 22.9791
1129 1 0.0156891 53.6442 23.01
7289 2 1.83246 53.6681 24.2995
1022 1 6.38156 55.2543 25.5579
1074 1 3.64897 53.6888 25.5901
1089 1 5.47193 53.6442 23.01
7235 2 4.56477 55.2348 24.2684
1040 1 9.1052 53.6888 25.5901
1041 1 8.20395 55.2114 22.9791
7188 2 10.021 55.2348 24.2684
7234 2 7.2887 53.6681 24.2995
1095 1 1.80095 38.008 28.4304
7262 2 2.71327 39.5652 27.1195
1050 1 4.52989 39.5871 28.4092
7261 2 5.44034 37.987 27.1411
1060 1 7.25718 38.008 28.4304
1002 1 9.98612 39.5871 28.4092
7209 2 8.16951 39.5652 27.1195
10573 2 10.8966 37.987 27.1411
1096 1 1.80279 41.1654 28.3872
7247 2 2.71604 42.7189 27.0736
1049 1 4.53218 42.7426 28.3643
7263 2 5.44265 41.1425 27.097
1048 1 7.25903 41.1654 28.3872
1001 1 9.98841 42.7426 28.3643
7208 2 8.17228 42.7189 27.0736
10558 2 10.8989 41.1425 27.097
1080 1 1.80561 44.3187 28.3404
7246 2 2.71995 45.8682 27.0238
1035 1 4.53563 45.8936 28.3156
7245 2 5.44595 44.2941 27.0492
1051 1 7.26185 44.3187 28.3404
1000 1 9.99187 45.8936 28.3156
7201 2 8.17619 45.8682 27.0238
10559 2 10.9022 44.2941 27.0492
1081 1 1.80981 47.467 28.2896
7232 2 2.72533 49.0124 26.9697
1034 1 4.54069 49.0388 28.2625
7248 2 5.45055 47.441 26.9973
1033 1 7.26605 47.467 28.2896
993 1 9.99693 49.0388 28.2625
7200 2 8.18157 49.0124 26.9697
10550 2 10.9068 47.441 26.9973
1072 1 1.81583 50.6089 28.234
7231 2 2.73248 52.1506 26.911
7287 2 0.000552052 50.5822 26.941
1021 1 4.54777 52.177 28.2041
7230 2 5.45679 50.5822 26.941
1036 1 7.27207 50.6089 28.234
992 1 10.004 52.177 28.2041
7187 2 8.18871 52.1506 26.911
1073 1 1.82403 53.7432 28.1728
7221 2 2.74144 55.2827 26.8476
7285 2 0.00862364 53.7174 26.8798
1020 1 4.55706 55.3075 28.1399
7233 2 5.46486 53.7174 26.8798
981 1 10.0133 55.3075 28.1399
1019 1 7.28026 53.7432 28.1728
7186 2 8.19768 55.2827 26.8476
1046 1 2.70796 39.6332 30.9837
7239 2 1.79788 38.0742 32.288
7243 2 0.891247 39.6099 29.6946
7260 2 3.61879 38.0297 29.7155
1045 1 5.43578 38.0518 31.0041
7194 2 4.52607 39.6569 32.2679
7206 2 6.34749 39.6099 29.6946
7204 2 7.25411 38.0742 32.288
999 1 8.1642 39.6332 30.9837
7164 2 9.9823 39.6569 32.2679
7205 2 9.07503 38.0297 29.7155
4166 1 10.892 38.0518 31.0041
1031 1 2.70907 42.7935 30.9406
7240 2 1.79814 41.2389 32.247
7242 2 0.892983 42.7678 29.6505
7241 2 3.62012 41.1893 29.673
1047 1 5.43654 41.2138 30.9626
7193 2 4.52662 42.8201 32.2254
7198 2 6.34922 42.7678 29.6505
7192 2 7.25438 41.2389 32.247
998 1 8.16531 42.7935 30.9406
7163 2 9.98286 42.8201 32.2254
7207 2 9.07636 41.1893 29.673
4150 1 10.8928 41.2138 30.9626
1030 1 2.7112 45.9496 30.8942
7224 2 1.79907 44.4003 32.2029
7228 2 0.895791 45.9213 29.6026
7244 2 3.62235 44.3452 29.627
1029 1 5.4381 44.3722 30.9179
7180 2 4.52802 45.9793 32.1796
7197 2 6.35203 45.9213 29.6026
7195 2 7.25531 44.4003 32.2029
991 1 8.16744 45.9496 30.8942
7162 2 9.98426 45.9793 32.1796
7196 2 9.07858 44.3452 29.627
4151 1 10.8943 44.3722 30.9179
1017 1 2.71488 49.0999 30.8436
7225 2 1.80106 47.5571 32.1553
7227 2 0.900142 49.0692 29.5504
7226 2 3.62586 47.496 29.5771
1032 1 5.44092 47.5256 30.8695
7179 2 4.53076 49.1332 32.1298
7184 2 6.35638 49.0692 29.5504
7178 2 7.2573 47.5571 32.1553
990 1 8.17112 49.0999 30.8436
7159 2 9.987 49.1332 32.1298
7199 2 9.0821 47.496 29.5771
4142 1 10.8972 47.5256 30.8695
1016 1 2.72085 52.2424 30.7878
7216 2 1.80474 50.7075 32.103
7220 2 0.906611 52.2099 29.493
7229 2 3.63119 50.6405 29.5225
1015 1 5.44565 50.6723 30.8165
7172 2 4.53561 52.2796 32.0748
7183 2 6.36285 52.2099 29.493
7181 2 7.26098 50.7075 32.103
980 1 8.17709 52.2424 30.7878
7158 2 9.99184 52.2796 32.0748
7182 2 9.08743 50.6405 29.5225
4143 1 10.9019 50.6723 30.8165
1008 1 2.72989 55.3747 30.7252
7217 2 1.81101 53.8491 32.0447
7219 2 0.915728 55.3421 29.4293
1018 1 5.45307 53.81 30.7575
7171 2 4.54358 55.4156 32.0126
7173 2 6.37197 55.3421 29.4293
7218 2 3.63894 53.7771 29.462
7170 2 7.26725 53.8491 32.0447
979 1 8.18613 55.3747 30.7252
7155 2 9.99982 55.4156 32.0126
7185 2 9.09518 53.7771 29.462
4141 1 10.9093 53.81 30.7575
1027 1 0.88684 39.6813 33.5559
7190 2 2.70565 39.7058 34.8386
1044 1 3.61519 38.0973 33.5756
996 1 6.34308 39.6813 33.5559
7189 2 5.43419 38.1203 34.8582
995 1 9.07143 38.0973 33.5756
7161 2 8.16189 39.7058 34.8386
10502 2 10.8904 38.1203 34.8582
1026 1 0.88669 42.8476 33.5146
7176 2 2.70504 42.8752 34.7975
1025 1 3.61482 41.2648 33.5356
988 1 6.34293 42.8476 33.5146
7191 2 5.43342 41.2908 34.8184
997 1 9.07106 41.2648 33.5356
7160 2 8.16128 42.8752 34.7975
10486 2 10.8897 41.2908 34.8184
1013 1 0.887221 46.0104 33.4703
7175 2 2.70492 46.0416 34.7535
1028 1 3.61496 44.4295 33.4928
987 1 6.34346 46.0104 33.4703
7174 2 5.43302 44.4588 34.7759
986 1 9.0712 44.4295 33.4928
7157 2 8.16116 46.0416 34.7535
10487 2 10.8893 44.4588 34.7759
1011 1 3.61601 47.59 33.4469
1012 1 0.888944 49.1683 33.4226
7168 2 2.70571 49.2038 34.706
7177 2 5.43329 47.6233 34.7302
977 1 6.34518 49.1683 33.4226
7156 2 8.16195 49.2038 34.706
989 1 9.07225 47.59 33.4469
10478 2 10.8895 47.6233 34.7302
1014 1 3.61862 50.7448 33.3972
7167 2 2.7081 52.3595 34.6538
1007 1 0.89272 52.3191 33.3705
7166 2 5.43476 50.7827 34.6806
976 1 6.34896 52.3191 33.3705
7154 2 8.16434 52.3595 34.6538
975 1 9.07486 50.7448 33.3972
10479 2 10.891 50.7827 34.6806
1005 1 3.62389 53.8908 33.3423
7165 2 2.71333 55.505 34.5946
1006 1 0.899873 55.4592 33.3123
1004 1 1.79393 53.9857 35.9235
7169 2 5.43838 53.9339 34.6253
970 1 6.35611 55.4592 33.3123
968 1 4.5239 55.5626 35.8969
967 1 7.25017 53.9857 35.9235
7153 2 8.16957 55.505 34.5946
978 1 9.08013 53.8908 33.3423
10477 2 10.8946 53.9339 34.6253
961 1 9.98014 55.5626 35.8969
7366 2 0.886594 39.756 37.4064
13577 1 2.70479 39.7819 38.6916
1023 1 1.79575 38.1441 36.1446
7368 2 3.61553 38.1675 37.4256
7355 2 6.34283 39.756 37.4064
13576 1 5.43398 38.1917 38.7106
984 1 4.52317 39.7311 36.1254
994 1 7.25199 38.1441 36.1446
7354 2 9.07177 38.1675 37.4256
13542 1 8.16103 39.7819 38.6916
966 1 9.97941 39.7311 36.1254
16404 1 10.8902 38.1917 38.7106
7365 2 0.884989 42.9321 37.366
13573 1 2.70256 42.9619 38.6518
1024 1 1.79437 41.3177 36.1056
7364 2 3.6139 41.3442 37.3865
7352 2 6.34123 42.9321 37.366
13578 1 5.43181 41.3719 38.672
983 1 4.52184 42.904 36.0852
982 1 7.25061 41.3177 36.1056
7356 2 9.07014 41.3442 37.3865
13541 1 8.1588 42.9619 38.6518
965 1 9.97808 42.904 36.0852
16402 1 10.888 41.3719 38.672
7362 2 0.883535 46.1068 37.323
13572 1 2.70021 46.1417 38.6098
1009 1 1.79314 44.4897 36.0642
7367 2 3.61235 44.5197 37.3448
7351 2 6.33977 46.1068 37.323
13571 1 5.42952 44.5518 38.6311
973 1 4.52078 46.0748 36.0425
985 1 7.24938 44.4897 36.0642
7350 2 9.06859 44.5197 37.3448
13536 1 8.15645 46.1417 38.6098
964 1 9.97702 46.0748 36.0425
16403 1 10.8858 44.5518 38.6311
7361 2 0.882464 49.2792 37.277
13562 1 2.69777 49.3213 38.5657
1010 1 1.79231 47.6592 36.0203
7360 2 3.61105 47.6934 37.3004
7348 2 6.3387 49.2792 37.277
13574 1 5.42712 47.7315 38.588
972 1 4.52029 49.2428 35.9973
971 1 7.24855 47.6592 36.0203
7353 2 9.06729 47.6934 37.3004
13535 1 8.15401 49.3213 38.5657
963 1 9.97652 49.2428 35.9973
16400 1 10.8834 47.7315 38.588
7359 2 0.882224 52.4478 37.2268
13561 1 2.69509 52.5016 38.5194
1003 1 1.7923 50.8252 35.9735
7363 2 3.61032 50.8642 37.2525
7347 2 6.33846 52.4478 37.2268
13560 1 5.42461 50.9113 38.5428
969 1 4.52095 52.4063 35.949
974 1 7.24854 50.8252 35.9735
7346 2 9.06656 50.8642 37.2525
13522 1 8.15133 52.5016 38.5194
962 1 9.97719 52.4063 35.949
16401 1 10.8808 50.9113 38.5428
7358 2 0.883756 55.6094 37.1703
13551 1 2.69123 55.6843 38.4714
7357 2 3.6108 54.0298 37.1996
7345 2 6.33999 55.6094 37.1703
13563 1 5.42159 54.0923 38.4955
7349 2 9.06703 54.0298 37.1996
13521 1 8.14747 55.6843 38.4714
16399 1 10.8778 54.0923 38.4955
19199 2 1.79834 38.2153 39.9901
19182 2 2.7096 39.8578 42.5319
13569 1 0.888131 39.833 41.2544
13575 1 3.61752 38.2398 41.2736
19186 2 4.52537 39.8068 39.9708
19181 2 5.43893 38.2632 42.5516
13539 1 6.34437 39.833 41.2544
19188 2 7.25458 38.2153 39.9901
13538 1 9.07376 38.2398 41.2736
19137 2 8.16584 39.8578 42.5319
19140 2 9.98161 39.8068 39.9708
22018 2 10.8952 38.2632 42.5516
19200 2 1.79613 41.3984 39.9509
13568 1 0.885375 43.0203 41.2142
19174 2 2.70703 43.048 42.4906
13567 1 3.61491 41.4265 41.2346
19185 2 4.5231 42.9901 39.9304
19183 2 5.43646 41.4527 42.5116
13533 1 6.34161 43.0203 41.2142
19184 2 7.25237 41.3984 39.9509
13540 1 9.07115 41.4265 41.2346
19136 2 8.16327 43.048 42.4906
19139 2 9.97934 42.9901 39.9304
22014 2 10.8927 41.4527 42.5116
19196 2 1.79381 44.5817 39.9092
13558 1 0.882286 46.2093 41.1716
19173 2 2.70428 46.2399 42.4463
13570 1 3.612 44.6145 41.1932
19178 2 4.52074 46.1734 39.8873
13532 1 6.33852 46.2093 41.1716
19172 2 5.4338 44.6437 42.4689
19187 2 7.25004 44.5817 39.9092
13531 1 9.06824 44.6145 41.1932
19129 2 8.16052 46.2399 42.4463
19138 2 9.97698 46.1734 39.8873
22015 2 10.89 44.6437 42.4689
19197 2 1.79143 47.7652 39.8647
13557 1 0.878696 49.401 41.1265
19160 2 2.70139 49.4344 42.3985
13556 1 3.60869 47.8047 41.1494
19177 2 4.51839 49.357 39.8412
13519 1 6.33493 49.401 41.1265
19175 2 5.43097 47.8368 42.4229
19176 2 7.24767 47.7652 39.8647
13534 1 9.06493 47.8047 41.1494
19128 2 8.15763 49.4344 42.3985
19131 2 9.97463 49.357 39.8412
22010 2 10.8872 47.8368 42.4229
19192 2 1.78917 50.9489 39.8167
13550 1 0.874053 52.5983 41.0788
19159 2 2.6984 52.6327 42.3457
13559 1 3.60469 50.9987 41.103
13518 1 6.33029 52.5983 41.0788
19158 2 5.42803 51.033 42.3728
19164 2 4.51628 52.5407 39.791
19179 2 7.24541 50.9489 39.8167
13517 1 9.06093 50.9987 41.103
19114 2 8.15464 52.6327 42.3457
19130 2 9.97252 52.5407 39.791
22011 2 10.8843 51.033 42.3728
19193 2 1.7873 54.1326 39.7636
13549 1 0.866689 55.8065 41.028
19149 2 2.69505 55.8376 42.285
13548 1 3.59901 54.2003 41.0538
13501 1 6.32293 55.8065 41.028
19161 2 5.42496 54.2341 42.3165
19163 2 4.51472 55.7245 39.7341
19162 2 7.24354 54.1326 39.7636
13520 1 9.05525 54.2003 41.0538
19113 2 8.15129 55.8376 42.285
19115 2 9.97096 55.7245 39.7341
22009 2 10.8812 54.2341 42.3165
13565 1 1.80265 38.2877 43.8335
19170 2 0.895461 39.9083 45.0898
19180 2 3.62478 38.3108 45.1101
13529 1 4.52944 39.8841 43.8138
19134 2 6.3517 39.9083 45.0898
13537 1 7.25889 38.2877 43.8335
13476 1 9.98568 39.8841 43.8138
19133 2 9.08102 38.3108 45.1101
13566 1 1.79993 41.4809 43.7934
19169 2 0.892915 43.1051 45.0469
19168 2 3.62233 41.5064 45.0688
13528 1 4.52657 43.0784 43.7723
19126 2 6.34915 43.1051 45.0469
13527 1 7.25616 41.4809 43.7934
13475 1 9.9828 43.0784 43.7723
19135 2 9.07857 41.5064 45.0688
13554 1 1.79687 44.6767 43.7504
19156 2 0.89019 46.3048 45.0005
19171 2 3.61969 44.7045 45.0242
13515 1 4.52331 46.2759 43.7278
19125 2 6.34643 46.3048 45.0005
13530 1 7.25311 44.6767 43.7504
13474 1 9.97955 46.2759 43.7278
19124 2 9.07593 44.7045 45.0242
13555 1 1.79338 47.8764 43.7044
19155 2 0.887284 49.509 44.9497
19154 2 3.61688 47.9063 44.9757
13514 1 4.5195 49.4786 43.6801
19111 2 6.34352 49.509 44.9497
13513 1 7.24961 47.8764 43.7044
13467 1 9.97574 49.4786 43.6801
19127 2 9.07312 47.9063 44.9757
13546 1 1.78912 51.0828 43.6547
19148 2 0.884061 52.7196 44.8929
19157 2 3.61385 51.1133 44.9222
13500 1 4.5146 52.6897 43.628
19110 2 6.3403 52.7196 44.8929
13516 1 7.24535 51.0828 43.6547
13466 1 9.97084 52.6897 43.628
19109 2 9.07009 51.1133 44.9222
13547 1 1.7833 54.3001 43.5998
19147 2 0.87987 55.9402 44.8271
19146 2 3.61029 54.3283 44.8613
13499 1 4.50751 55.9149 43.5695
19094 2 6.33611 55.9402 44.8271
13498 1 7.23953 54.3001 43.5998
13451 1 9.96375 55.9149 43.5695
19112 2 9.06653 54.3283 44.8613
13507 1 0.904163 39.9836 48.9239
13525 1 2.71612 39.9344 46.3701
19166 2 1.81197 38.3577 47.6661
13523 1 3.63336 38.3818 48.9454
13470 1 6.3604 39.9836 48.9239
13524 1 5.44549 38.3352 46.3907
19122 2 4.53899 39.9579 47.645
19132 2 7.2682 38.3577 47.6661
13469 1 9.0896 38.3818 48.9454
13473 1 8.17236 39.9344 46.3701
19074 2 9.99523 39.9579 47.645
16384 1 10.9017 38.3352 46.3907
13506 1 0.901875 43.1899 48.8779
13511 1 2.71344 43.1352 46.3266
19167 2 1.80973 41.5588 47.6229
13505 1 3.63116 41.5862 48.9014
13462 1 6.35811 43.1899 48.8779
13526 1 5.44294 41.5343 46.3488
19121 2 4.53668 43.1606 47.5999
19120 2 7.26597 41.5588 47.6229
13471 1 9.0874 41.5862 48.9014
13472 1 8.16968 43.1352 46.3266
19073 2 9.99292 43.1606 47.5999
16372 1 10.8992 41.5343 46.3488
13492 1 0.899397 46.401 48.8276
13510 1 2.71047 46.3402 46.2794
19152 2 1.80736 44.7633 47.5759
13508 1 3.62878 44.7947 48.8533
13461 1 6.35564 46.401 48.8276
13509 1 5.44012 44.737 46.3035
19107 2 4.53423 46.3671 47.5507
19123 2 7.26359 44.7633 47.5759
13460 1 9.08502 44.7947 48.8533
13465 1 8.16671 46.3402 46.2794
19072 2 9.99046 46.3671 47.5507
16373 1 10.8964 44.737 46.3035
13491 1 0.896632 49.6187 48.7721
13496 1 2.70707 49.5516 46.2279
19153 2 1.80481 47.9723 47.5243
13490 1 3.62618 48.0089 48.8006
13447 1 6.35287 49.6187 48.7721
13512 1 5.43695 47.9449 46.2543
19106 2 4.53155 49.579 47.4965
19105 2 7.26105 47.9723 47.5243
13463 1 9.08242 48.0089 48.8006
13464 1 8.16331 49.5516 46.2279
19065 2 9.98779 49.579 47.4965
16364 1 10.8932 47.9449 46.2543
13484 1 0.893332 52.8452 48.7097
13495 1 2.70292 52.7724 46.1704
19144 2 1.80194 51.1877 47.467
13493 1 3.62319 51.2307 48.7419
13446 1 6.34957 52.8452 48.7097
13494 1 5.43323 51.1606 46.2
19093 2 4.52837 52.7985 47.4356
19108 2 7.25818 51.1877 47.467
13445 1 9.07943 51.2307 48.7419
13450 1 8.15916 52.7724 46.1704
19064 2 9.9846 52.7985 47.4356
16365 1 10.8895 51.1606 46.2
13483 1 0.888957 56.0825 48.6382
13485 1 2.69742 56.0066 46.104
19145 2 1.79823 54.412 47.402
13482 1 3.61945 54.4625 48.6752
13432 1 6.3452 56.0825 48.6382
13497 1 5.42851 54.3876 46.1385
19092 2 4.52379 56.0287 47.3658
19091 2 7.25447 54.412 47.402
13448 1 9.07569 54.4625 48.6752
13449 1 8.15366 56.0066 46.104
19053 2 9.98003 56.0287 47.3658
16363 1 10.8847 54.3876 46.1385
13503 1 1.82225 38.4273 51.4982
19118 2 2.72744 40.0062 50.1978
19165 2 0.000258694 38.4036 50.22
13458 1 4.54949 40.0313 51.4756
19117 2 5.4565 38.4036 50.22
13416 1 10.0057 40.0313 51.4756
13468 1 7.27849 38.4273 51.4982
19071 2 8.18367 40.0062 50.1978
13504 1 1.82047 41.6362 51.4519
19103 2 2.72547 43.2139 50.1504
13457 1 4.54766 43.2421 51.4271
19119 2 5.45459 41.6096 50.1747
13415 1 10.0039 43.2421 51.4271
13456 1 7.27671 41.6362 51.4519
19070 2 8.18171 43.2139 50.1504
21970 2 10.9108 41.6096 50.1747
13488 1 1.81858 44.8492 51.4011
19102 2 2.72336 46.4259 50.0984
13443 1 4.54569 46.4577 51.3738
19101 2 5.45256 44.8193 50.125
13459 1 7.27481 44.8492 51.4011
21971 2 10.9088 44.8193 50.125
13414 1 10.0019 46.4577 51.3738
19063 2 8.1796 46.4259 50.0984
13489 1 1.8165 48.0677 51.345
19089 2 2.72095 49.6435 50.041
19084 2 0.911098 49.7019 52.5847
13442 1 4.54346 49.6794 51.3148
19104 2 5.45033 48.0339 50.0704
13441 1 7.27274 48.0677 51.345
19049 2 6.36734 49.7019 52.5847
21962 2 10.9066 48.0339 50.0704
13408 1 9.9997 49.6794 51.3148
19062 2 8.17719 49.6435 50.041
19079 2 0.907987 52.9292 52.5188
13480 1 1.81403 51.293 51.2829
19088 2 2.71783 52.8684 49.9769
19086 2 3.63782 51.3147 52.5525
19048 2 6.36423 52.9292 52.5188
13431 1 4.54063 52.9084 51.2491
19087 2 5.44764 51.2549 50.0098
13444 1 7.27027 51.293 51.2829
21963 2 10.9039 51.2549 50.0098
19047 2 9.09406 51.3147 52.5525
13407 1 9.99687 52.9084 51.2491
19052 2 8.17407 52.8684 49.9769
19077 2 3.63395 54.5453 52.4836
19078 2 0.903093 56.163 52.4472
13481 1 1.81065 54.5259 51.2135
19080 2 2.71304 56.1023 49.9052
19042 2 6.35933 56.163 52.4472
13430 1 4.53639 56.1451 51.176
19090 2 5.44385 54.4841 49.942
13429 1 7.26689 54.5259 51.2135
19050 2 9.09019 54.5453 52.4836
21961 2 10.9001 54.4841 49.942
13400 1 9.99263 56.1451 51.176
19051 2 8.16927 56.1023 49.9052
13454 1 2.73932 40.0772 54.0259
13502 1 0.0118895 38.4713 54.0496
19095 2 1.8354 38.4917 55.3233
19099 2 0.916751 40.053 52.749
13453 1 5.46813 38.4713 54.0496
19056 2 4.56289 40.098 55.2992
19068 2 6.37299 40.053 52.749
19116 2 3.64565 38.4483 52.7722
13413 1 8.19556 40.0772 54.0259
19038 2 10.0191 40.098 55.2992
19066 2 7.29164 38.4917 55.3233
19067 2 9.10188 38.4483 52.7722
13439 1 2.73789 43.2915 53.9751
13486 1 0.0104959 41.6838 54.0011
19096 2 1.83411 41.705 55.2739
19098 2 0.915123 43.2647 52.6993
13455 1 5.46673 41.6838 54.0011
19055 2 4.56154 43.3129 55.2475
19060 2 6.37136 43.2647 52.6993
19097 2 3.64407 41.6584 52.7248
13412 1 8.19413 43.2915 53.9751
19037 2 10.0178 43.3129 55.2475
19054 2 7.29035 41.705 55.2739
19069 2 9.10031 41.6584 52.7248
13438 1 2.73631 46.5101 53.9191
13487 1 0.00900722 44.9002 53.9478
19081 2 1.83266 44.9217 55.2197
19085 2 0.913314 46.4807 52.6447
13437 1 5.46525 44.9002 53.9478
19045 2 4.55994 46.5316 55.1908
19059 2 6.36955 46.4807 52.6447
19100 2 3.64237 44.8721 52.6727
13406 1 8.19255 46.5101 53.9191
19036 2 10.0162 46.5316 55.1908
19057 2 7.2889 44.9217 55.2197
19058 2 9.09861 44.8721 52.6727
13427 1 2.73438 49.7339 53.8577
13478 1 0.00729174 48.1213 53.8891
19082 2 1.83085 48.1425 55.1605
13440 1 5.46353 48.1213 53.8891
19044 2 4.55781 49.7545 55.129
19083 2 3.6404 48.0906 52.6154
13405 1 8.19062 49.7339 53.8577
19035 2 10.0141 49.7545 55.129
19043 2 7.28708 48.1425 55.1605
19061 2 9.09664 48.0906 52.6154
19075 2 1.82829 51.3677 55.0963
13479 1 0.005038 51.3478 53.8248
13426 1 2.73165 52.9631 53.7905
19041 2 4.55468 52.982 55.0624
13425 1 5.46128 51.3478 53.8248
19046 2 7.28453 51.3677 55.0963
19034 2 10.0109 52.982 55.0624
13399 1 8.18788 52.9631 53.7905
19076 2 1.82442 54.5974 55.0277
13477 1 0.00160159 54.5796 53.7549
13420 1 2.72723 56.1971 53.7182
19040 2 4.54988 56.2136 54.9923
13428 1 5.45784 54.5796 53.7549
19039 2 7.28065 54.5974 55.0277
19033 2 10.0061 56.2136 54.9923
13398 1 8.18347 56.1971 53.7182
13751 1 1.84865 38.5552 59.1505
19385 2 2.75315 40.1414 57.849
19392 2 0.0255561 38.5337 57.8739
13435 1 0.929597 40.1212 56.5756
13738 1 4.57633 40.1636 59.1251
19384 2 5.48179 38.5337 57.8739
13410 1 6.38584 40.1212 56.5756
13452 1 3.65825 38.514 56.6002
13692 1 10.0326 40.1636 59.1251
13740 1 7.30489 38.5552 59.1505
19350 2 8.20939 40.1414 57.849
13409 1 9.11449 38.514 56.6002
13752 1 1.84775 41.7726 59.0985
19381 2 2.75197 43.3586 57.7955
19390 2 0.0244673 41.7496 57.8228
13434 1 0.928459 43.3381 56.5227
13737 1 4.57536 43.3822 59.0707
19386 2 5.48071 41.7496 57.8228
13403 1 6.3847 43.3381 56.5227
13433 1 3.65716 41.7293 56.5498
13691 1 10.0316 43.3822 59.0707
13736 1 7.30399 41.7726 59.0985
19349 2 8.20821 43.3586 57.7955
13411 1 9.1134 41.7293 56.5498
13748 1 1.84665 44.9924 59.0416
19380 2 2.75048 46.5788 57.7373
19391 2 0.02316 44.9683 57.767
13423 1 0.927107 46.5585 56.4648
13730 1 4.57408 46.6034 59.0115
19379 2 5.4794 44.9683 57.767
13402 1 6.38335 46.5585 56.4648
13436 1 3.65594 44.9478 56.4944
13690 1 10.0303 46.6034 59.0115
13739 1 7.30289 44.9924 59.0416
19344 2 8.20672 46.5788 57.7373
13401 1 9.11218 44.9478 56.4944
13749 1 1.84512 48.215 58.9802
19370 2 2.74837 49.8021 57.6746
19388 2 0.0214056 48.19 57.7065
13422 1 0.925268 49.7827 56.4019
13729 1 4.57221 49.8272 58.9479
19382 2 5.47764 48.19 57.7065
13396 1 6.38151 49.7827 56.4019
13421 1 3.65439 48.1701 56.434
13683 1 10.0284 49.8272 58.9479
13728 1 7.30136 48.215 58.9802
19343 2 8.20461 49.8021 57.6746
13404 1 9.11063 48.1701 56.434
13744 1 1.8428 51.4399 58.9148
19369 2 2.74525 53.0284 57.6083
19389 2 0.0188482 51.4149 57.6418
13419 1 0.922459 53.0107 56.3345
13716 1 4.56932 53.0531 58.8811
19368 2 5.47509 51.4149 57.6418
13395 1 6.3787 53.0107 56.3345
13424 1 3.65214 51.3963 56.3687
13682 1 10.0256 53.0531 58.8811
13731 1 7.29904 51.4399 58.9148
19330 2 8.20149 53.0284 57.6083
13394 1 9.10838 51.3963 56.3687
13745 1 1.83924 54.6666 58.8471
19359 2 2.74067 56.257 57.54
19387 2 0.0150433 54.6425 57.5742
13418 1 0.918005 56.2414 56.2642
13715 1 4.565 56.2803 58.813
19371 2 5.47128 54.6425 57.5742
13393 1 6.37424 56.2414 56.2642
13417 1 3.6486 54.6258 56.2995
13667 1 10.0212 56.2803 58.813
13714 1 7.29548 54.6666 58.8471
19329 2 8.19691 56.257 57.54
13397 1 9.10484 54.6258 56.2995
13734 1 2.76689 40.2045 61.6749
13750 1 0.03916 38.5952 61.7009
19377 2 0.943584 40.1832 60.3987
13733 1 5.4954 38.5952 61.7009
19347 2 6.39982 40.1832 60.3987
19383 2 3.67217 38.5745 60.4242
13689 1 8.22312 40.2045 61.6749
19346 2 9.12841 38.5745 60.4242
13726 1 2.76595 43.4242 61.6194
13746 1 0.0383306 41.8141 61.6478
19376 2 0.942486 43.4021 60.344
13735 1 5.49457 41.8141 61.6478
19341 2 6.39872 43.4021 60.344
19375 2 3.67119 41.7924 60.3719
13688 1 8.22219 43.4242 61.6194
19348 2 9.12743 41.7924 60.3719
13725 1 2.76464 46.6456 61.5595
13747 1 0.0372372 45.0347 61.59
19366 2 0.941009 46.623 60.2848
13724 1 5.49348 45.0347 61.59
19340 2 6.39725 46.623 60.2848
19378 2 3.66993 45.0123 60.3149
13681 1 8.22088 46.6456 61.5595
19339 2 9.12617 45.0123 60.3149
13712 1 2.76268 49.8683 61.496
13742 1 0.0356417 48.2568 61.5282
19365 2 0.938883 49.8459 60.2219
13727 1 5.49188 48.2568 61.5282
19327 2 6.39512 49.8459 60.2219
19364 2 3.66817 48.2342 60.2538
13680 1 8.21892 49.8683 61.496
19342 2 9.1244 48.2342 60.2538
13711 1 2.75976 53.0919 61.4302
13743 1 0.0332418 51.48 61.4632
19358 2 0.935793 53.0703 60.1562
13710 1 5.48948 51.48 61.4632
19326 2 6.39203 53.0703 60.1562
19367 2 3.6656 51.4579 60.1893
13666 1 8.216 53.0919 61.4302
19325 2 9.12184 51.4579 60.1893
13701 1 2.75566 56.3157 61.3641
13741 1 0.0297476 54.7038 61.397
19357 2 0.931497 56.2956 60.0899
13713 1 5.48599 54.7038 61.397
19309 2 6.38774 56.2956 60.0899
19356 2 3.66192 54.6829 60.123
13665 1 8.2119 56.3157 61.3641
19328 2 9.11816 54.6829 60.123
13722 1 0.957353 40.2443 64.2256
19333 2 2.7808 40.2639 65.4986
19372 2 0.0531718 38.6535 65.5249
19373 2 1.86266 38.6143 62.9746
13686 1 6.41359 40.2443 64.2256
13732 1 3.68588 38.6343 64.2519
19332 2 5.50941 38.6535 65.5249
19337 2 4.59032 40.2239 62.9486
13685 1 9.14212 38.6343 64.2519
19281 2 8.23703 40.2639 65.4986
19284 2 10.0466 40.2239 62.9486
19345 2 7.3189 38.6143 62.9746
13721 1 0.956359 43.4648 64.1696
19319 2 2.7796 43.4848 65.4428
19360 2 0.0521195 41.8743 65.4712
19374 2 1.86168 41.8338 62.9214
13678 1 6.4126 43.4648 64.1696
13720 1 3.68501 41.8545 64.1981
19334 2 5.50836 41.8743 65.4712
19336 2 4.58921 43.4439 62.8931
13687 1 9.14125 41.8545 64.1981
19280 2 8.23584 43.4848 65.4428
19283 2 10.0454 43.4439 62.8931
19335 2 7.31792 41.8338 62.9214
13708 1 0.954945 46.686 64.1094
19318 2 2.77797 46.7059 65.3832
19361 2 0.0507308 45.0954 65.4134
19362 2 1.86039 45.0544 62.8638
13677 1 6.41118 46.686 64.1094
13723 1 3.68384 45.0754 64.1399
19317 2 5.50697 45.0954 65.4134
19323 2 4.58768 46.665 62.8335
13676 1 9.14008 45.0754 64.1399
19273 2 8.23421 46.7059 65.3832
19282 2 10.0439 46.665 62.8335
19338 2 7.31663 45.0544 62.8638
13707 1 0.952884 49.9074 64.0462
19304 2 2.77571 49.9267 65.3208
19352 2 0.0488101 48.3164 65.3522
19363 2 1.85857 48.2759 62.8024
13663 1 6.40912 49.9074 64.0462
13706 1 3.68213 48.2967 64.0781
19320 2 5.50505 48.3164 65.3522
19322 2 4.58551 49.887 62.7707
13679 1 9.13837 48.2967 64.0781
19272 2 8.23195 49.9267 65.3208
19275 2 10.0417 49.887 62.7707
19321 2 7.31481 48.2759 62.8024
13700 1 0.94997 53.1286 63.9815
19303 2 2.77271 53.1468 65.2572
19353 2 0.0461941 51.5369 65.289
19354 2 1.85599 51.4981 62.7385
13662 1 6.40621 53.1286 63.9815
13709 1 3.67966 51.5181 64.014
19302 2 5.50243 51.5369 65.289
19308 2 4.58247 53.1092 62.706
13661 1 9.1359 51.5181 64.014
19258 2 8.22895 53.1468 65.2572
19274 2 10.0387 53.1092 62.706
19324 2 7.31223 51.4981 62.7385
13699 1 0.946101 56.349 63.9173
19293 2 2.7689 56.3655 65.1944
19351 2 0.0427864 54.7563 65.2256
19355 2 1.85246 54.7203 62.6736
13646 1 6.40234 56.349 63.9173
13698 1 3.67627 54.739 63.9492
19305 2 5.49902 54.7563 65.2256
19307 2 4.57844 56.3312 62.6416
13664 1 9.13251 54.739 63.9492
19257 2 8.22514 56.3655 65.1944
19259 2 10.0347 56.3312 62.6416
19306 2 7.30869 54.7203 62.6736
13718 1 1.87612 38.673 66.8047
19315 2 0.971157 40.3036 68.048
13674 1 4.60378 40.2836 66.7782
19278 2 6.4274 40.3036 68.048
19331 2 3.69984 38.6925 68.0744
13626 1 10.06 40.2836 66.7782
13684 1 7.33236 38.673 66.8047
19277 2 9.15608 38.6925 68.0744
13719 1 1.87513 41.8942 66.7506
19314 2 0.969817 43.5256 67.9922
13673 1 4.60265 43.5047 66.722
19270 2 6.42606 43.5256 67.9922
19313 2 3.69865 41.9147 68.0206
13625 1 10.0589 43.5047 66.722
13672 1 7.33137 41.8942 66.7506
19279 2 9.15489 41.9147 68.0206
13704 1 1.87382 45.1152 66.6924
19300 2 0.968038 46.7466 67.9328
13654 1 2.79002 46.7652 69.2203
13703 1 0.0628125 45.1551 69.2505
13659 1 4.60109 46.7255 66.662
19269 2 6.42428 46.7466 67.9328
19316 2 3.69712 45.1362 67.9629
13653 1 5.51905 45.1551 69.2505
13624 1 10.0573 46.7255 66.662
13675 1 7.33006 45.1152 66.6924
19268 2 9.15335 45.1362 67.9629
13615 1 8.24626 46.7652 69.2203
13705 1 1.87196 48.3357 66.6309
19299 2 0.965658 49.9664 67.8711
13641 1 2.78776 49.9841 69.1583
13694 1 0.0608268 48.3748 69.1895
13658 1 4.59892 49.9457 66.5994
19255 2 6.4219 49.9664 67.8711
19298 2 3.69504 48.3567 67.9021
13656 1 5.51707 48.3748 69.1895
13617 1 10.0552 49.9457 66.5994
13657 1 7.3282 48.3357 66.6309
19271 2 9.15128 48.3567 67.9021
13614 1 8.244 49.9841 69.1583
13696 1 1.86944 51.5553 66.5676
19292 2 0.962657 53.1844 67.8086
13640 1 2.78491 53.2008 69.0959
13695 1 0.0582726 51.5928 69.127
13645 1 4.59601 53.1646 66.5358
19254 2 6.4189 53.1844 67.8086
19301 2 3.69236 51.5757 67.8398
13639 1 5.51451 51.5928 69.127
13616 1 10.0523 53.1646 66.5358
13660 1 7.32568 51.5553 66.5676
19253 2 9.14859 51.5757 67.8398
13604 1 8.24115 53.2008 69.0959
13697 1 1.86616 54.7734 66.5043
19291 2 0.958996 56.4 67.7474
13632 1 2.78145 56.4149 69.0349
13693 1 0.0551379 54.8082 69.0652
13644 1 4.59235 56.3817 66.4733
19240 2 6.41523 56.4 67.7474
19290 2 3.68903 54.7925 67.7777
13642 1 5.51138 54.8082 69.0652
13605 1 10.0486 56.3817 66.4733
13643 1 7.3224 54.7734 66.5043
19256 2 9.14527 54.7925 67.7777
13603 1 8.23769 56.4149 69.0349
13651 1 0.977284 40.362 71.9113
13670 1 2.793 40.3228 69.3361
13717 1 0.0654366 38.7115 69.3625
19311 2 1.89006 38.7313 70.62
13620 1 6.43352 40.362 71.9113
13668 1 3.706 38.75 71.9378
13669 1 5.52168 38.7115 69.3625
19266 2 4.61754 40.3433 70.5937
13619 1 9.16224 38.75 71.9378
13623 1 8.24924 40.3228 69.3361
19224 2 10.0738 40.3433 70.5937
19276 2 7.3463 38.7313 70.62
13650 1 0.975955 43.5847 71.8555
13655 1 2.79171 43.5446 69.28
13702 1 0.0642782 41.9339 69.3085
19312 2 1.88873 41.9551 70.5663
13612 1 6.43219 43.5847 71.8555
13649 1 3.70477 41.9736 71.8839
13671 1 5.52052 41.9339 69.3085
19265 2 4.61607 43.5665 70.538
13621 1 9.16101 41.9736 71.8839
13622 1 8.24795 43.5446 69.28
19223 2 10.0723 43.5665 70.538
19264 2 7.34496 41.9551 70.5663
13637 1 0.974315 46.8053 71.7962
19296 2 1.88706 45.1775 70.5088
13611 1 6.43055 46.8053 71.7962
13652 1 3.7033 45.1953 71.8262
19251 2 4.61417 46.788 70.479
13610 1 9.15954 45.1953 71.8262
19222 2 10.0704 46.788 70.479
19267 2 7.3433 45.1775 70.5088
13636 1 0.972309 50.0231 71.7339
19297 2 1.88488 48.3978 70.4486
13601 1 6.42855 50.0231 71.7339
13635 1 3.70148 48.4146 71.7654
19250 2 4.61164 50.007 70.4179
13613 1 9.15772 48.4146 71.7654
19216 2 10.0679 50.007 70.4179
19249 2 7.34112 48.3978 70.4486
13631 1 0.969644 53.2376 71.673
19288 2 1.88213 51.6155 70.387
13600 1 6.42588 53.2376 71.673
13638 1 3.69916 51.6307 71.7035
19239 2 4.6087 53.2232 70.3564
13599 1 9.1554 51.6307 71.7035
19215 2 10.0649 53.2232 70.3564
19252 2 7.33837 51.6155 70.387
13630 1 0.966524 56.4487 71.6133
19289 2 1.87889 54.83 70.326
13594 1 6.42276 56.4487 71.6133
13629 1 3.69626 54.8436 71.6429
19238 2 4.60517 56.4359 70.2962
13602 1 9.15249 54.8436 71.6429
19208 2 10.0614 56.4359 70.2962
19237 2 7.33513 54.83 70.326
13647 1 1.83243 38.7889 74.5898
19243 2 0.967177 40.4202 75.6017
19262 2 2.80582 40.3832 73.1257
19310 2 0.0783921 38.77 73.1519
13608 1 4.56048 40.4007 74.5637
19218 2 6.42342 40.4202 75.6017
19260 2 3.69581 38.8067 75.6275
19261 2 5.53463 38.77 73.1519
13590 1 10.0167 40.4007 74.5637
13618 1 7.28867 38.7889 74.5898
19217 2 9.15205 38.8067 75.6275
19221 2 8.26206 40.3832 73.1257
13648 1 1.83239 42.012 74.5365
19242 2 0.966159 43.6452 75.5475
19247 2 2.80426 43.608 73.0706
19294 2 0.0769569 41.9959 73.0986
13607 1 4.56062 43.6227 74.5085
19211 2 6.4224 43.6452 75.5475
19241 2 3.69479 42.033 75.575
19263 2 5.5332 41.9959 73.0986
13589 1 10.0169 43.6227 74.5085
13606 1 7.28863 42.012 74.5365
19219 2 9.15103 42.033 75.575
19220 2 8.2605 43.608 73.0706
13633 1 1.83269 45.2329 74.4797
19231 2 0.964964 46.8671 75.4909
19246 2 2.80232 46.8302 73.0124
19295 2 0.0752141 45.2195 73.0418
13597 1 4.56103 46.8423 74.4504
19210 2 6.4212 46.8671 75.4909
19244 2 3.69371 45.2566 75.5195
19245 2 5.53145 45.2195 73.0418
13588 1 10.0173 46.8423 74.4504
13609 1 7.28893 45.2329 74.4797
19209 2 9.14994 45.2566 75.5195
19214 2 8.25855 46.8302 73.0124
13634 1 1.83325 48.451 74.4206
19230 2 0.9635 50.0849 75.4335
19235 2 2.79966 50.049 72.9524
19286 2 0.0729949 48.4402 72.9825
13596 1 4.56185 50.0583 74.3904
19204 2 6.41974 50.0849 75.4335
19229 2 3.69242 48.4765 75.4622
19248 2 5.52923 48.4402 72.9825
13587 1 10.0181 50.0583 74.3904
13595 1 7.28949 48.451 74.4206
19212 2 9.14866 48.4765 75.4622
19213 2 8.2559 50.049 72.9524
13627 1 1.83386 51.6647 74.3602
19227 2 0.961791 53.2981 75.3741
19234 2 2.79684 53.2635 72.8918
19287 2 0.0702267 51.6567 72.9221
13593 1 4.5622 53.2704 74.3298
19203 2 6.41803 53.2981 75.3741
19232 2 3.69083 51.6921 75.4037
19233 2 5.52647 51.6567 72.9221
13586 1 10.0184 53.2704 74.3298
13598 1 7.2901 51.6647 74.3602
19202 2 9.14706 51.6921 75.4037
19207 2 8.25308 53.2635 72.8918
13628 1 1.8343 54.8751 74.2997
19226 2 0.959789 56.506 75.3163
19228 2 2.79342 56.4737 72.8326
19285 2 0.0670713 54.8692 72.8619
13592 1 4.56262 56.479 74.2703
19201 2 6.41603 56.506 75.3163
19225 2 3.68895 54.9027 75.3449
19236 2 5.52331 54.8692 72.8619
13585 1 10.0189 56.479 74.2703
13591 1 7.29054 54.8751 74.2997
19205 2 9.14519 54.9027 75.3449
19206 2 8.24966 56.4737 72.8326
7545 2 0.927106 58.1155 -1.46014
7553 2 2.75303 58.0933 -3.95682
1344 1 1.86117 59.6993 -2.92152
7558 2 0.0266502 59.6787 -3.97549
1330 1 4.58626 58.115 -2.90239
7515 2 6.38334 58.1155 -1.46014
7543 2 3.65626 59.6992 -1.47934
7554 2 5.48289 59.6787 -3.97549
1284 1 10.0425 58.115 -2.90239
7518 2 8.20926 58.0933 -3.95682
1328 1 7.31741 59.6993 -2.92152
7516 2 9.1125 59.6992 -1.47934
7544 2 0.929155 61.2839 -1.49718
7549 2 2.75644 61.2652 -3.99285
1340 1 1.86666 62.87 -2.95558
7559 2 0.0298943 62.8525 -4.00876
1329 1 4.59213 61.2843 -2.93929
7509 2 6.38539 61.2839 -1.49718
7546 2 3.65824 62.8694 -1.51355
7547 2 5.48613 62.8525 -4.00876
1283 1 10.0484 61.2843 -2.93929
7517 2 8.21268 61.2652 -3.99285
1331 1 7.3229 62.87 -2.95558
7507 2 9.11448 62.8694 -1.51355
7534 2 0.93104 64.4557 -1.5283
7548 2 2.75948 64.4406 -4.02312
1341 1 1.87125 66.0432 -2.98322
7556 2 0.0326847 66.0295 -4.0358
1322 1 4.5972 64.4564 -2.97026
7508 2 6.38728 64.4557 -1.5283
7532 2 3.66 66.0427 -1.54134
7550 2 5.48892 66.0295 -4.0358
1282 1 10.0534 64.4564 -2.97026
7512 2 8.21571 64.4406 -4.02312
1320 1 7.32749 66.0432 -2.98322
7510 2 9.11624 66.0427 -1.54134
7533 2 0.932637 67.6304 -1.55254
7538 2 2.76198 67.6191 -4.0467
1336 1 1.87472 69.2183 -3.0036
7557 2 0.034851 69.2092 -4.05575
1321 1 4.60125 67.6306 -2.99436
7495 2 6.38888 67.6304 -1.55254
7535 2 3.6614 69.2186 -1.56184
7536 2 5.49109 69.2092 -4.05575
1275 1 10.0575 67.6306 -2.99436
7511 2 8.21821 67.6191 -4.0467
1323 1 7.33096 69.2183 -3.0036
7493 2 9.11764 69.2186 -1.56184
7526 2 0.933807 70.8072 -1.56915
7537 2 2.76377 70.7997 -4.06287
1337 1 1.87689 72.3946 -3.01609
7555 2 0.0362309 72.3906 -4.06799
1308 1 4.60409 70.8064 -3.01086
7494 2 6.39005 70.8072 -1.56915
7524 2 3.66231 72.3962 -1.57441
7539 2 5.49247 72.3906 -4.06799
1274 1 10.0603 70.8064 -3.01086
7498 2 8.22001 70.7997 -4.06287
1306 1 7.33312 72.3946 -3.01609
7496 2 9.11855 72.3962 -1.57441
7525 2 0.934428 73.9854 -1.57758
7527 2 2.76471 73.9817 -4.07108
1727 1 1.87762 75.5716 -3.02029
7968 2 0.0367055 75.5729 -4.07212
1307 1 4.60556 73.9831 -3.01924
7477 2 6.39067 73.9854 -1.57758
7959 2 3.66263 75.5747 -1.57864
7960 2 5.49294 75.5729 -4.07212
1259 1 10.0618 73.9831 -3.01924
7497 2 8.22094 73.9817 -4.07108
1716 1 7.33386 75.5716 -3.02029
7922 2 9.11886 75.5747 -1.57864
1314 1 0.930774 58.1565 2.35003
1326 1 2.74932 58.1327 -0.240577
1338 1 0.0225051 59.7154 -0.259899
7542 2 1.83963 59.7241 1.06838
1278 1 6.38701 58.1565 2.35003
7505 2 4.5666 58.1421 1.08796
1312 1 3.66016 59.7376 2.33022
1327 1 5.47874 59.7154 -0.259899
1281 1 8.20556 58.1327 -0.240577
7452 2 10.0228 58.1421 1.08796
1279 1 9.1164 59.7376 2.33022
7503 2 7.29586 59.7241 1.06838
1313 1 0.93325 61.3193 2.3118
1318 1 2.75188 61.2989 -0.277857
1339 1 0.02494 62.8831 -0.294315
7530 2 1.84178 62.8903 1.03347
1270 1 6.38949 61.3193 2.3118
7504 2 4.56885 61.3068 1.05017
1315 1 3.66252 62.9016 2.29491
1316 1 5.48118 62.8831 -0.294315
1280 1 8.20811 61.2989 -0.277857
7451 2 10.0251 61.3068 1.05017
1268 1 9.11876 62.9016 2.29491
7506 2 7.29802 62.8903 1.03347
1300 1 0.935468 64.4846 2.27968
1317 1 2.75416 64.468 -0.309148
1334 1 0.0270447 66.0534 -0.322244
7531 2 1.84366 66.0591 1.0051
1269 1 6.39171 64.4846 2.27968
7491 2 4.57088 64.4744 1.01841
1298 1 3.66456 66.068 2.26623
1319 1 5.48328 66.0534 -0.322244
1273 1 8.2104 64.468 -0.309148
7450 2 10.0271 64.4744 1.01841
1271 1 9.1208 66.068 2.26623
7489 2 7.2999 66.0591 1.0051
1299 1 0.93731 67.6519 2.25467
1304 1 2.75605 67.6394 -0.333501
1335 1 0.0286866 69.2258 -0.342833
7522 2 1.84514 69.2301 0.984173
1255 1 6.39355 67.6519 2.25467
7490 2 4.57258 67.6444 0.993662
1301 1 3.66617 69.2362 2.24508
1302 1 5.48492 69.2258 -0.342833
1272 1 8.21229 67.6394 -0.333501
7443 2 10.0288 67.6444 0.993662
1253 1 9.1224 69.2362 2.24508
7492 2 7.30138 69.2301 0.984173
1292 1 0.938641 70.8208 2.23755
1303 1 2.75741 70.8126 -0.350168
1333 1 0.0297362 72.3996 -0.355448
7523 2 1.8461 72.4025 0.971339
1254 1 6.39488 70.8208 2.23755
7476 2 4.57382 70.8162 0.976712
1290 1 3.6672 72.4057 2.23212
1305 1 5.48597 72.3996 -0.355448
1258 1 8.21365 70.8126 -0.350168
7442 2 10.0301 70.8162 0.976712
1256 1 9.12343 72.4057 2.23212
7474 2 7.30234 72.4025 0.971339
1291 1 0.939342 73.9907 2.22885
1293 1 2.75813 73.9869 -0.358632
1726 1 0.0300979 75.5742 -0.359697
7949 2 1.84643 75.5757 0.967015
1237 1 6.39558 73.9907 2.22885
7475 2 4.57447 73.9891 0.968099
1708 1 3.66755 75.5758 2.22775
1709 1 5.48634 75.5742 -0.359697
1257 1 8.21436 73.9869 -0.358632
7427 2 10.0307 73.9891 0.968099
1661 1 9.12379 75.5758 2.22775
7921 2 7.30267 75.5757 0.967015
7501 2 2.74987 58.1668 3.64971
1311 1 1.8431 59.7587 4.90528
7528 2 0.0230486 59.7471 3.62971
1266 1 4.56983 58.1792 4.92562
7502 2 5.47929 59.7471 3.62971
1212 1 10.0261 58.1792 4.92562
7449 2 8.20611 58.1668 3.64971
1264 1 7.29934 59.7587 4.90528
7487 2 2.75242 61.3281 3.6111
1296 1 1.8457 62.9194 4.86898
7529 2 0.0254817 62.9096 3.59402
1265 1 4.57255 61.3387 4.88635
7485 2 5.48172 62.9096 3.59402
1211 1 10.0288 61.3387 4.88635
7448 2 8.20865 61.3281 3.6111
1267 1 7.30194 62.9194 4.86898
7486 2 2.75471 64.4917 3.57862
1297 1 1.84798 66.0821 4.83948
7520 2 0.0276034 66.0744 3.56501
1251 1 4.57501 64.5005 4.85332
7488 2 5.48384 66.0744 3.56501
1210 1 10.0312 64.5005 4.85332
7441 2 8.21095 64.4917 3.57862
1249 1 7.30421 66.0821 4.83948
7472 2 2.75662 67.6575 3.5533
1288 1 1.84977 69.2464 4.81771
7521 2 0.0292758 69.241 3.54359
1250 1 4.57706 67.664 4.82758
7470 2 5.48551 69.241 3.54359
1203 1 10.0333 67.664 4.82758
7440 2 8.21286 67.6575 3.5533
1252 1 7.30601 69.2464 4.81771
7471 2 2.75802 70.8247 3.53596
1289 1 1.85093 72.4118 4.80436
7519 2 0.0303543 72.4088 3.53046
1236 1 4.57856 70.829 4.80995
7473 2 5.48659 72.4088 3.53046
1202 1 10.0348 70.829 4.80995
7426 2 8.21426 70.8247 3.53596
1234 1 7.30717 72.4118 4.80436
7461 2 2.75875 73.993 3.52714
1694 1 1.85134 75.5778 4.79986
7948 2 0.0307277 75.5772 3.52603
1235 1 4.57935 73.9948 4.80099
7908 2 5.48697 75.5772 3.52603
1188 1 10.0356 73.9948 4.80099
7425 2 8.21499 73.993 3.52714
1660 1 7.30757 75.5778 4.79986
1262 1 2.75252 58.201 7.49605
7483 2 0.932818 58.1898 6.21573
1294 1 0.0259214 59.779 7.47505
7480 2 1.84532 59.7887 8.76235
7434 2 4.57181 58.2115 8.78355
7446 2 6.38906 58.1898 6.21573
1263 1 5.48216 59.779 7.47505
7481 2 3.66238 59.7685 6.19518
1209 1 8.20876 58.201 7.49605
7392 2 10.0281 58.2115 8.78355
7432 2 7.30156 59.7887 8.76235
7447 2 9.11862 59.7685 6.19518
1247 1 2.7555 61.3575 7.4555
7482 2 0.935642 61.3478 6.17606
1295 1 0.0287608 62.9364 7.43756
7464 2 1.84838 62.9445 8.72445
7433 2 4.57501 61.3663 8.74259
7438 2 6.39188 61.3478 6.17606
1245 1 5.485 62.9364 7.43756
7484 2 3.66507 62.9276 6.1585
1208 1 8.21174 61.3575 7.4555
7391 2 10.0312 61.3663 8.74259
7435 2 7.30462 62.9445 8.72445
7436 2 9.12131 62.9276 6.1585
1246 1 2.75817 64.5159 7.42137
7468 2 0.938174 64.5079 6.14267
1286 1 0.0312333 66.0957 7.40708
7465 2 1.85106 66.102 8.69362
7419 2 4.5779 64.523 8.70808
7437 2 6.39441 64.5079 6.14267
1248 1 5.48747 66.0957 7.40708
7466 2 3.66741 66.0887 6.12868
1201 1 8.21441 64.5159 7.42137
7390 2 10.0341 64.523 8.70808
7417 2 7.3073 66.102 8.69362
7439 2 9.12365 66.0887 6.12868
1232 1 2.7604 67.6759 7.3948
7467 2 0.940279 67.6698 6.11666
1287 1 0.0331704 69.2564 7.38464
7456 2 1.85316 69.2609 8.67094
7418 2 4.58032 67.6813 8.68121
7423 2 6.39652 67.6698 6.11666
1230 1 5.48941 69.2564 7.38464
7469 2 3.66924 69.2513 6.1067
1200 1 8.21664 67.6759 7.3948
7384 2 10.0366 67.6813 8.68121
7420 2 7.3094 69.2609 8.67094
7421 2 9.12548 69.2513 6.1067
1231 1 2.762 70.8371 7.37667
7460 2 0.94179 70.833 6.09889
1285 1 0.0343846 72.418 7.37097
7457 2 1.85447 72.4208 8.65717
7407 2 4.58205 70.8408 8.6629
7422 2 6.39803 70.833 6.09889
1233 1 5.49062 72.418 7.37097
7458 2 3.67039 72.415 6.09329
1187 1 8.21824 70.8371 7.37667
7383 2 10.0383 70.8408 8.6629
7405 2 7.31071 72.4208 8.65717
7424 2 9.12663 72.415 6.09329
1221 1 2.76279 73.9991 7.36758
7459 2 0.942553 73.9971 6.08994
1693 1 0.0347329 75.5802 7.36653
7887 2 1.85481 75.5811 8.65279
7406 2 4.58289 74.0009 8.65379
7408 2 6.39879 73.9971 6.08994
1645 1 5.49097 75.5802 7.36653
7907 2 3.67074 75.5792 6.08888
1186 1 8.21903 73.9991 7.36758
7376 2 10.0391 74.0009 8.65379
7852 2 7.31105 75.5811 8.65279
7853 2 9.12698 75.5792 6.08888
1243 1 0.935145 58.2219 10.0654
7430 2 2.7544 58.2326 11.3522
7462 2 0.0281654 59.8083 11.3302
1206 1 6.39138 58.2219 10.0654
1241 1 3.66499 59.7984 10.0437
7431 2 5.4844 59.8083 11.3302
7389 2 8.21064 58.2326 11.3522
1207 1 9.12123 59.7984 10.0437
1242 1 0.938541 61.3753 10.0234
7415 2 2.75811 61.3843 11.3097
7463 2 0.0317549 62.9608 11.2908
1224 1 1.85162 62.9686 12.5715
1198 1 6.39478 61.3753 10.0234
1244 1 3.66825 62.9526 10.0048
7413 2 5.48799 62.9608 11.2908
7388 2 8.21435 61.3843 11.3097
1196 1 9.12449 62.9526 10.0048
1195 1 7.30786 62.9686 12.5715
1228 1 0.941637 64.5303 9.98797
7414 2 2.76154 64.5377 11.2738
7454 2 0.0349623 66.1149 11.2588
1225 1 1.85515 66.121 12.5384
1197 1 6.39787 64.5303 9.98797
1226 1 3.67114 66.1085 9.97313
7416 2 5.4912 66.1149 11.2588
1180 1 4.58157 64.5447 12.5539
1178 1 7.31139 66.121 12.5384
7382 2 8.21778 64.5377 11.2738
1199 1 9.12738 66.1085 9.97313
1162 1 10.0378 64.5447 12.5539
1216 1 1.85801 69.2746 12.5141
1227 1 0.944253 67.6869 9.96039
7403 2 2.76446 67.6924 11.2459
7455 2 0.0375207 69.2702 11.2352
1184 1 6.40049 67.6869 9.96039
1229 1 3.67342 69.2656 9.94987
7401 2 5.49376 69.2702 11.2352
1179 1 4.58481 67.6977 12.5251
1181 1 7.31425 69.2746 12.5141
7381 2 8.2207 67.6924 11.2459
1182 1 9.12966 69.2656 9.94987
1159 1 10.041 67.6977 12.5251
1220 1 0.946135 70.8445 9.94164
7402 2 2.76657 70.8482 11.2269
1217 1 1.8598 72.429 12.4996
7453 2 0.0391076 72.4263 11.221
1172 1 4.58718 70.8518 12.5056
1183 1 6.40237 70.8445 9.94164
1218 1 3.67484 72.4236 9.93579
7404 2 5.49535 72.4263 11.221
1158 1 10.0434 70.8518 12.5056
7375 2 8.22281 70.8482 11.2269
1185 1 9.13108 72.4236 9.93579
1170 1 7.31604 72.429 12.4996
1219 1 0.947036 74.0028 9.93236
7396 2 2.76757 74.0046 11.2176
7886 2 0.0394724 75.5828 11.2166
1623 1 1.86019 75.5837 12.4951
1171 1 4.5883 74.0063 12.4961
1173 1 6.40327 74.0028 9.93236
1644 1 3.67519 75.5821 9.93137
7837 2 5.49571 75.5828 11.2166
1155 1 10.0445 74.0063 12.4961
7374 2 8.22381 74.0046 11.2176
1589 1 9.13143 75.5821 9.93137
1588 1 7.31643 75.5837 12.4951
1190 1 2.75606 58.2643 15.2044
7411 2 0.936774 58.2542 13.9215
1240 1 1.84774 59.8176 12.6121
1222 1 0.0303466 59.8376 15.1806
1194 1 4.57384 58.2427 12.6348
7386 2 6.39301 58.2542 13.9215
1191 1 5.48658 59.8376 15.1806
7409 2 3.66712 59.8282 13.8985
1161 1 8.2123 58.2643 15.2044
1164 1 10.0301 58.2427 12.6348
1192 1 7.30398 59.8176 12.6121
7387 2 9.12336 59.8282 13.8985
1176 1 2.76085 61.4112 15.1583
7410 2 0.941196 61.4026 13.877
1223 1 0.035075 62.9852 15.1379
1193 1 4.57783 61.3929 12.5909
7379 2 6.39743 61.4026 13.877
1174 1 5.49131 62.9852 15.1379
7412 2 3.67145 62.9774 13.8573
1160 1 8.21709 61.4112 15.1583
1163 1 10.0341 61.3929 12.5909
7377 2 9.12769 62.9774 13.8573
1175 1 2.76548 64.5595 15.1194
7399 2 0.945389 64.5525 13.8394
1214 1 0.0395367 66.1341 15.1031
7378 2 6.40163 64.5525 13.8394
1177 1 5.49578 66.1341 15.1031
7397 2 3.67544 66.1279 13.8237
1157 1 8.22172 64.5595 15.1194
7380 2 9.13168 66.1279 13.8237
1168 1 2.76966 67.7089 15.0892
7398 2 0.949076 67.7036 13.8102
1215 1 0.0432853 69.2839 15.0777
7372 2 6.40531 67.7036 13.8102
7400 2 3.67871 69.2795 13.7991
1166 1 5.49952 69.2839 15.0777
1156 1 8.2259 67.7089 15.0892
7370 2 9.13495 69.2795 13.7991
7395 2 0.951798 70.8556 13.7905
1167 1 2.77281 70.8591 15.0688
1213 1 0.0456757 72.4344 15.0625
1169 1 5.50191 72.4344 15.0625
7371 2 6.40804 70.8556 13.7905
7393 2 3.68076 72.4318 13.7844
7373 2 9.137 72.4318 13.7844
1154 1 8.22905 70.8591 15.0688
7394 2 0.953074 74.008 13.7809
1165 1 2.7743 74.0097 15.0589
1622 1 0.0461645 75.5851 15.058
7369 2 6.40931 74.008 13.7809
1573 1 5.5024 75.5851 15.058
7836 2 3.68119 75.5843 13.78
1153 1 8.23054 74.0097 15.0589
7793 2 9.13743 75.5843 13.78
7751 2 1.84429 56.705 16.5168
7750 2 0.025394 56.7322 19.0888
7734 2 2.7567 58.3024 19.0619
1534 1 0.937912 58.2878 17.7746
7752 2 1.84964 59.8493 16.4671
7738 2 4.57509 58.277 16.4913
7733 2 5.48163 56.7322 19.0888
1511 1 6.39415 58.2878 17.7746
1536 1 3.66315 56.7166 17.8011
7740 2 7.30053 56.705 16.5168
1510 1 9.11939 56.7166 17.8011
7689 2 8.21294 58.3024 19.0619
7692 2 10.0313 58.277 16.4913
7736 2 7.30588 59.8493 16.4671
7746 2 0.0318169 59.8728 19.0362
1533 1 0.943722 61.4311 17.7258
7726 2 2.76322 61.4436 19.0121
7748 2 1.85496 62.995 16.4237
7737 2 4.58043 61.422 16.4445
7735 2 5.48806 59.8728 19.0362
1507 1 6.39996 61.4311 17.7258
1532 1 3.66893 59.8592 17.7494
1512 1 9.12516 59.8592 17.7494
7688 2 8.21946 61.4436 19.0121
7691 2 10.0367 61.422 16.4445
7739 2 7.3112 62.995 16.4237
7747 2 0.0384261 63.0146 18.99
1527 1 0.949575 64.5757 17.6845
7725 2 2.76989 64.5858 18.9701
7749 2 1.86006 66.1417 16.3883
7730 2 4.58569 64.5682 16.4049
1506 1 6.40581 64.5757 17.6845
1535 1 3.67477 63.0032 17.7041
7724 2 5.49466 63.0146 18.99
1525 1 3.68054 66.1483 17.6673
1505 1 9.13101 63.0032 17.7041
7681 2 8.22612 64.5858 18.9701
7690 2 10.0419 64.5682 16.4049
1508 1 9.13678 66.1483 17.6673
7728 2 7.3163 66.1417 16.3883
7742 2 0.0450469 66.1573 18.9526
1526 1 0.955107 67.7211 17.6526
7712 2 2.77627 67.7288 18.9377
7744 2 1.86439 69.2893 16.3625
7743 2 0.0509335 69.3004 18.9256
7729 2 4.59049 67.7155 16.3742
1495 1 6.41135 67.7211 17.6526
7727 2 5.50129 66.1573 18.9526
1528 1 3.68561 69.2941 17.6406
7710 2 5.50717 69.3004 18.9256
7680 2 8.23251 67.7288 18.9377
7683 2 10.0467 67.7155 16.3742
7731 2 7.32063 69.2893 16.3625
1493 1 9.14185 69.2941 17.6406
1520 1 0.959449 70.8671 17.6313
7711 2 2.78133 70.8719 18.9162
7745 2 1.86717 72.4374 16.3472
7741 2 0.0548316 72.4435 18.9097
1494 1 6.41569 70.8671 17.6313
7716 2 4.59415 70.8633 16.3535
1518 1 3.68895 72.4401 17.6248
7713 2 5.51107 72.4435 18.9097
7666 2 8.23757 70.8719 18.9162
7682 2 10.0504 70.8633 16.3535
1496 1 9.14519 72.4401 17.6248
7714 2 7.32341 72.4374 16.3472
1519 1 0.961534 74.0131 17.6211
7701 2 2.78377 74.0149 18.906
8159 2 1.86773 75.5855 16.3428
8158 2 0.0556109 75.5864 18.9052
1477 1 6.41777 74.0131 17.6211
7715 2 4.59587 74.0114 16.3436
8141 2 5.51185 75.5864 18.9052
1920 1 3.68962 75.5861 17.6203
7665 2 8.24001 74.0149 18.906
7667 2 10.0521 74.0114 16.3436
8148 2 7.32397 75.5855 16.3428
1894 1 9.14586 75.5861 17.6203
1530 1 1.84387 56.745 20.3738
7722 2 0.937619 58.3317 21.6334
7732 2 3.66193 56.7636 21.6621
1503 1 4.57543 58.3143 20.3456
7686 2 6.39386 58.3317 21.6334
1452 1 10.0317 58.3143 20.3456
1509 1 7.30011 56.745 20.3738
7685 2 9.11816 56.7636 21.6621
1531 1 1.85082 59.8838 20.3186
7721 2 0.945575 61.4685 21.58
1502 1 4.58252 61.4536 20.2934
7678 2 6.40181 61.4685 21.58
7720 2 3.66965 59.9 21.6059
1451 1 10.0388 61.4536 20.2934
1501 1 7.30705 59.8838 20.3186
7687 2 9.12589 59.9 21.6059
1523 1 1.85809 63.0237 20.2701
7708 2 0.954076 64.6063 21.535
1491 1 4.58998 64.5941 20.2493
7677 2 6.41031 64.6063 21.535
7723 2 3.67788 63.0373 21.5563
1450 1 10.0462 64.5941 20.2493
1504 1 7.31433 63.0237 20.2701
7676 2 9.13412 63.0373 21.5563
1524 1 1.86564 66.1647 20.231
7707 2 0.962668 67.7445 21.5009
1490 1 4.59742 67.7352 20.2156
7663 2 6.41891 67.7445 21.5009
7706 2 3.68655 66.1754 21.5165
1443 1 10.0537 67.7352 20.2156
1489 1 7.32188 66.1647 20.231
7679 2 9.14279 66.1754 21.5165
1516 1 1.87264 69.3058 20.203
7700 2 0.969807 70.8821 21.4788
1517 1 1.87743 72.4465 20.1867
1476 1 4.60355 70.8762 20.1934
7662 2 6.42605 70.8821 21.4788
7709 2 3.69467 69.3134 21.4883
7698 2 3.70027 72.4504 21.4722
1442 1 10.0598 70.8762 20.1934
1492 1 7.32888 69.3058 20.203
7661 2 9.15091 69.3134 21.4883
1474 1 7.33367 72.4465 20.1867
7664 2 9.15651 72.4504 21.4722
7699 2 0.973349 74.0186 21.4686
1914 1 1.8784 75.5868 20.1823
1475 1 4.60657 74.0166 20.183
7645 2 6.42959 74.0186 21.4686
8140 2 3.7014 75.5867 21.4678
1427 1 10.0628 74.0166 20.183
1893 1 7.33464 75.5868 20.1823
8093 2 9.15764 75.5867 21.4678
1483 1 0.934922 58.3832 25.4923
1499 1 2.75585 58.3453 22.9179
1529 1 0.0236116 56.7784 22.9482
7718 2 1.84103 56.8009 24.2371
1446 1 6.39116 58.3832 25.4923
1497 1 3.65814 56.8189 25.5251
1498 1 5.47985 56.7784 22.9482
7674 2 4.5737 58.3667 24.2063
1445 1 9.11438 56.8189 25.5251
1449 1 8.21208 58.3453 22.9179
7620 2 10.0299 58.3667 24.2063
7684 2 7.29727 56.8009 24.2371
1482 1 0.945452 61.5121 25.4298
1487 1 2.7645 61.48 22.8612
1521 1 0.0319661 59.9125 22.8887
7719 2 1.85031 59.9325 24.1764
1438 1 6.40169 61.5121 25.4298
1481 1 3.66815 59.9474 25.4602
1500 1 5.4882 59.9125 22.8887
7673 2 4.5834 61.4984 24.1483
1447 1 9.12439 59.9474 25.4602
1448 1 8.22074 61.48 22.8612
7619 2 10.0396 61.4984 24.1483
7672 2 7.30655 59.9325 24.1764
1468 1 0.957574 64.6427 25.3775
1486 1 2.77401 64.616 22.8136
1522 1 0.0410139 63.0479 22.8361
7704 2 1.86054 63.0646 24.1225
1437 1 6.41381 64.6427 25.3775
1484 1 3.67937 63.0772 25.402
1485 1 5.49725 63.0479 22.8361
7659 2 4.59423 64.631 24.0996
1436 1 9.13561 63.0772 25.402
1441 1 8.23025 64.616 22.8136
7618 2 10.0505 64.631 24.0996
7675 2 7.31677 63.0646 24.1225
1467 1 0.971322 67.7734 25.3405
1472 1 2.78409 67.7522 22.7782
1514 1 0.0509319 66.1842 22.7943
7705 2 1.87191 66.1974 24.08
1423 1 6.42756 67.7734 25.3405
1466 1 3.69243 66.2082 25.3569
1488 1 5.50717 66.1842 22.7943
7658 2 4.60584 67.7636 24.0638
1439 1 9.14867 66.2082 25.3569
1440 1 8.24033 67.7522 22.7782
7611 2 10.0621 67.7636 24.0638
7657 2 7.32815 66.1974 24.08
1460 1 0.983993 70.9013 25.3193
1471 1 2.79287 70.8873 22.7558
1515 1 0.060699 69.32 22.7654
7696 2 1.88321 69.3293 24.0512
1422 1 6.44023 70.9013 25.3193
1469 1 3.70617 69.3378 25.328
1470 1 5.51694 69.32 22.7654
7644 2 4.61602 70.8944 24.0419
1421 1 9.16241 69.3378 25.328
1426 1 8.24911 70.8873 22.7558
7610 2 10.0723 70.8944 24.0419
7660 2 7.33945 69.3293 24.0512
1459 1 0.990704 74.025 25.3107
1461 1 2.79735 74.0205 22.7456
1513 1 0.0677064 72.4541 22.7492
7697 2 1.89135 72.4588 24.0357
1913 1 0.069155 75.5868 22.7449
8126 2 1.89305 75.5864 24.0316
1406 1 6.44694 74.025 25.3107
1458 1 3.71649 72.4636 25.3136
1473 1 5.52394 72.4541 22.7492
7643 2 4.62125 74.0227 24.0323
1881 1 3.71872 75.586 25.31
1882 1 5.52539 75.5868 22.7449
1424 1 9.17273 72.4636 25.3136
1425 1 8.25359 74.0205 22.7456
7596 2 10.0775 74.0227 24.0323
7642 2 7.34758 72.4588 24.0357
1829 1 9.17496 75.586 25.31
8092 2 7.34928 75.5864 24.0316
1479 1 1.83432 56.8699 28.1056
7670 2 2.7519 58.4101 26.7813
7717 2 0.0183933 56.8469 26.8146
1434 1 4.56821 58.4311 28.0703
7669 2 5.47463 56.8469 26.8146
1386 1 10.0244 58.4311 28.0703
1444 1 7.29056 56.8699 28.1056
7617 2 8.20814 58.4101 26.7813
1480 1 1.84619 59.9916 28.0347
7655 2 2.76366 61.5355 26.7172
7702 2 0.0294708 59.9728 26.7485
1433 1 4.58086 61.5523 28.0002
7671 2 5.48571 59.9728 26.7485
1385 1 10.0371 61.5523 28.0002
1432 1 7.30243 59.9916 28.0347
7616 2 8.21989 61.5355 26.7172
1464 1 1.86002 63.1137 27.9686
7654 2 2.77739 64.6615 26.6635
7703 2 0.0421035 63.0983 26.6886
7636 2 0.958945 64.7 29.226
1419 1 4.59629 64.6758 27.9411
7653 2 5.49834 63.0983 26.6886
7605 2 6.41518 64.7 29.226
7652 2 3.67793 63.1414 29.2544
1384 1 10.0525 64.6758 27.9411
1435 1 7.31626 63.1137 27.9686
7609 2 8.23362 64.6615 26.6635
7604 2 9.13417 63.1414 29.2544
1465 1 1.8773 66.2382 27.9191
7640 2 2.79315 67.7874 26.6263
7694 2 0.0570158 66.2247 26.6426
7635 2 0.980482 67.8168 29.1877
1418 1 4.6153 67.8 27.9026
7656 2 5.51325 66.2247 26.6426
7592 2 6.43672 67.8168 29.1877
7634 2 3.69747 66.2587 29.2036
1377 1 10.0715 67.8 27.9026
1417 1 7.33354 66.2382 27.9191
7608 2 8.24939 67.7874 26.6263
7607 2 9.15371 66.2587 29.2036
1456 1 1.89682 69.3605 27.892
7639 2 2.80775 70.9098 26.6064
7695 2 0.0728403 69.3492 26.6143
7628 2 1.0016 70.9281 29.1732
1405 1 4.63362 70.9192 27.8855
7638 2 5.52908 69.3492 26.6143
7591 2 6.45783 70.9281 29.1732
7637 2 3.7199 69.3735 29.1778
1376 1 10.0899 70.9192 27.8855
1420 1 7.35306 69.3605 27.892
7595 2 8.26399 70.9098 26.6064
7590 2 9.17614 69.3735 29.1778
1457 1 1.91209 72.4756 27.8826
7629 2 2.81551 74.0274 26.5992
7693 2 0.0846975 72.4691 26.6015
7627 2 1.01288 74.0323 29.1717
1863 1 1.9155 75.5843 27.8808
8125 2 0.0872728 75.5853 26.5985
1404 1 4.64376 74.0302 27.8815
7641 2 5.54094 72.4691 26.6015
7581 2 6.46912 74.0323 29.1717
7626 2 3.73721 72.4807 29.172
8077 2 5.54351 75.5853 26.5985
8076 2 3.74085 75.5837 29.171
1365 1 10.1 74.0302 27.8815
1403 1 7.36833 72.4756 27.8826
7594 2 8.27175 74.0274 26.5992
7593 2 9.19345 72.4807 29.172
1828 1 7.37173 75.5843 27.8808
8021 2 9.19709 75.5837 29.171
1430 1 2.74221 58.4948 30.654
1478 1 0.00757104 56.9363 30.6908
7647 2 1.82095 56.9788 31.978
7651 2 0.927556 58.4656 29.3593
1429 1 5.46381 56.9363 30.6908
7602 2 4.55568 58.5385 31.9408
7614 2 6.38379 58.4656 29.3593
7668 2 3.64945 56.9048 29.395
1383 1 8.19845 58.4948 30.654
7572 2 10.0119 58.5385 31.9408
7612 2 7.27719 56.9788 31.978
7613 2 9.10569 56.9048 29.395
1415 1 2.7571 61.6055 30.5757
1462 1 0.0212808 60.0509 30.6153
7648 2 1.8352 60.0946 31.901
7650 2 0.941665 61.5831 29.2873
1431 1 5.47752 60.0509 30.6153
7601 2 4.57209 61.6477 31.8598
7606 2 6.3979 61.5831 29.2873
7649 2 3.66246 60.0248 29.3229
1382 1 8.21334 61.6055 30.5757
7571 2 10.0283 61.6477 31.8598
7600 2 7.29144 60.0946 31.901
7615 2 9.1187 60.0248 29.3229
1414 1 2.77651 64.7181 30.506
1463 1 0.0376018 63.161 30.5382
7632 2 1.85373 63.1989 31.8196
1413 1 5.49384 63.161 30.5382
7588 2 4.59374 64.7502 31.7858
1375 1 8.23275 64.7181 30.506
7570 2 10.05 64.7502 31.7858
7603 2 7.30997 63.1989 31.8196
1401 1 2.80366 67.8335 30.4658
1454 1 0.0606162 66.276 30.4812
7633 2 1.87917 66.3014 31.76
1416 1 5.51685 66.276 30.4812
7587 2 4.62349 67.8521 31.7461
1374 1 8.25989 67.8335 30.4658
7567 2 10.0797 67.8521 31.7461
7586 2 7.33541 66.3014 31.76
1400 1 2.83066 70.9406 30.4581
1455 1 0.0887774 69.3892 30.4588
7624 2 1.91202 69.4008 31.7408
1399 1 5.54502 69.3892 30.4588
7580 2 4.65502 70.9461 31.7455
1364 1 8.28689 70.9406 30.4581
7566 2 10.1113 70.9461 31.7455
7589 2 7.36826 69.4008 31.7408
1392 1 2.84511 74.0354 30.4613
1453 1 0.112385 72.4882 30.4605
7625 2 1.93739 72.4913 31.75
1862 1 0.11681 75.5823 30.4606
8055 2 1.94273 75.5824 31.7514
1402 1 5.56862 72.4882 30.4605
7579 2 4.67104 74.0369 31.7522
1813 1 5.57305 75.5823 30.4606
1363 1 8.30135 74.0354 30.4613
7563 2 10.1273 74.0369 31.7522
7578 2 7.39363 72.4913 31.75
8020 2 7.39897 75.5824 31.7514
1411 1 0.911842 58.5828 33.2449
7598 2 2.72327 58.6342 34.5239
1428 1 3.6333 57.0234 33.28
1407 1 1.79873 57.1365 35.8692
1380 1 6.36808 58.5828 33.2449
7597 2 5.4457 57.0721 34.5611
1368 1 4.5311 58.7054 35.8396
1378 1 7.25497 57.1365 35.8692
1379 1 9.08954 57.0234 33.28
7569 2 8.17951 58.6342 34.5239
10910 2 10.9019 57.0721 34.5611
1350 1 9.98734 58.7054 35.8396
1410 1 0.928742 61.6847 33.1643
7584 2 2.73959 61.7397 34.4357
7630 2 0.00240165 60.1906 34.4824
1408 1 1.80853 60.2681 35.8077
1372 1 6.38498 61.6847 33.1643
1409 1 3.64776 60.1362 33.2061
7599 2 5.45864 60.1906 34.4824
1367 1 4.5431 61.8187 35.7702
1366 1 7.26477 60.2681 35.8077
1381 1 9.104 60.1362 33.2061
7568 2 8.19583 61.7397 34.4357
1349 1 9.99933 61.8187 35.7702
1397 1 0.949877 64.7757 33.078
7583 2 2.76361 64.8194 34.337
7631 2 0.02335 63.2821 34.3855
1393 1 1.82567 63.3622 35.7317
1371 1 6.40612 64.7757 33.078
1412 1 3.66597 63.2291 33.1192
7582 2 5.47959 63.2821 34.3855
1357 1 4.56193 64.8801 35.682
1370 1 9.12221 63.2291 33.1192
7565 2 8.21985 64.8194 34.337
1369 1 7.28191 63.3622 35.7317
1348 1 10.0182 64.8801 35.682
1396 1 0.989112 67.8774 33.0314
7576 2 2.80551 67.8909 34.2955
7622 2 0.0572232 66.3561 34.3077
1394 1 1.84578 66.4203 35.6408
1361 1 6.44535 67.8774 33.0314
1395 1 3.695 66.3255 33.0498
7585 2 5.51346 66.3561 34.3077
1356 1 4.63922 67.9145 35.6334
1373 1 9.15124 66.3255 33.0498
7564 2 8.26175 67.8909 34.2955
1355 1 7.30201 66.4203 35.6408
1347 1 10.0955 67.9145 35.6334
1391 1 1.03509 70.9556 33.047
7575 2 2.85743 70.956 34.3267
7623 2 0.106666 69.4195 34.3104
1387 1 1.94289 69.4165 35.665
1360 1 6.49133 70.9556 33.047
1398 1 3.74056 69.4204 33.0387
7574 2 5.5629 69.4195 34.3104
1353 1 4.69362 70.958 35.6469
1359 1 9.1968 69.4204 33.0387
7562 2 8.31367 70.956 34.3267
1358 1 7.39913 69.4165 35.665
1346 1 10.1499 70.958 35.6469
1390 1 1.05117 74.0391 33.0503
7573 2 2.88381 74.0393 34.3404
7621 2 0.147302 72.4966 34.3359
1388 1 1.97796 72.4983 35.643
8054 2 0.15548 75.5831 34.3396
1791 1 1.98105 75.5856 35.643
1354 1 6.50741 74.0391 33.0503
1389 1 3.77399 72.4961 33.0489
7577 2 5.60354 72.4966 34.3359
1352 1 4.7094 74.0385 35.6436
1812 1 3.77908 75.5818 33.0496
8005 2 5.61172 75.5831 34.3396
7561 2 8.34005 74.0393 34.3404
1362 1 9.23023 72.4961 33.0489
1351 1 7.4342 72.4983 35.643
1345 1 10.1656 74.0385 35.6436
1763 1 9.23531 75.5818 33.0496
1762 1 7.43729 75.5856 35.643
7774 2 0.889022 58.757 37.102
13937 1 2.68208 58.8751 38.4231
7776 2 3.61388 57.1856 37.1381
7763 2 6.34526 58.757 37.102
13936 1 5.41604 57.2776 38.447
7762 2 9.07012 57.1856 37.1381
13902 1 8.13832 58.8751 38.4231
16764 1 10.8723 57.2776 38.447
7773 2 0.900208 61.8763 37.0113
13933 1 2.6583 62.0892 38.373
7772 2 3.62248 60.3209 37.0601
7760 2 6.35645 61.8763 37.0113
13938 1 5.40183 60.4747 38.4008
7764 2 9.07872 60.3209 37.0601
13901 1 8.11454 62.0892 38.373
16762 1 10.8581 60.4747 38.4008
7770 2 0.927943 64.9385 36.8853
13932 1 2.42422 65.5165 38.4408
7759 2 6.38418 64.9385 36.8853
7775 2 3.64151 63.4115 36.9467
13931 1 5.35884 63.6954 38.341
7758 2 9.09775 63.4115 36.9467
13896 1 7.88045 65.5165 38.4408
16763 1 10.8151 63.6954 38.341
7769 2 0.962224 67.9083 36.8745
13922 1 2.1869 69.0901 38.3126
7756 2 6.41846 67.9083 36.8745
7768 2 3.64606 66.4284 36.8245
13934 1 4.89307 67.238 38.3874
7761 2 9.1023 66.4284 36.8245
13895 1 7.64314 69.0901 38.3126
16760 1 10.3493 67.238 38.3874
7767 2 1.09978 70.9429 36.9044
13921 1 2.17975 72.4258 38.2561
7755 2 6.55602 70.9429 36.9044
7771 2 3.77802 69.3996 36.8772
13920 1 4.91102 70.7814 38.2487
7754 2 9.23426 69.3996 36.8772
13882 1 7.63598 72.4258 38.2561
16761 1 10.3673 70.7814 38.2487
7766 2 1.12233 74.0377 36.9215
7753 2 6.57857 74.0377 36.9215
7765 2 3.84169 72.484 36.9205
13923 1 4.91219 74.0154 38.2498
8184 2 3.85009 75.5883 36.9205
7757 2 9.29792 72.484 36.9205
16759 1 10.3684 74.0154 38.2498
8170 2 9.30633 75.5883 36.9205
19559 2 1.78611 57.3171 39.7018
19542 2 2.68961 59.056 42.2115
13929 1 0.8531 59.0363 40.972
13935 1 3.58907 57.417 41.0013
19546 2 4.51329 58.9103 39.6662
19541 2 5.42103 57.4444 42.2502
13899 1 6.30934 59.0363 40.972
19548 2 7.24235 57.3171 39.7018
22378 2 10.8773 57.4444 42.2502
13898 1 9.04531 57.417 41.0013
19497 2 8.14585 59.056 42.2115
19500 2 9.96952 58.9103 39.6662
19560 2 1.7843 60.5088 39.6248
13928 1 0.819365 62.3096 40.9086
19534 2 2.67494 62.3053 42.1158
13927 1 3.56838 60.6621 40.94
19545 2 4.50746 62.1119 39.5805
19543 2 5.41251 60.6751 42.1675
13893 1 6.2756 62.3096 40.9086
19544 2 7.24054 60.5088 39.6248
22374 2 10.8687 60.6751 42.1675
13900 1 9.02462 60.6621 40.94
19496 2 8.13118 62.3053 42.1158
19499 2 9.9637 62.1119 39.5805
19556 2 1.77407 63.7348 39.521
13918 1 0.824077 65.6233 40.7042
19533 2 2.63044 65.646 41.983
13930 1 3.52975 63.962 40.8654
19538 2 4.4671 65.3699 39.4439
13892 1 6.28032 65.6233 40.7042
19532 2 5.38562 63.9683 42.0558
19547 2 7.2303 63.7348 39.521
22375 2 10.8419 63.9683 42.0558
13891 1 8.98599 63.962 40.8654
19489 2 8.08668 65.646 41.983
19498 2 9.92334 65.3699 39.4439
19557 2 1.62273 67.2525 39.3908
13917 1 0.747938 68.9336 40.6442
19520 2 2.55347 68.9841 41.955
13916 1 3.55484 67.2084 40.5673
19537 2 4.29584 69.0394 39.4251
13879 1 6.20418 68.9336 40.6442
19535 2 5.32147 67.3089 41.9513
19536 2 7.07897 67.2525 39.3908
22370 2 10.7777 67.3089 41.9513
13894 1 9.01108 67.2084 40.5673
19488 2 8.00971 68.9841 41.955
19491 2 9.75208 69.0394 39.4251
19552 2 1.52408 70.7322 39.4652
13910 1 0.636225 72.3147 40.7733
19519 2 2.50279 72.3349 42.0094
13919 1 3.40411 70.6244 40.7313
13878 1 6.09246 72.3147 40.7733
19518 2 5.25104 70.6641 41.9861
19524 2 4.22987 72.3694 39.4923
19539 2 6.98032 70.7322 39.4652
22371 2 10.7073 70.6641 41.9861
13877 1 8.86035 70.6244 40.7313
19474 2 7.95903 72.3349 42.0094
19490 2 9.68611 72.3694 39.4923
19553 2 1.49073 74.0091 39.5085
13908 1 3.35159 73.9826 40.7878
19521 2 5.22027 73.993 42.0227
19522 2 6.94697 74.0091 39.5085
22369 2 10.6765 73.993 42.0227
13880 1 8.80783 73.9826 40.7878
13925 1 1.77427 57.5353 43.5364
19530 2 0.872494 59.1778 44.7479
19540 2 3.60493 57.5563 44.7895
13889 1 4.49594 59.1624 43.4998
19494 2 6.32873 59.1778 44.7479
13897 1 7.23051 57.5353 43.5364
13836 1 9.95217 59.1624 43.4998
19493 2 9.06117 57.5563 44.7895
13926 1 1.76112 60.797 43.4577
19529 2 0.856159 62.4458 44.65
19528 2 3.59418 60.8073 44.7016
13871 1 2.67727 62.5233 45.9209
13888 1 4.48679 62.439 43.3978
19486 2 6.3124 62.4458 44.65
13887 1 7.21736 60.797 43.4577
13835 1 9.94302 62.439 43.3978
19495 2 9.05042 60.8073 44.7016
13832 1 8.13351 62.5233 45.9209
13914 1 1.75118 64.0849 43.3197
19516 2 0.823298 65.7315 44.5538
19531 2 3.56856 64.089 44.5975
13870 1 2.6484 65.7837 45.8329
13875 1 4.45439 65.7226 43.2677
19485 2 6.27954 65.7315 44.5538
13890 1 7.20742 64.0849 43.3197
13869 1 5.3929 64.1547 45.872
16733 1 10.8491 64.1547 45.872
13834 1 9.91063 65.7226 43.2677
19484 2 9.02479 64.089 44.5975
13825 1 8.10464 65.7837 45.8329
13915 1 1.70074 67.3541 43.2305
19515 2 0.77849 69.0212 44.5156
19514 2 3.52904 67.3747 44.5267
13856 1 2.61717 69.0466 45.7864
13874 1 4.406 68.977 43.2054
19471 2 6.23473 69.0212 44.5156
13873 1 7.15697 67.3541 43.2305
13872 1 5.36044 67.4135 45.8035
16724 1 10.8167 67.4135 45.8035
13827 1 9.86224 68.977 43.2054
19487 2 8.98528 67.3747 44.5267
13824 1 8.07341 69.0466 45.7864
13906 1 1.66205 70.6328 43.2222
19508 2 0.749383 72.33 44.5279
19517 2 3.48851 70.6721 44.5192
13855 1 2.5994 72.3347 45.779
13860 1 4.3678 72.3032 43.2564
19470 2 6.20562 72.33 44.5279
13876 1 7.11829 70.6328 43.2222
13854 1 5.33412 70.685 45.7774
16725 1 10.7904 70.685 45.7774
13826 1 9.82403 72.3032 43.2564
19469 2 8.94475 70.6721 44.5192
13810 1 8.05564 72.3347 45.779
13907 1 1.62509 73.9816 43.2769
19506 2 3.47196 73.9908 44.5337
13858 1 7.08133 73.9816 43.2769
13857 1 5.32435 73.9922 45.7824
16723 1 10.7806 73.9922 45.7824
19472 2 8.9282 73.9908 44.5337
13867 1 0.881972 59.3305 48.5552
13885 1 2.69026 59.2579 46.0232
19526 2 1.79228 57.6489 47.3268
13883 1 3.61412 57.7054 48.5981
13830 1 6.33821 59.3305 48.5552
13884 1 5.42211 57.63 46.066
19482 2 4.51568 59.2734 47.2847
19492 2 7.24852 57.6489 47.3268
16744 1 10.8783 57.63 46.066
13829 1 9.07036 57.7054 48.5981
13833 1 8.14649 59.2579 46.0232
19434 2 9.97192 59.2734 47.2847
13866 1 0.867909 62.5829 48.4676
19527 2 1.78079 60.9018 47.2402
13865 1 3.60421 60.9568 48.5107
13822 1 6.32415 62.5829 48.4676
13886 1 5.41355 60.8897 45.974
19481 2 4.49979 62.5327 47.1953
19480 2 7.23703 60.9018 47.2402
16732 1 10.8698 60.8897 45.974
13831 1 9.06045 60.9568 48.5107
19433 2 9.95603 62.5327 47.1953
13852 1 0.846699 65.8343 48.3952
19512 2 1.76062 64.1641 47.1539
13868 1 3.58605 64.2085 48.4285
13821 1 6.30294 65.8343 48.3952
19467 2 4.47608 65.7955 47.1185
19483 2 7.21686 64.1641 47.1539
13820 1 9.04229 64.2085 48.4285
19432 2 9.93232 65.7955 47.1185
13851 1 0.827075 69.0908 48.3482
19513 2 1.73442 67.4278 47.0924
13850 1 3.56424 67.4611 48.3683
13807 1 6.28331 69.0908 48.3482
19466 2 4.44984 69.0632 47.0757
19465 2 7.19066 67.4278 47.0924
13823 1 9.02047 67.4611 48.3683
19425 2 9.90608 69.0632 47.0757
13844 1 0.816645 72.3617 48.3251
19504 2 1.71089 70.7032 47.067
13853 1 3.54868 70.7242 48.3341
13806 1 6.27288 72.3617 48.3251
19453 2 4.43198 72.3483 47.0634
19468 2 7.16713 70.7032 47.067
13805 1 9.00492 70.7242 48.3341
19424 2 9.88822 72.3483 47.0634
19505 2 1.70054 73.998 47.0622
13842 1 3.54326 74.0029 48.3205
19451 2 7.15678 73.998 47.0622
13808 1 8.9995 74.0029 48.3205
13863 1 1.8051 57.7658 51.1368
19478 2 2.70474 59.3458 49.8263
19459 2 0.895319 59.4021 52.3723
19476 2 3.62774 57.782 52.4099
13818 1 4.52894 59.3874 51.0969
19477 2 5.43759 57.723 49.8664
13828 1 7.26134 57.7658 51.1368
19428 2 6.35156 59.4021 52.3723
22345 2 10.8938 57.723 49.8664
13776 1 9.98517 59.3874 51.0969
19431 2 8.16098 59.3458 49.8263
19427 2 9.08397 57.782 52.4099
13864 1 1.79526 61.0093 51.0574
19463 2 2.69141 62.5949 49.7469
19458 2 0.884416 62.6435 52.3004
19457 2 3.61833 61.0227 52.3355
13817 1 4.51664 62.6313 51.0199
19479 2 5.4268 60.97 49.7859
13816 1 7.2515 61.0093 51.0574
19420 2 6.34065 62.6435 52.3004
22330 2 10.883 60.97 49.7859
13775 1 9.97288 62.6313 51.0199
19430 2 8.14765 62.5949 49.7469
19429 2 9.07457 61.0227 52.3355
13848 1 1.78102 64.2533 50.9855
19462 2 2.67428 65.8457 49.6797
19445 2 0.871847 65.8862 52.2391
19460 2 3.6063 64.2646 52.268
13803 1 4.50146 65.8758 50.9552
19461 2 5.4112 64.2201 49.711
13819 1 7.23726 64.2533 50.9855
19419 2 6.32809 65.8862 52.2391
22331 2 10.8674 64.2201 49.711
13774 1 9.9577 65.8758 50.9552
19423 2 8.13052 65.8457 49.6797
19418 2 9.06253 64.2646 52.268
19443 2 3.59392 67.5086 52.2145
13849 1 1.76627 67.4992 50.9294
19449 2 2.65751 69.1014 49.6347
19444 2 0.860449 69.1324 52.1946
19409 2 6.31669 69.1324 52.1946
13802 1 4.48849 69.1243 50.9083
19464 2 5.39362 67.4724 49.6542
13801 1 7.22251 67.4992 50.9294
22322 2 10.8499 67.4724 49.6542
19421 2 9.05016 67.5086 52.2145
13768 1 9.94472 69.1243 50.9083
19422 2 8.11375 69.1014 49.6347
19446 2 3.58423 70.7578 52.1794
19439 2 0.853061 72.3849 52.1689
13840 1 1.75604 70.7514 50.8922
19448 2 2.64642 72.3685 49.6123
19408 2 6.3093 72.3849 52.1689
13791 1 4.48138 72.3804 50.8809
19447 2 5.3791 70.7334 49.6211
13804 1 7.21228 70.7514 50.8922
22323 2 10.8353 70.7334 49.6211
19407 2 9.04046 70.7578 52.1794
13767 1 9.93762 72.3804 50.8809
19412 2 8.10266 72.3685 49.6123
19437 2 3.57957 74.013 52.1632
13841 1 1.75191 74.0107 50.8747
19450 2 5.3722 74.0061 49.6076
13789 1 7.20814 74.0107 50.8747
19410 2 9.03581 74.013 52.1632
22321 2 10.8284 74.0061 49.6076
13814 1 2.72002 59.434 53.644
19455 2 1.81855 57.8305 54.9567
13813 1 5.45214 57.8153 53.681
19416 2 4.54291 59.4479 54.9215
19426 2 7.27479 57.8305 54.9567
16682 1 10.9084 57.8153 53.681
13773 1 8.17626 59.434 53.644
19398 2 9.99914 59.4479 54.9215
13799 1 2.7099 62.6715 53.574
19456 2 1.81052 61.0655 54.8874
13815 1 5.44337 61.0527 53.6081
19415 2 4.534 62.6831 54.855
19414 2 7.26676 61.0655 54.8874
16666 1 10.8996 61.0527 53.6081
13772 1 8.16614 62.6715 53.574
19397 2 9.99024 62.6831 54.855
13798 1 2.69876 65.9097 53.5143
19441 2 1.80108 64.301 54.8251
13797 1 5.4324 64.2905 53.5426
19405 2 4.52446 65.9191 54.7981
19417 2 7.25732 64.301 54.8251
16667 1 10.8886 64.2905 53.5426
13766 1 8.155 65.9097 53.5143
19396 2 9.9807 65.9191 54.7981
19442 2 1.79193 67.5377 54.7748
13787 1 2.68951 69.1501 53.4692
19403 2 7.24816 67.5377 54.7748
19404 2 4.51619 69.1569 54.7554
13800 1 5.42186 67.5295 53.4897
16658 1 10.8781 67.5295 53.4897
19395 2 9.97242 69.1569 54.7554
13765 1 8.14575 69.1501 53.4692
19435 2 1.78496 70.7769 54.7402
13786 1 2.68411 72.3939 53.4418
19406 2 7.2412 70.7769 54.7402
19401 2 4.51089 72.3976 54.7296
13785 1 5.4144 70.7716 53.4531
16659 1 10.8706 70.7716 53.4531
19394 2 9.96713 72.3976 54.7296
13759 1 8.14035 72.3939 53.4418
19436 2 1.7816 74.0187 54.7237
13788 1 5.4111 74.0166 53.4355
19399 2 7.23784 74.0187 54.7237
16657 1 10.8673 74.0166 53.4355
13795 1 0.911436 59.4734 56.1943
14111 1 1.83413 57.894 58.7794
19752 2 0.00965635 57.8718 57.506
19745 2 2.7345 59.4867 57.4728
13812 1 3.64311 57.8573 56.2289
13770 1 6.36767 59.4734 56.1943
14098 1 4.55914 59.5077 58.7466
19744 2 5.46589 57.8718 57.506
14052 1 10.0154 59.5077 58.7466
13769 1 9.09934 57.8573 56.2289
14100 1 7.29037 57.894 58.7794
19710 2 8.19073 59.4867 57.4728
13794 1 0.903154 62.7055 56.1293
14112 1 1.82765 61.1213 58.7151
19750 2 0.00278861 61.1016 57.4408
19741 2 2.72713 62.7165 57.4105
13793 1 3.63556 61.0894 56.1609
14097 1 4.55224 62.7347 58.6854
13763 1 6.35939 62.7055 56.1293
19746 2 5.45903 61.1016 57.4408
14051 1 10.0085 62.7347 58.6854
13771 1 9.0918 61.0894 56.1609
14096 1 7.28389 61.1213 58.7151
19709 2 8.18336 62.7165 57.4105
13783 1 0.894587 65.9376 56.0736
14108 1 1.8206 64.348 58.658
19740 2 2.71959 65.9463 57.3573
13796 1 3.62691 64.3215 56.1
14090 1 4.54534 65.9612 58.6332
13762 1 6.35083 65.9376 56.0736
19739 2 5.45142 64.3313 57.3825
14099 1 7.27684 64.348 58.658
14050 1 10.0016 65.9612 58.6332
13761 1 9.08315 64.3215 56.1
19704 2 8.17583 65.9463 57.3573
22571 2 10.9077 64.3313 57.3825
13782 1 0.887509 69.1705 56.031
14109 1 1.81415 67.5742 58.6114
19730 2 2.71322 69.1766 57.3168
13781 1 3.61888 67.5539 56.0504
14089 1 4.53963 69.1872 58.5932
13756 1 6.34375 69.1705 56.031
19742 2 5.4443 67.5613 57.3352
14088 1 7.27039 67.5742 58.6114
14043 1 9.99587 69.1872 58.5932
13764 1 9.07512 67.5539 56.0504
19703 2 8.16945 69.1766 57.3168
22568 2 10.9005 67.5613 57.3352
13779 1 0.883182 72.4044 56.0049
14104 1 1.80941 70.8002 58.5789
19729 2 2.70916 72.4078 57.2921
13784 1 3.61308 70.7873 56.0157
14076 1 4.53605 72.4132 58.5687
13755 1 6.33942 72.4044 56.0049
19728 2 5.43896 70.7921 57.3023
14091 1 7.26565 70.8002 58.5789
14042 1 9.99228 72.4132 58.5687
13754 1 9.06931 70.7873 56.0157
19690 2 8.1654 72.4078 57.2921
22569 2 10.8952 70.7921 57.3023
14105 1 1.80711 74.0262 58.5629
13777 1 3.61035 74.0217 55.9988
19731 2 5.43636 74.0237 57.2864
14074 1 7.26335 74.0262 58.5629
13757 1 9.06659 74.0217 55.9988
22567 2 10.8926 74.0237 57.2864
14094 1 2.75044 59.5388 61.3005
14110 1 0.0250524 57.9273 61.3318
19737 2 0.926016 59.5209 60.0257
14093 1 5.48129 57.9273 61.3318
19707 2 6.38225 59.5209 60.0257
19743 2 3.65701 57.9083 60.0573
19697 2 4.57352 59.5523 62.5798
14049 1 8.20668 59.5388 61.3005
19706 2 9.11325 57.9083 60.0573
19644 2 10.0298 59.5523 62.5798
14086 1 2.74454 62.7609 61.2424
14106 1 0.0194111 61.15 61.2706
19736 2 0.919779 62.7455 59.9668
19734 2 1.84272 61.1623 62.5509
14095 1 5.47565 61.15 61.2706
19701 2 6.37602 62.7455 59.9668
19735 2 3.65107 61.1333 59.9954
19696 2 4.56811 62.7721 62.5237
14048 1 8.20078 62.7609 61.2424
19708 2 9.10731 61.1333 59.9954
19643 2 10.0243 62.7721 62.5237
19695 2 7.29896 61.1623 62.5509
14085 1 2.73876 65.9819 61.1931
14107 1 0.0134655 64.3716 61.2165
19726 2 0.913595 65.9696 59.9166
19722 2 1.83729 64.3815 62.4986
14084 1 5.4697 64.3716 61.2165
19700 2 6.36983 65.9696 59.9166
19738 2 3.64474 64.3576 59.9404
19683 2 4.56285 65.9906 62.4761
14041 1 8.195 65.9819 61.1931
19699 2 9.10098 64.3576 59.9404
19642 2 10.0191 65.9906 62.4761
19698 2 7.29353 64.3815 62.4986
14072 1 2.73398 69.2018 61.1555
14102 1 0.008076 67.592 61.1726
19725 2 0.90843 69.1931 59.8785
19723 2 1.83239 67.5994 62.4564
19724 2 3.63895 67.5814 59.8959
14087 1 5.46431 67.592 61.1726
19687 2 6.36467 69.1931 59.8785
19682 2 4.55849 69.208 62.4399
14040 1 8.19022 69.2018 61.1555
19702 2 9.09518 67.5814 59.8959
19635 2 10.0147 69.208 62.4399
19681 2 7.28863 67.5994 62.4564
14071 1 2.73093 72.4211 61.1323
14103 1 0.00407823 70.8115 61.1419
19718 2 0.905133 72.4166 59.855
19727 2 3.63462 70.8049 59.8648
19714 2 1.82874 70.8164 62.4269
14070 1 5.46032 70.8115 61.1419
19686 2 6.36137 72.4166 59.855
19668 2 4.55568 72.4247 62.4176
14026 1 8.18716 72.4211 61.1323
19685 2 9.09086 70.8049 59.8648
19634 2 10.0119 72.4247 62.4176
19684 2 7.28497 70.8164 62.4269
19716 2 3.63249 74.0283 59.8494
19715 2 1.82689 74.0329 62.4122
14101 1 0.00208882 74.0306 61.1267
14073 1 5.45833 74.0306 61.1267
19688 2 9.08873 74.0283 59.8494
19666 2 7.28313 74.0329 62.4122
14082 1 0.941389 59.5681 63.8561
19693 2 2.76441 59.5825 65.1348
19732 2 0.0386065 57.9742 65.164
19733 2 1.84795 57.9419 62.6102
14046 1 6.39763 59.5681 63.8561
14092 1 3.67195 57.9587 63.8861
19692 2 5.49484 57.9742 65.164
14045 1 9.12819 57.9587 63.8861
19641 2 8.22065 59.5825 65.1348
19705 2 7.30419 57.9419 62.6102
14081 1 0.936233 62.7855 63.8005
19679 2 2.75958 62.7975 65.0808
19720 2 0.0338897 61.1902 65.1069
14038 1 6.39247 62.7855 63.8005
14080 1 3.66695 61.177 63.8274
19694 2 5.49013 61.1902 65.1069
14047 1 9.12319 61.177 63.8274
19640 2 8.21582 62.7975 65.0808
14068 1 0.931245 66.0012 63.7535
19678 2 2.75496 66.0107 65.0353
19721 2 0.0290899 64.4043 65.0569
14037 1 6.38748 66.0012 63.7535
14083 1 3.66179 64.3935 63.7758
19677 2 5.48533 64.4043 65.0569
14036 1 9.11803 64.3935 63.7758
19633 2 8.2112 66.0107 65.0353
14067 1 0.927112 69.2155 63.7178
19664 2 2.75113 69.2222 65.0008
19712 2 0.0247894 67.6166 65.0165
14023 1 6.38335 69.2155 63.7178
14066 1 3.65715 67.6085 63.7341
19680 2 5.48103 67.6166 65.0165
14039 1 9.11339 67.6085 63.7341
19632 2 8.20737 69.2222 65.0008
14060 1 0.924444 72.4287 63.6957
19663 2 2.74865 72.4326 64.9793
19713 2 0.0215747 70.8275 64.9883
14022 1 6.38068 72.4287 63.6957
14069 1 3.65368 70.8222 63.7049
19662 2 5.47781 70.8275 64.9883
14021 1 9.10992 70.8222 63.7049
19618 2 8.20488 72.4326 64.9793
19711 2 0.0199083 74.0376 64.974
14058 1 3.65192 74.035 63.6903
19665 2 5.47615 74.0376 64.974
14024 1 9.10815 74.035 63.6903
14078 1 1.86214 57.9895 66.4431
19675 2 0.954785 59.613 67.6895
14030 1 2.7775 59.6261 68.9773
14077 1 0.0514022 58.0208 69.0056
14034 1 4.58804 59.5968 66.414
19638 2 6.41102 59.613 67.6895
19691 2 3.68506 58.0069 67.7179
14029 1 5.50764 58.0208 69.0056
13986 1 10.0443 59.5968 66.414
14044 1 7.31838 57.9895 66.4431
19637 2 9.1413 58.0069 67.7179
13983 1 8.23373 59.6261 68.9773
14079 1 1.85763 61.2035 66.3863
19674 2 0.950343 62.8234 67.6374
14015 1 2.77333 62.8344 68.9255
14062 1 0.0472978 61.2306 68.9505
14033 1 4.58343 62.8096 66.3605
19630 2 6.40658 62.8234 67.6374
19673 2 3.68069 61.2185 67.6626
14031 1 5.50354 61.2306 68.9505
13985 1 10.0397 62.8096 66.3605
14032 1 7.31387 61.2035 66.3863
19639 2 9.13692 61.2185 67.6626
13982 1 8.22957 62.8344 68.9255
14064 1 1.85305 64.4152 66.3367
19660 2 0.946123 66.0311 67.5936
14014 1 2.76938 66.04 68.8819
14063 1 0.0431839 64.4375 68.9026
14019 1 4.57902 66.0202 66.3154
19629 2 6.40236 66.0311 67.5936
19676 2 3.67629 64.4275 67.6143
14013 1 5.49942 64.4375 68.9026
13984 1 10.0353 66.0202 66.3154
14035 1 7.30929 64.4152 66.3367
19628 2 9.13253 64.4275 67.6143
13975 1 8.22562 66.04 68.8819
14065 1 1.84894 67.6248 66.2968
19659 2 0.942631 69.2368 67.5603
14001 1 2.76611 69.2433 68.8489
14054 1 0.039515 67.6419 68.864
14018 1 4.57536 69.229 66.2812
19615 2 6.39887 69.2368 67.5603
19658 2 3.67237 67.6342 67.5755
14016 1 5.49575 67.6419 68.864
13977 1 10.0316 69.229 66.2812
14017 1 7.30518 67.6248 66.2968
19631 2 9.12861 67.6342 67.5755
13974 1 8.22235 69.2433 68.8489
14056 1 1.84586 70.8328 66.2688
19652 2 0.940325 72.4409 67.5394
14000 1 2.76395 72.4449 68.8282
14055 1 0.0367516 70.8443 68.8369
14005 1 4.57297 72.4364 66.2599
19614 2 6.39656 72.4409 67.5394
19661 2 3.66943 70.839 67.5482
13999 1 5.49299 70.8443 68.8369
13976 1 10.0292 72.4364 66.2599
14020 1 7.3021 70.8328 66.2688
19613 2 9.12566 70.839 67.5482
13964 1 8.22019 72.4449 68.8282
14057 1 1.84424 74.0399 66.2545
14053 1 0.0352661 74.0454 68.8229
19650 2 3.66784 74.0427 67.5341
14002 1 5.4915 74.0454 68.8229
14003 1 7.30048 74.0399 66.2545
19616 2 9.12408 74.0427 67.5341
14011 1 0.96302 59.6562 71.5571
19671 2 1.87509 58.041 70.2673
13980 1 6.41926 59.6562 71.5571
14028 1 3.69293 58.0529 71.5846
19626 2 4.60117 59.6451 70.2395
13979 1 9.14917 58.0529 71.5846
19584 2 10.0574 59.6451 70.2395
19636 2 7.33133 58.041 70.2673
14010 1 0.959354 62.86 71.5066
19672 2 1.87096 61.2483 70.2132
13972 1 6.41559 62.86 71.5066
14009 1 3.68931 61.2586 71.531
19625 2 4.59699 62.8506 70.1887
13981 1 9.14554 61.2586 71.531
19583 2 10.0532 62.8506 70.1887
19624 2 7.3272 61.2483 70.2132
13997 1 0.955885 66.0604 71.4643
19656 2 1.86684 64.4521 70.1662
13971 1 6.41212 66.0604 71.4643
14012 1 3.68569 64.4606 71.4843
19611 2 4.59305 66.0528 70.1461
13970 1 9.14193 64.4606 71.4843
19582 2 10.0493 66.0528 70.1461
19627 2 7.32308 64.4521 70.1662
13996 1 0.95302 69.2579 71.4323
19657 2 1.86318 67.6528 70.1285
13961 1 6.40926 69.2579 71.4323
13995 1 3.68247 67.6595 71.4469
19610 2 4.58979 69.2522 70.1138
13973 1 9.13871 67.6595 71.4469
19576 2 10.046 69.2522 70.1138
19609 2 7.31942 67.6528 70.1285
13991 1 0.951127 72.4533 71.4122
19648 2 1.86043 70.8511 70.1021
13960 1 6.40737 72.4533 71.4122
13998 1 3.68005 70.8558 71.4207
19599 2 4.58764 72.4496 70.0936
13959 1 9.13629 70.8558 71.4207
19575 2 10.0439 72.4496 70.0936
19612 2 7.31667 70.8511 70.1021
19649 2 1.85895 74.0478 70.0884
13989 1 3.67875 74.0506 71.4071
13962 1 9.13499 74.0506 71.4071
19597 2 7.31519 74.0478 70.0884
14007 1 1.83466 58.0817 74.2418
19603 2 0.95742 59.7085 75.2623
19622 2 2.78955 59.6791 72.777
19670 2 0.0634083 58.077 72.8043
13968 1 4.5629 59.6835 74.2144
19578 2 6.41366 59.7085 75.2623
19620 2 3.68676 58.108 75.2887
19621 2 5.51965 58.077 72.8043
13950 1 10.0191 59.6835 74.2144
13978 1 7.2909 58.0817 74.2418
19577 2 9.143 58.108 75.2887
19581 2 8.24579 59.6791 72.777
14008 1 1.83485 61.2842 74.1885
19602 2 0.95484 62.9053 75.2141
19607 2 2.78551 62.8797 72.7273
19654 2 0.0594139 61.2799 72.7513
13967 1 4.56302 62.8838 74.1644
19571 2 6.41108 62.9053 75.2141
19601 2 3.68426 61.3075 75.2373
19623 2 5.51565 61.2799 72.7513
13949 1 10.0193 62.8838 74.1644
13966 1 7.29109 61.2842 74.1885
19579 2 9.1405 61.3075 75.2373
19580 2 8.24175 62.8797 72.7273
13993 1 1.83492 64.4823 74.1422
19591 2 0.952337 66.0968 75.1738
19606 2 2.78167 66.0759 72.6857
19655 2 0.0554185 64.4783 72.7053
13957 1 4.56305 66.0799 74.1224
19570 2 6.40858 66.0968 75.1738
19604 2 3.68168 64.5016 75.1928
19605 2 5.51166 64.4783 72.7053
13948 1 10.0193 66.0799 74.1224
13969 1 7.29116 64.4823 74.1422
19569 2 9.13792 64.5016 75.1928
19574 2 8.23791 66.0759 72.6857
13994 1 1.83494 67.6766 74.1051
19590 2 0.950241 69.2837 75.1435
19595 2 2.77849 69.2685 72.6542
19646 2 0.0518537 67.6726 72.6685
13956 1 4.56307 69.2724 74.0906
19564 2 6.40648 69.2837 75.1435
19589 2 3.67934 67.6907 75.1573
19608 2 5.50809 67.6726 72.6685
13947 1 10.0193 69.2724 74.0906
13955 1 7.29118 67.6766 74.1051
19572 2 9.13558 67.6907 75.1573
19573 2 8.23473 69.2685 72.6542
13987 1 1.83495 70.8676 74.0791
19647 2 0.0491649 70.8638 72.6428
19592 2 3.67756 70.8759 75.1325
19593 2 5.5054 70.8638 72.6428
13958 1 7.29119 70.8676 74.0791
19562 2 9.1338 70.8759 75.1325
19587 2 0.948847 72.4673 75.1246
19594 2 2.77639 72.4585 72.6345
19645 2 0.0477173 74.0529 72.6295
13988 1 1.83496 74.0567 74.0657
13953 1 4.56308 72.4623 74.0708
19563 2 6.40509 72.4673 75.1246
19596 2 5.50396 74.0529 72.6295
19585 2 3.6766 74.0584 75.1198
13946 1 10.0193 72.4623 74.0708
19567 2 8.23263 72.4585 72.6345
19565 2 9.13284 74.0584 75.1198
13951 1 7.2912 74.0567 74.0657
7953 2 0.934428 77.164 -1.57758
7961 2 2.76471 77.1641 -4.07108
1728 1 1.87689 78.7485 -3.01609
1714 1 4.60556 77.1601 -3.01924
7923 2 6.39067 77.164 -1.57758
7951 2 3.66231 78.7531 -1.57441
1668 1 10.0618 77.1601 -3.01924
7926 2 8.22094 77.1641 -4.07108
1712 1 7.33312 78.7485 -3.01609
7924 2 9.11855 78.7531 -1.57441
7952 2 0.933807 80.3421 -1.56915
7957 2 2.76377 80.3461 -4.06287
7966 2 0.036231 78.7552 -4.06799
1713 1 4.60409 80.3369 -3.01086
7917 2 6.39005 80.3421 -1.56915
7962 2 5.49247 78.7552 -4.06799
1667 1 10.0603 80.3369 -3.01086
7925 2 8.22001 80.3461 -4.06287
1724 1 1.87472 81.925 -3.0036
7942 2 0.932637 83.5188 -1.55254
7956 2 2.76198 83.5267 -4.0467
7967 2 0.0348511 81.9366 -4.05575
1706 1 4.60125 83.5128 -2.99436
7916 2 6.38888 83.5188 -1.55254
7954 2 3.6614 81.9307 -1.56184
7955 2 5.49109 81.9366 -4.05575
1666 1 10.0575 83.5128 -2.99436
1715 1 7.33096 81.925 -3.0036
7915 2 9.11764 81.9307 -1.56184
7920 2 8.21821 83.5267 -4.0467
1725 1 1.87125 85.1002 -2.98322
7941 2 0.93104 86.6934 -1.5283
7946 2 2.75948 86.7052 -4.02312
7964 2 0.0326848 85.1163 -4.0358
1705 1 4.5972 86.6871 -2.97026
7903 2 6.38728 86.6934 -1.5283
7940 2 3.66 85.1064 -1.54134
7958 2 5.48892 85.1163 -4.0358
1659 1 10.0534 86.6871 -2.97026
1704 1 7.32749 85.1002 -2.98322
7918 2 9.11624 85.1064 -1.54134
7919 2 8.21571 86.7052 -4.02312
1720 1 1.86666 88.2736 -2.95558
7934 2 0.929155 89.8651 -1.49718
7945 2 2.75644 89.8808 -3.99285
7965 2 0.0298944 88.2934 -4.00876
1692 1 4.59213 89.8594 -2.93929
7902 2 6.38539 89.8651 -1.49718
7943 2 3.65824 88.2797 -1.51355
7944 2 5.48613 88.2934 -4.00876
1658 1 10.0484 89.8594 -2.93929
1707 1 7.3229 88.2736 -2.95558
7901 2 9.11448 88.2797 -1.51355
7906 2 8.21268 89.8808 -3.99285
1721 1 1.86117 91.4446 -2.92152
7933 2 0.927106 93.0335 -1.46014
7935 2 2.75303 93.0528 -3.95682
7963 2 0.0266503 91.4672 -3.97549
1691 1 4.58626 93.029 -2.90239
7885 2 6.38334 93.0335 -1.46014
7932 2 3.65626 91.4498 -1.47934
7947 2 5.48289 91.4672 -3.97549
1643 1 10.0425 93.029 -2.90239
1690 1 7.31741 91.4446 -2.92152
7904 2 9.1125 91.4498 -1.47934
7905 2 8.20926 93.0528 -3.95682
1698 1 0.939342 77.1609 2.22885
1710 1 2.75813 77.1615 -0.358632
1722 1 0.0297362 78.7487 -0.355448
7950 2 1.8461 78.7489 0.97134
1662 1 6.39558 77.1609 2.22885
7913 2 4.57447 77.1623 0.968099
1696 1 3.6672 78.7459 2.23212
1711 1 5.48597 78.7487 -0.355448
1665 1 8.21436 77.1615 -0.358632
7860 2 10.0307 77.1623 0.968099
1663 1 9.12343 78.7459 2.23212
7911 2 7.30234 78.7489 0.97134
1697 1 0.938641 80.3307 2.23755
1702 1 2.75741 80.3358 -0.350168
1654 1 6.39488 80.3307 2.23755
7912 2 4.57382 80.3352 0.976712
1664 1 8.21365 80.3358 -0.350168
7859 2 10.0301 80.3352 0.976712
1684 1 0.93731 83.4995 2.25467
1701 1 2.75605 83.5089 -0.333501
1723 1 0.0286866 81.9225 -0.342833
7938 2 1.84515 81.9212 0.984173
1653 1 6.39355 83.4995 2.25467
1699 1 3.66617 81.9153 2.24508
1700 1 5.48493 81.9225 -0.342833
7899 2 4.57258 83.5069 0.993662
1652 1 9.1224 81.9153 2.24508
1657 1 8.21229 83.5089 -0.333501
7858 2 10.0288 83.5069 0.993662
7914 2 7.30138 81.9212 0.984173
1683 1 0.935468 86.6667 2.27968
1688 1 2.75416 86.6803 -0.309148
1718 1 0.0270447 85.0949 -0.322244
7939 2 1.84366 85.092 1.0051
1639 1 6.39171 86.6667 2.27968
1682 1 3.66456 85.0833 2.26623
1703 1 5.48328 85.0949 -0.322244
7898 2 4.57088 86.6767 1.01841
1655 1 9.1208 85.0833 2.26623
1656 1 8.2104 86.6803 -0.309148
7851 2 10.0271 86.6767 1.01841
7897 2 7.2999 85.092 1.0051
1676 1 0.93325 89.8319 2.3118
1687 1 2.75188 89.8494 -0.277856
1719 1 0.0249401 88.2652 -0.294314
7930 2 1.84178 88.2607 1.03347
1638 1 6.38949 89.8319 2.3118
1685 1 3.66252 88.2496 2.29491
1686 1 5.48118 88.2652 -0.294314
7884 2 4.56885 89.8441 1.05017
1637 1 9.11876 88.2496 2.29491
1642 1 8.20811 89.8494 -0.277856
7850 2 10.0251 89.8441 1.05017
7900 2 7.29802 88.2607 1.03347
1675 1 0.930774 92.9946 2.35003
1677 1 2.74932 93.0156 -0.240576
1717 1 0.0225053 91.4328 -0.259899
7931 2 1.83963 91.4268 1.06838
1621 1 6.38701 92.9946 2.35003
1674 1 3.66016 91.4135 2.33022
1689 1 5.47874 91.4328 -0.259899
7883 2 4.5666 93.0088 1.08796
1640 1 9.1164 91.4135 2.33022
1641 1 8.20556 93.0156 -0.240576
7835 2 10.0228 93.0088 1.08796
7882 2 7.29586 91.4268 1.06838
7909 2 2.75875 77.1615 3.52714
1695 1 1.85093 78.7437 4.80436
7936 2 0.0303543 78.7456 3.53046
1650 1 4.57935 77.1608 4.80099
7910 2 5.48659 78.7456 3.53046
1596 1 10.0356 77.1608 4.80099
7857 2 8.21499 77.1615 3.52714
1648 1 7.30717 78.7437 4.80436
7895 2 2.75802 80.3296 3.53596
1649 1 4.57856 80.3265 4.80995
1595 1 10.0348 80.3265 4.80995
7856 2 8.21426 80.3296 3.53596
1680 1 1.84977 81.909 4.81771
7894 2 2.75662 83.4967 3.5533
7937 2 0.0292758 81.9133 3.54359
1635 1 4.57706 83.4912 4.82758
7893 2 5.48551 81.9133 3.54359
1594 1 10.0333 83.4912 4.82758
1651 1 7.30601 81.909 4.81771
7849 2 8.21286 83.4967 3.5533
1681 1 1.84798 85.073 4.83948
7880 2 2.75471 86.6622 3.57862
7928 2 0.0276035 85.0797 3.56501
1634 1 4.57501 86.6545 4.85332
7896 2 5.48384 85.0797 3.56501
1587 1 10.0312 86.6545 4.85332
1633 1 7.30421 85.073 4.83948
7848 2 8.21095 86.6622 3.57862
7929 2 0.0254818 88.2442 3.59402
7879 2 2.75242 89.8256 3.6111
1672 1 1.8457 88.2354 4.86898
7878 2 5.48172 88.2442 3.59402
1620 1 4.57255 89.8159 4.88635
7834 2 8.20865 89.8256 3.6111
1636 1 7.30194 88.2354 4.86898
1586 1 10.0288 89.8159 4.88635
7927 2 0.0230487 91.4065 3.62971
7869 2 2.74987 92.9867 3.64971
1673 1 1.8431 91.3958 4.90528
7881 2 5.47929 91.4065 3.62971
1619 1 4.56983 92.9752 4.92562
7833 2 8.20611 92.9867 3.64971
1618 1 7.29934 91.3958 4.90528
1572 1 10.0261 92.9752 4.92562
1646 1 2.76268 77.1613 7.36783
7891 2 0.94248 77.1613 6.09012
1678 1 0.0341736 78.7422 7.37146
7888 2 1.85414 78.7414 8.65793
7842 2 4.58272 77.1613 8.65417
7854 2 6.39872 77.1613 6.09012
1647 1 5.49041 78.7422 7.37146
7889 2 3.67025 78.7434 6.09363
1593 1 8.21892 77.1613 7.36783
7800 2 10.039 77.1613 8.65417
7840 2 7.31038 78.7414 8.65793
7855 2 9.12649 78.7434 6.09363
1631 1 2.76169 80.3231 7.3774
7890 2 0.941584 80.3252 6.0994
1679 1 0.0327823 81.9037 7.38559
7872 2 1.85257 81.901 8.67241
7841 2 4.58158 80.3213 8.66403
7846 2 6.39782 80.3252 6.0994
1629 1 5.48902 81.9037 7.38559
1592 1 8.21793 80.3231 7.3774
7799 2 10.0378 80.3213 8.66403
7843 2 7.3088 81.901 8.67241
1630 1 2.75994 83.484 7.39596
7876 2 0.939969 83.4882 6.11748
7827 2 4.57961 83.4804 8.68301
7845 2 6.39621 83.4882 6.11748
7892 2 3.66898 81.9069 6.10738
1585 1 8.21618 83.484 7.39596
7798 2 10.0359 83.4804 8.68301
7844 2 9.12521 81.9069 6.10738
1616 1 2.75761 86.6436 7.4229
1670 1 0.03072 85.064 7.40844
7873 2 1.85027 85.0595 8.69572
7875 2 0.937794 86.6498 6.14375
1632 1 5.48696 85.064 7.40844
7826 2 4.57704 86.6383 8.71044
7831 2 6.39403 86.6498 6.14375
7874 2 3.66706 85.0692 6.12964
1584 1 8.21385 86.6436 7.4229
7792 2 10.0333 86.6383 8.71044
7825 2 7.30651 85.0595 8.69572
7847 2 9.1233 85.0692 6.12964
1615 1 2.75488 89.8015 7.45729
1671 1 0.0281701 88.2228 7.43923
7864 2 1.84747 88.2166 8.72704
7868 2 0.93522 89.8095 6.17733
1614 1 5.48441 88.2228 7.43923
7815 2 4.57406 89.7945 8.74537
7830 2 6.39146 89.8095 6.17733
7877 2 3.66467 88.2299 6.15969
1571 1 8.21112 89.8015 7.45729
7791 2 10.0303 89.7945 8.74537
7828 2 7.30371 88.2166 8.72704
7829 2 9.12091 88.2299 6.15969
1605 1 2.75186 92.9576 7.49799
1669 1 0.0252825 91.3798 7.47694
7865 2 1.84435 91.3719 8.76527
7867 2 0.93237 92.9672 6.21711
1617 1 5.48152 91.3798 7.47694
7814 2 4.57081 92.9489 8.78657
7816 2 6.38861 92.9672 6.21711
7866 2 3.66194 91.3886 6.19652
1570 1 8.2081 92.9576 7.49799
7784 2 10.027 92.9489 8.78657
7813 2 7.30058 91.3719 8.76527
7832 2 9.11818 91.3886 6.19652
1627 1 0.946818 77.1613 9.93284
7838 2 2.76729 77.1611 11.2182
7870 2 0.0385545 78.7393 11.2222
1624 1 1.8591 78.7383 12.501
1590 1 6.40306 77.1613 9.93284
1578 1 4.58794 77.1611 12.4968
1625 1 3.67441 78.7404 9.93676
7839 2 5.49479 78.7393 11.2222
7797 2 8.22353 77.1611 11.2182
1548 1 10.0442 77.1611 12.4968
1591 1 9.13065 78.7404 9.93676
1576 1 7.31534 78.7383 12.501
1626 1 0.945521 80.3194 9.94308
7823 2 2.76578 80.3173 11.2287
7871 2 0.0365124 81.8952 11.2376
1608 1 1.85676 81.8924 12.517
1582 1 6.40176 80.3194 9.94308
1577 1 4.58619 80.3155 12.5078
1628 1 3.67264 81.8982 9.95175
7821 2 5.49275 81.8952 11.2376
7796 2 8.22201 80.3173 11.2287
1547 1 10.0424 80.3155 12.5078
1580 1 9.12888 81.8982 9.95175
1579 1 7.313 81.8924 12.517
1612 1 0.943339 83.4767 9.9627
7822 2 2.76328 83.4727 11.2488
7862 2 0.0336459 85.05 11.2621
1609 1 1.85354 85.0456 12.5425
1581 1 6.39958 83.4767 9.9627
1564 1 4.58335 83.4691 12.5286
7824 2 5.48988 85.05 11.2621
7790 2 8.21952 83.4727 11.2488
1546 1 10.0396 83.4691 12.5286
1562 1 7.30978 85.0456 12.5425
1611 1 0.940535 86.6328 9.991
7811 2 2.76012 86.627 11.2776
7863 2 0.0302621 88.2036 11.295
1600 1 1.84982 88.1974 12.5765
1568 1 6.39677 86.6328 9.991
1610 1 3.67012 85.0549 9.97582
1563 1 4.57984 86.6217 12.5585
7809 2 5.4865 88.2036 11.295
1583 1 9.12636 85.0549 9.97582
7789 2 8.21636 86.627 11.2776
1543 1 10.0361 86.6217 12.5585
1565 1 7.30606 88.1974 12.5765
1604 1 0.937332 89.7873 10.027
7810 2 2.75657 89.7798 11.3141
1567 1 6.39357 89.7873 10.027
1613 1 3.66709 88.2102 10.0081
1566 1 9.12333 88.2102 10.0081
7783 2 8.21281 89.7798 11.3141
1603 1 0.933863 92.9401 10.0693
7804 2 2.75277 92.9309 11.3571
7861 2 0.0265754 91.3556 11.3349
1557 1 6.3901 92.9401 10.0693
1602 1 3.66375 91.3639 10.0474
7812 2 5.48281 91.3556 11.3349
1569 1 9.11998 91.3639 10.0474
7782 2 8.20901 92.9309 11.3571
1574 1 2.77375 77.1604 15.0599
7819 2 0.952636 77.1606 13.7817
1606 1 0.0446241 78.7357 15.0645
7794 2 6.40887 77.1606 13.7817
1575 1 5.50086 78.7357 15.0645
7817 2 3.67991 78.7368 13.7861
1545 1 8.22999 77.1604 15.0599
7795 2 9.13615 78.7368 13.7861
1560 1 2.77131 80.3109 15.0717
7818 2 0.950578 80.3129 13.793
1607 1 0.0414225 81.8859 15.0815
7787 2 6.40682 80.3129 13.793
1558 1 5.49766 81.8859 15.0815
7820 2 3.67718 81.8888 13.8024
1544 1 8.22755 80.3109 15.0717
7785 2 9.13342 81.8888 13.8024
1559 1 2.76752 83.4608 15.0939
7807 2 0.9473 83.4646 13.8143
1598 1 0.0372003 85.0354 15.1087
7786 2 6.40354 83.4646 13.8143
1561 1 5.49344 85.0354 15.1087
7805 2 3.67348 85.04 13.8284
1541 1 8.22376 83.4608 15.0939
7788 2 9.12972 85.04 13.8284
1552 1 2.76301 86.6097 15.1257
7806 2 0.943302 86.6152 13.8448
1599 1 0.0325307 88.1837 15.1448
7780 2 6.39954 86.6152 13.8448
1550 1 5.48877 88.1837 15.1448
7808 2 3.66928 88.19 13.8631
7778 2 9.12552 88.19 13.8631
1540 1 8.21925 86.6097 15.1257
1601 1 1.84584 91.3478 12.6178
1597 1 0.0277182 91.3307 15.1884
1551 1 2.75825 89.7574 15.1657
7803 2 0.938963 89.7645 13.8833
7801 2 3.66485 91.3386 13.9051
1553 1 5.48396 91.3307 15.1884
1556 1 4.57597 89.7728 12.5963
7779 2 6.3952 89.7645 13.8833
7781 2 9.12109 91.3386 13.9051
1554 1 7.30208 91.3478 12.6178
1542 1 10.0322 89.7728 12.5963
1538 1 8.21449 89.7574 15.1657
2006 1 0.0228333 94.4763 15.2376
7802 2 0.934469 92.9124 13.9283
1549 1 2.7534 92.9036 15.2124
2007 1 1.84169 94.4967 12.6647
1957 1 5.47907 94.4763 15.2376
7777 2 6.39071 92.9124 13.9283
1555 1 4.5719 92.9224 12.6406
8244 2 3.6603 94.4858 13.9526
1539 1 10.0281 92.9224 12.6406
1537 1 8.20964 92.9036 15.2124
1972 1 7.29793 94.4967 12.6647
8201 2 9.11654 94.4858 13.9526
8142 2 2.78282 77.1578 18.9073
1918 1 0.960727 77.1591 17.6223
8154 2 0.0530033 78.7293 18.9123
8160 2 1.86591 78.7336 16.3494
8146 2 4.59522 77.1596 16.3447
1895 1 6.41697 77.1591 17.6223
8143 2 5.50924 78.7293 18.9123
1916 1 3.6874 78.7322 17.6272
8097 2 8.23906 77.1578 18.9073
8100 2 10.0515 77.1596 16.3447
8144 2 7.32215 78.7336 16.3494
1896 1 9.14364 78.7322 17.6272
1917 1 0.957262 80.3051 17.635
8134 2 2.77876 80.3009 18.9201
8155 2 0.047792 81.8725 18.9308
8156 2 1.86218 81.8815 16.3668
8145 2 4.59236 80.3076 16.3568
1891 1 6.4135 80.3051 17.635
1919 1 3.68293 81.8781 17.6455
8132 2 5.50403 81.8725 18.9308
8096 2 8.235 80.3009 18.9201
8099 2 10.0486 80.3076 16.3568
1889 1 9.13917 81.8781 17.6455
8147 2 7.31841 81.8815 16.3668
1911 1 0.952078 83.4509 17.6586
8133 2 2.77274 83.444 18.9442
8157 2 1.8573 85.0288 16.3945
8150 2 0.0412787 85.0154 18.9603
8138 2 4.58795 83.4552 16.3795
1890 1 6.40832 83.4509 17.6586
1909 1 3.6773 85.0236 17.6744
8135 2 5.49752 85.0154 18.9603
8089 2 8.22898 83.444 18.9442
8098 2 10.0442 83.4552 16.3795
1892 1 9.13354 85.0236 17.6744
8136 2 7.31354 85.0288 16.3945
1910 1 0.946214 86.596 17.6926
8120 2 2.766 86.5867 18.9789
8152 2 1.85199 88.1751 16.4314
8151 2 0.0345105 88.1577 18.9997
8137 2 4.58279 86.6021 16.4119
1879 1 6.40245 86.596 17.6926
1912 1 3.67136 88.1682 17.713
8118 2 5.49075 88.1577 18.9997
8088 2 8.22224 86.5867 18.9789
8091 2 10.039 86.6021 16.4119
8139 2 7.30823 88.1751 16.4314
1877 1 9.1276 88.1682 17.713
1904 1 0.940293 89.74 17.7353
8119 2 2.75931 89.7285 19.0226
8153 2 1.84661 91.3201 16.4758
8149 2 0.0279231 91.2989 19.0471
1878 1 6.39653 89.74 17.7353
8124 2 4.57742 89.7477 16.4528
1902 1 3.66549 91.3115 17.7594
8121 2 5.48416 91.2989 19.0471
8074 2 8.21555 89.7285 19.0226
8090 2 10.0337 89.7477 16.4528
1880 1 9.12173 91.3115 17.7594
8122 2 7.30284 91.3201 16.4758
1903 1 0.934468 92.8827 17.7849
8109 2 2.75283 92.8691 19.073
8567 2 1.84123 94.464 16.5257
8566 2 0.0215327 94.4392 19.0999
1861 1 6.39071 92.8827 17.7849
8123 2 4.57204 92.8922 16.5002
8549 2 5.47777 94.4392 19.0999
2304 1 3.6597 94.4537 17.8114
8073 2 8.20907 92.8691 19.073
8075 2 10.0283 92.8922 16.5002
8556 2 7.29747 94.464 16.5257
2278 1 9.11593 94.4537 17.8114
8130 2 0.971958 77.1549 21.47
1915 1 1.87515 78.7272 20.1896
1887 1 4.60538 77.1569 20.1845
8094 2 6.4282 77.1549 21.47
8128 2 3.69761 78.7233 21.4751
1836 1 10.0616 77.1569 20.1845
1885 1 7.33139 78.7272 20.1896
8095 2 9.15385 78.7233 21.4751
8129 2 0.966131 80.2919 21.4832
1907 1 1.86884 81.8681 20.2088
1886 1 4.60038 80.2976 20.1977
8086 2 6.42237 80.2919 21.4832
8131 2 3.69026 81.8608 21.4944
1835 1 10.0566 80.2976 20.1977
1888 1 7.32507 81.8681 20.2088
8084 2 9.1465 81.8608 21.4944
8116 2 0.957815 83.4299 21.5086
1908 1 1.86124 85.0092 20.2397
1875 1 4.59321 83.4387 20.2229
8085 2 6.41405 83.4299 21.5086
8114 2 3.6815 84.999 21.5258
1834 1 10.0495 83.4387 20.2229
1873 1 7.31748 85.0092 20.2397
8087 2 9.13773 84.999 21.5258
8115 2 0.94899 86.568 21.5457
1900 1 1.85366 88.1498 20.2812
1874 1 4.58552 86.5796 20.2593
8071 2 6.40523 86.568 21.5457
8117 2 3.67286 88.1368 21.5682
1827 1 10.0418 86.5796 20.2593
1876 1 7.3099 88.1498 20.2812
8069 2 9.12909 88.1368 21.5682
8108 2 0.940638 89.7054 21.5929
1901 1 1.84648 91.2891 20.3312
1860 1 4.57814 89.7196 20.3053
8070 2 6.39688 89.7054 21.5929
8106 2 3.6648 91.2737 21.6193
1826 1 10.0344 89.7196 20.3053
1858 1 7.30272 91.2891 20.3312
8072 2 9.12103 91.2737 21.6193
8107 2 0.93283 92.8419 21.647
2298 1 1.83958 94.4275 20.3865
1859 1 4.57112 92.8584 20.3584
8053 2 6.38907 92.8419 21.647
8548 2 3.6572 94.4101 21.6755
1811 1 10.0274 92.8584 20.3584
2277 1 7.29582 94.4275 20.3865
8501 2 9.11344 94.4101 21.6755
1867 1 0.988057 77.1474 25.3116
1883 1 2.79559 77.1532 22.7471
1905 1 0.0643691 78.72 22.7522
8127 2 1.88749 78.7147 24.0384
1830 1 6.4443 77.1474 25.3116
8082 2 4.61921 77.1503 24.0336
1865 1 3.71161 78.7098 25.3158
1884 1 5.52061 78.72 22.7522
1833 1 8.25183 77.1532 22.7471
8028 2 10.0754 77.1503 24.0336
1831 1 9.16785 78.7098 25.3158
8080 2 7.34372 78.7147 24.0384
1866 1 0.977383 80.2732 25.3233
1871 1 2.7883 80.2873 22.7604
1906 1 0.0553417 81.8551 22.7718
8112 2 1.87703 81.8456 24.0576
1822 1 6.43362 80.2732 25.3233
8081 2 4.61077 80.2798 24.0463
1868 1 3.69863 81.8377 25.3344
1869 1 5.51158 81.8551 22.7718
1832 1 8.24454 80.2873 22.7604
8027 2 10.067 80.2798 24.0463
1820 1 9.15487 81.8377 25.3344
8083 2 7.33327 81.8456 24.0576
1852 1 0.963382 83.4029 25.3496
1870 1 2.77831 83.4231 22.7865
1898 1 0.045059 84.9913 22.8046
8113 2 1.8652 84.9782 24.0908
1821 1 6.41962 83.4029 25.3496
8067 2 4.59922 83.4118 24.0724
1850 1 3.68465 84.9684 25.3689
1872 1 5.5013 84.9913 22.8046
1825 1 8.23455 83.4231 22.7865
8026 2 10.0555 83.4118 24.0724
1823 1 9.14089 84.9684 25.3689
8065 2 7.32144 84.9782 24.0908
1851 1 0.950118 86.5339 25.3922
1856 1 2.76822 86.5594 22.8258
1899 1 0.0353863 88.1273 22.8497
8104 2 1.8542 88.1108 24.1371
1807 1 6.40636 86.5339 25.3922
8066 2 4.58766 86.5446 24.1125
1853 1 3.67234 88.0991 25.4189
1854 1 5.49162 88.1273 22.8497
1824 1 8.22446 86.5594 22.8258
8019 2 10.0439 86.5446 24.1125
1805 1 9.12858 88.0991 25.4189
8068 2 7.31044 88.1108 24.1371
1844 1 0.938726 89.6637 25.4482
1855 1 2.75903 89.6948 22.8761
1897 1 0.0266115 91.262 22.9042
8105 2 1.84438 91.2426 24.1928
1806 1 6.39496 89.6637 25.4482
8052 2 4.57729 89.6768 24.1641
1842 1 3.66167 91.2281 25.4791
1857 1 5.48285 91.262 22.9042
8050 2 7.30062 91.2426 24.1928
1808 1 9.1179 91.2281 25.4791
8018 2 10.0335 89.6768 24.1641
1810 1 8.21526 89.6948 22.8761
8534 2 1.83538 94.3746 24.253
2297 1 0.018411 94.396 22.9634
1845 1 2.75057 92.829 22.9334
1843 1 0.928598 92.7924 25.5109
2266 1 5.47465 94.396 22.9634
2265 1 3.65198 94.3572 25.5427
8051 2 4.56791 92.8085 24.2227
1790 1 6.38484 92.7924 25.5109
8500 2 7.29161 94.3746 24.253
2213 1 9.10822 94.3572 25.5427
8004 2 10.0241 92.8085 24.2227
1809 1 8.20681 92.829 22.9334
8078 2 2.81248 77.1437 26.5995
1864 1 1.90486 78.6953 27.8821
8110 2 0.0790953 78.703 26.603
8059 2 1.00865 77.1354 29.17
1818 1 4.6398 77.1389 27.8805
8079 2 5.53533 78.703 26.603
8022 2 6.46489 77.1354 29.17
8057 2 3.72903 78.6881 29.1698
1770 1 10.096 77.1389 27.8805
8025 2 8.26872 77.1437 26.5995
1816 1 7.3611 78.6953 27.8821
8023 2 9.18527 78.6881 29.1698
8063 2 2.80024 80.2636 26.6097
1848 1 1.88618 81.8146 27.8968
8111 2 0.0641627 81.8255 26.6204
8058 2 0.990887 80.2428 29.1732
1817 1 4.6241 80.2541 27.8873
8061 2 5.5204 81.8255 26.6204
8014 2 6.44713 80.2428 29.1732
8060 2 3.70754 81.7996 29.1819
1769 1 10.0803 80.2541 27.8873
8024 2 8.25648 80.2636 26.6097
1819 1 7.34242 81.8146 27.8968
8012 2 9.16378 81.7996 29.1819
8062 2 2.78414 83.3882 26.6355
1849 1 1.86693 84.939 27.9329
8102 2 0.0481628 84.9514 26.6551
8044 2 0.968163 83.3578 29.1967
1803 1 4.60429 83.3765 27.9121
8064 2 5.5044 84.9514 26.6551
8013 2 6.4244 83.3578 29.1967
8042 2 3.68577 84.9165 29.218
1768 1 10.0605 83.3765 27.9121
8017 2 8.24038 83.3882 26.6355
1801 1 7.32316 84.939 27.9329
8015 2 9.142 84.9165 29.218
8048 2 2.76902 86.5146 26.679
1840 1 1.85129 88.0626 27.9898
8103 2 0.0342424 88.0775 26.7065
8043 2 0.948416 86.4751 29.2453
1802 1 4.58679 86.5011 27.9593
8046 2 5.49048 88.0775 26.7065
8000 2 6.40465 86.4751 29.2453
1761 1 10.043 86.5011 27.9593
8016 2 8.22526 86.5146 26.679
1804 1 7.30753 88.0626 27.9898
8047 2 2.75621 89.6403 26.7366
1841 1 1.83848 91.1839 28.0576
8101 2 0.0223367 91.2031 26.7683
1789 1 4.57277 89.6233 28.0231
8049 2 5.47858 91.2031 26.7683
1760 1 10.029 89.6233 28.0231
8003 2 8.21245 89.6403 26.7366
1787 1 7.29471 91.1839 28.0576
8037 2 2.74502 92.7664 26.8006
2247 1 1.82725 94.3078 28.1251
8533 2 0.0117936 94.3306 26.8326
1788 1 4.56077 92.7452 28.0918
8485 2 5.46803 94.3306 26.8326
1749 1 10.017 92.7452 28.0918
8002 2 8.20125 92.7664 26.8006
2212 1 7.28349 94.3078 28.1251
1814 1 2.83997 77.1296 30.4584
1846 1 0.101688 78.6772 30.4546
8056 2 1.92602 78.6732 31.742
8010 2 4.66496 77.128 31.7478
1815 1 5.55793 78.6772 30.4546
1767 1 8.29621 77.1296 30.4584
7980 2 10.1212 77.128 31.7478
8008 2 7.38226 78.6732 31.742
1799 1 2.81585 80.2289 30.4542
1847 1 0.0743164 81.7847 30.4601
8040 2 1.89406 81.7675 31.7405
8009 2 4.63903 80.2187 31.7362
1797 1 5.53055 81.7847 30.4601
1766 1 8.27209 80.2289 30.4542
7979 2 10.0953 80.2187 31.7362
8011 2 7.3503 81.7675 31.7405
1798 1 2.78737 83.3422 30.4744
1838 1 0.046907 84.9003 30.4982
8041 2 1.86415 84.8696 31.7781
7996 2 4.60589 83.3184 31.7533
1800 1 5.50315 84.9003 30.4982
1759 1 8.24361 83.3422 30.4744
7978 2 10.0621 83.3184 31.7533
7994 2 7.32039 84.8696 31.7781
1785 1 2.76416 86.4573 30.5293
1839 1 0.0273357 88.0129 30.5657
8032 2 1.84227 87.9724 31.85
7995 2 4.58026 86.4211 31.8109
1783 1 5.48357 88.0129 30.5657
8045 2 3.66828 88.0335 29.277
1758 1 8.2204 86.4573 30.5293
7975 2 10.0365 86.4211 31.8109
7997 2 7.29851 87.9724 31.85
7998 2 9.12452 88.0335 29.277
1784 1 2.74765 89.5677 30.604
8036 2 0.932747 89.592 29.3115
1837 1 0.0122622 91.124 30.6415
8033 2 1.82569 91.0822 31.9285
7988 2 4.56151 89.5258 31.8899
7999 2 6.38899 89.592 29.3115
1786 1 5.4685 91.124 30.6415
8034 2 3.654 91.1513 29.3467
1748 1 8.20389 89.5677 30.604
7974 2 10.0177 89.5258 31.8899
7986 2 7.28193 91.0822 31.9285
8001 2 9.11024 91.1513 29.3467
1776 1 2.73382 92.6828 30.6771
8035 2 0.919612 92.7122 29.3813
8463 2 1.81355 94.2056 31.9981
7987 2 4.54717 92.6421 31.9646
7989 2 6.37585 92.7122 29.3813
2197 1 5.45613 94.2446 30.7106
8484 2 3.6421 94.2752 29.4147
8428 2 7.26979 94.2056 31.9981
5318 1 10.9124 94.2446 30.7106
1747 1 8.19006 92.6828 30.6771
7971 2 10.0034 92.6421 31.9646
8429 2 9.09834 94.2752 29.4147
1795 1 1.04531 77.1248 33.0467
8006 2 2.87468 77.1258 34.3336
8038 2 0.128125 78.6664 34.3227
1792 1 1.96451 78.6659 35.6438
1764 1 6.50155 77.1248 33.0467
1793 1 3.76207 78.6652 33.0433
8007 2 5.58436 78.6664 34.3227
1752 1 4.70564 77.1256 35.641
7977 2 8.33092 77.1258 34.3336
1765 1 9.21831 78.6652 33.0433
1734 1 10.1619 77.1256 35.641
1750 1 7.42075 78.6659 35.6438
1794 1 1.01096 80.2007 33.0337
7992 2 2.83329 80.2028 34.3049
8039 2 0.0758626 81.7317 34.2897
1777 1 1.90808 81.7098 35.6261
1756 1 6.4672 80.2007 33.0337
1796 1 3.71577 81.7442 33.0256
7990 2 5.5321 81.7317 34.2897
1751 1 4.66903 80.2068 35.6595
7976 2 8.28953 80.2028 34.3049
1754 1 9.17201 81.7442 33.0256
1733 1 10.1253 80.2068 35.6595
1753 1 7.36432 81.7098 35.6261
1781 1 0.965175 83.2963 33.0431
7991 2 2.78366 83.2667 34.3013
8030 2 0.0338429 84.8034 34.3299
1778 1 1.8323 84.7446 35.6756
1755 1 6.42141 83.2963 33.0431
1779 1 3.67632 84.846 33.0706
7993 2 5.49008 84.8034 34.3299
1741 1 4.57201 83.2046 35.6351
7973 2 8.2399 83.2667 34.3013
1757 1 9.13256 84.846 33.0706
1732 1 10.0282 83.2046 35.6351
1739 1 7.28853 84.7446 35.6756
1780 1 0.936215 86.3926 33.1107
7984 2 2.74973 86.341 34.3774
8031 2 0.00955386 87.8839 34.4262
1771 1 1.8133 87.8077 35.7596
1745 1 6.39245 86.3926 33.1107
1782 1 3.65508 87.9373 33.1544
7982 2 5.46579 87.8839 34.4262
1740 1 4.55229 86.2628 35.7232
1742 1 7.26954 87.8077 35.7596
7972 2 8.20596 86.341 34.3774
1743 1 9.11132 87.9373 33.1544
1731 1 10.0085 86.2628 35.7232
1775 1 0.917715 89.4861 33.1947
7983 2 2.72855 89.4335 34.4715
1772 1 1.8011 90.922 35.8265
1735 1 7.25734 90.922 35.8265
1744 1 6.37395 89.4861 33.1947
1773 1 3.638 91.0399 33.2324
7985 2 5.44937 90.9902 34.5117
1737 1 4.53487 89.3587 35.7958
11293 2 10.9056 90.9902 34.5117
1730 1 9.99111 89.3587 35.7958
1746 1 9.09424 91.0399 33.2324
7970 2 8.18479 89.4335 34.4715
2175 1 1.79382 94.0653 35.8818
2196 1 3.626 94.1643 33.2975
7981 2 2.71556 92.5527 34.5477
1774 1 0.903188 92.5997 33.2663
1736 1 4.52491 92.4911 35.855
2146 1 7.25006 94.0653 35.8818
8413 2 5.43943 94.1203 34.5801
1738 1 6.35943 92.5997 33.2663
11726 2 10.8957 94.1203 34.5801
7969 2 8.1718 92.5527 34.5477
1729 1 9.98115 92.4911 35.855
2147 1 9.08224 94.1643 33.2975
8182 2 1.1125 77.1419 36.9182
13911 1 2.18405 75.6157 38.2493
8171 2 6.56874 77.1419 36.9182
14296 1 4.90706 77.2048 38.2547
8180 2 3.82665 78.6826 36.9
13881 1 7.64029 75.6157 38.2493
8172 2 9.28288 78.6826 36.9
17124 1 10.3633 77.2048 38.2547
8181 2 1.04723 80.2262 36.8706
14297 1 2.18274 78.8524 38.245
8168 2 6.50347 80.2262 36.8706
14298 1 4.91491 80.5482 38.3091
8183 2 3.68703 81.7153 36.8664
14262 1 7.63898 78.8524 38.245
8166 2 9.14327 81.7153 36.8664
17122 1 10.3711 80.5482 38.3091
8178 2 0.916689 83.1964 36.8189
14293 1 2.16949 82.3995 38.3833
8167 2 6.37293 83.1964 36.8189
14291 1 5.15989 84.1232 38.4326
8176 2 3.6547 84.6871 36.8794
14261 1 7.62573 82.3995 38.3833
8169 2 9.11094 84.6871 36.8794
17123 1 10.6161 84.1232 38.4326
8177 2 0.911494 86.2153 36.9388
14292 1 2.63188 85.939 38.3292
8179 2 3.62638 87.7511 37.002
8164 2 6.36773 86.2153 36.9388
14294 1 5.38618 87.544 38.3616
14256 1 8.08812 85.939 38.3292
8162 2 9.08262 87.7511 37.002
17120 1 10.8424 87.544 38.3616
8175 2 0.892327 89.3073 37.0493
14282 1 2.67278 89.1583 38.3881
8173 2 3.61507 90.8716 37.0898
8163 2 6.34857 89.3073 37.0493
14280 1 5.40896 90.7578 38.4093
14255 1 8.12902 89.1583 38.3881
8165 2 9.07131 90.8716 37.0898
17121 1 10.8652 90.7578 38.4093
8592 2 3.60983 94.0201 37.1556
8174 2 0.883691 92.4435 37.1246
14281 1 2.68641 92.3553 38.4323
8161 2 6.33993 92.4435 37.1246
14283 1 5.41764 93.9485 38.4557
8578 2 9.06607 94.0201 37.1556
14242 1 8.14265 92.3553 38.4323
17119 1 10.8739 93.9485 38.4557
19919 2 1.50212 77.2659 39.4888
13909 1 0.623882 75.6552 40.7862
19509 2 2.49222 75.6464 42.0214
14295 1 3.36499 77.3239 40.7696
19901 2 5.23132 77.3049 42.0058
13861 1 6.08012 75.6552 40.7862
19523 2 4.21877 75.6249 39.5078
19908 2 6.95836 77.2659 39.4888
14258 1 8.82123 77.3239 40.7696
19473 2 7.94845 75.6464 42.0214
19475 2 9.675 75.6249 39.5078
22738 2 10.6876 77.3049 42.0058
19920 2 1.5692 80.5988 39.4178
19902 2 2.52359 78.9764 41.9806
14289 1 0.677273 79.0141 40.7252
14287 1 3.47839 80.7053 40.635
19906 2 4.25324 78.904 39.4595
19903 2 5.28245 80.6566 41.9481
14259 1 6.13351 79.0141 40.7252
19904 2 7.02544 80.5988 39.4178
14260 1 8.93463 80.7053 40.635
19857 2 7.97983 78.9764 41.9806
19860 2 9.70948 78.904 39.4595
22734 2 10.7387 80.6566 41.9481
19916 2 1.73977 84.2682 39.4376
14288 1 0.826735 82.4277 40.5619
19894 2 2.59403 82.3311 41.9441
14290 1 3.55055 84.0139 40.6999
19905 2 4.35329 82.3901 39.3833
14253 1 6.28297 82.4277 40.5619
19892 2 5.35854 83.9945 41.9755
19907 2 7.19601 84.2682 39.4376
22735 2 10.8148 83.9945 41.9755
14251 1 9.00679 84.0139 40.6999
19856 2 8.05027 82.3311 41.9441
19859 2 9.80953 82.3901 39.3833
19917 2 1.77802 87.5222 39.5707
14278 1 0.800989 85.6772 40.8575
19893 2 2.65711 85.6723 42.0474
14276 1 3.54701 87.3293 40.8974
19898 2 4.50131 85.9008 39.5129
14252 1 6.25723 85.6772 40.8575
19895 2 5.40201 87.3345 42.1058
19896 2 7.23426 87.5222 39.5707
22730 2 10.8583 87.3345 42.1058
14254 1 9.00325 87.3293 40.8974
19849 2 8.11335 85.6723 42.0474
19858 2 9.95755 85.9008 39.5129
19912 2 1.78332 90.7236 39.6537
14277 1 0.839592 88.9762 40.9271
19880 2 2.68299 88.9641 42.1559
14279 1 3.58018 90.6016 40.958
19897 2 4.51079 89.1252 39.6135
14239 1 6.29583 88.9762 40.9271
19878 2 5.41607 90.583 42.1985
19899 2 7.23956 90.7236 39.6537
22731 2 10.8723 90.583 42.1985
14237 1 9.03642 90.6016 40.958
19848 2 8.13923 88.9641 42.1559
19851 2 9.96703 89.1252 39.6135
19913 2 1.7846 93.9097 39.7191
14270 1 0.859606 92.2207 40.9862
19879 2 2.69109 92.1945 42.236
14268 1 3.59325 93.8312 41.012
14238 1 6.31584 92.2207 40.9862
19881 2 5.42125 93.8014 42.2696
19884 2 4.51229 92.3169 39.688
19882 2 7.24084 93.9097 39.7191
22729 2 10.8775 93.8014 42.2696
14240 1 9.04949 93.8312 41.012
19834 2 8.14733 92.1945 42.236
19850 2 9.96853 92.3169 39.688
14285 1 1.6401 77.3385 43.2526
19507 2 0.74387 75.6528 44.5326
19900 2 3.47759 77.3137 44.5247
13845 1 2.59619 75.6528 45.7814
13859 1 4.35338 75.6604 43.2755
19454 2 6.20011 75.6528 44.5326
14257 1 7.09633 77.3385 43.2526
14244 1 5.32739 77.3102 45.776
17104 1 10.7836 77.3102 45.776
19853 2 8.93383 77.3137 44.5247
13811 1 9.80962 75.6604 43.2755
13809 1 8.05243 75.6528 45.7814
14286 1 1.6778 80.6634 43.1998
19890 2 0.760547 78.9715 44.5142
19888 2 3.50678 80.6223 44.5093
14245 1 2.60584 78.9596 45.7728
14249 1 4.3904 79.0085 43.2168
19854 2 6.21679 78.9715 44.5142
14247 1 7.13404 80.6634 43.1998
14246 1 5.34507 80.5979 45.7802
17092 1 10.8013 80.5979 45.7802
14196 1 9.84664 79.0085 43.2168
19855 2 8.96302 80.6223 44.5093
14193 1 8.06207 78.9596 45.7728
14274 1 1.72623 83.9185 43.2593
19889 2 0.800893 82.2688 44.5193
19891 2 3.55109 83.912 44.5453
14231 1 2.632 82.2311 45.7959
14248 1 4.42886 82.2864 43.2236
19846 2 6.25713 82.2688 44.5193
14250 1 7.18247 83.9185 43.2593
14229 1 5.37605 83.861 45.824
17093 1 10.8323 83.861 45.824
14195 1 9.8851 82.2864 43.2236
19844 2 9.00733 83.912 44.5453
14192 1 8.08824 82.2311 45.7959
14275 1 1.75769 87.2031 43.3875
19876 2 0.839771 85.5546 44.588
19874 2 3.58328 87.198 44.6393
14230 1 2.66411 85.4903 45.8618
14235 1 4.47888 85.5567 43.3106
19845 2 6.29601 85.5546 44.588
14233 1 7.21393 87.2031 43.3875
14232 1 5.40445 87.1221 45.9095
17084 1 10.8607 87.1221 45.9095
14194 1 9.93511 85.5567 43.3106
19847 2 9.03952 87.198 44.6393
14185 1 8.12035 85.4903 45.8618
14266 1 1.76657 90.4798 43.4858
19875 2 0.86474 88.8364 44.6895
19877 2 3.59904 90.4658 44.7344
14234 1 4.4881 88.8452 43.4454
19831 2 6.32098 88.8364 44.6895
14236 1 7.22281 90.4798 43.4858
14187 1 9.94434 88.8452 43.4454
19829 2 9.05527 90.4658 44.7344
14267 1 1.7778 93.727 43.5532
19868 2 0.875063 92.0872 44.7747
19866 2 3.60612 93.7033 44.8111
14220 1 4.50097 92.1068 43.5212
19830 2 6.3313 92.0872 44.7747
14218 1 7.23404 93.727 43.5532
19832 2 9.06236 93.7033 44.8111
14186 1 9.95721 92.1068 43.5212
19886 2 1.70378 77.2989 47.0605
13843 1 0.815065 75.6456 48.3195
14243 1 3.54454 77.2867 48.3222
13792 1 6.2713 75.6456 48.3195
19452 2 4.42863 75.6493 47.0612
19852 2 7.16002 77.2989 47.0605
14189 1 9.00078 77.2867 48.3222
19413 2 9.88487 75.6493 47.0612
14227 1 0.820225 78.9242 48.3295
19887 2 1.72147 80.5838 47.0693
14225 1 3.55474 80.5576 48.3418
14190 1 6.27646 78.9242 48.3295
19842 2 4.43887 78.9439 47.0623
19840 2 7.17771 80.5838 47.0693
14191 1 9.01098 80.5576 48.3418
19794 2 9.8951 78.9439 47.0623
14226 1 0.83554 82.1873 48.3603
19872 2 1.74734 83.8516 47.1094
14228 1 3.5741 83.8143 48.3856
14182 1 6.29178 82.1873 48.3603
19841 2 4.46213 82.2192 47.0846
19843 2 7.20358 83.8516 47.1094
14180 1 9.03033 83.8143 48.3856
19793 2 9.91837 82.2192 47.0846
14212 1 0.857035 85.4402 48.4175
19873 2 1.77056 87.1147 47.1836
14210 1 3.59493 87.0662 48.4552
14181 1 6.31327 85.4402 48.4175
19827 2 4.48788 85.4832 47.1435
19825 2 7.2268 87.1147 47.1836
14183 1 9.05117 87.0662 48.4552
19792 2 9.94412 85.4832 47.1435
14211 1 0.874793 88.6926 48.4969
19864 2 1.78601 90.3744 47.2704
14213 1 3.6086 90.3192 48.5401
14216 1 2.6842 88.756 45.9612
14167 1 6.33103 88.6926 48.4969
14214 1 5.41693 90.388 46.0089
19826 2 4.50757 88.7458 47.2272
19828 2 7.24225 90.3744 47.2704
17085 1 10.8732 90.388 46.0089
14165 1 9.06483 90.3192 48.5401
19785 2 9.96381 88.7458 47.2272
14184 1 8.14044 88.756 45.9612
14204 1 0.884348 91.9446 48.5818
14215 1 2.6924 92.016 46.0504
19865 2 1.79384 93.6194 47.349
14202 1 3.61532 93.5676 48.6206
14166 1 6.34059 91.9446 48.5818
14217 1 5.42385 93.6395 46.0872
19813 2 4.51869 91.999 47.3111
19811 2 7.25008 93.6194 47.349
17083 1 10.8801 93.6395 46.0872
14168 1 9.07156 93.5676 48.6206
14170 1 8.14864 92.016 46.0504
19784 2 9.97492 91.999 47.3111
14223 1 1.75299 77.2719 50.878
19440 2 2.64402 75.6447 49.6066
19438 2 0.851361 75.6416 52.1622
19836 2 3.58092 77.2698 52.1659
19837 2 5.37435 77.2823 49.6094
13790 1 4.47994 75.6415 50.8737
14188 1 7.20923 77.2719 50.878
19402 2 6.3076 75.6416 52.1622
22705 2 10.8306 77.2823 49.6094
13760 1 9.93617 75.6415 50.8737
19411 2 8.10026 75.6447 49.6066
19787 2 9.03715 77.2698 52.1659
14224 1 1.75977 80.528 50.9016
19838 2 2.65065 78.9174 49.6163
19819 2 0.855666 78.8969 52.1743
19817 2 3.58795 80.5224 52.1876
14178 1 4.48372 78.9009 50.8873
19839 2 5.38515 80.5494 49.6282
14176 1 7.21601 80.528 50.9016
19788 2 6.3119 78.8969 52.1743
22690 2 10.8414 80.5494 49.6282
14136 1 9.93996 78.9009 50.8873
19791 2 8.10689 78.9174 49.6163
19789 2 9.04419 80.5224 52.1876
14208 1 1.77244 83.7769 50.9449
19823 2 2.66485 82.1784 49.6459
19818 2 0.865008 82.1463 52.2057
19820 2 3.599 83.7689 52.2285
14177 1 4.49364 82.1532 50.9208
19821 2 5.40157 83.8052 49.6699
14179 1 7.22868 83.7769 50.9449
19780 2 6.32125 82.1463 52.2057
22691 2 10.8578 83.8052 49.6699
14135 1 9.94988 82.1532 50.9208
19790 2 8.12109 82.1784 49.6459
19778 2 9.05524 83.7689 52.2285
14209 1 1.7873 87.0218 51.0065
19822 2 2.68207 85.431 49.6997
19803 2 3.61123 87.012 52.2866
19805 2 0.877037 85.3907 52.2557
14163 1 4.50808 85.3995 50.9736
19824 2 5.41831 87.0565 49.7341
14161 1 7.24354 87.0218 51.0065
19779 2 6.33327 85.3907 52.2557
22682 2 10.8746 87.0565 49.7341
14134 1 9.96431 85.3995 50.9736
19783 2 8.13831 85.431 49.6997
19781 2 9.06747 87.012 52.2866
19806 2 3.62185 90.254 52.3557
19804 2 0.888753 88.6332 52.3202
14200 1 1.79928 90.2663 51.0807
19809 2 2.69729 88.6816 49.7718
19769 2 6.34499 88.6332 52.3202
14162 1 4.52199 88.644 51.0425
19807 2 5.43129 90.3062 49.8109
14164 1 7.25552 90.2663 51.0807
22683 2 10.8875 90.3062 49.8109
19767 2 9.07808 90.254 52.3557
14128 1 9.97823 88.644 51.0425
19782 2 8.15352 88.6816 49.7718
19797 2 3.62942 93.4936 52.4282
19799 2 0.897912 91.8743 52.392
14201 1 1.80651 93.5092 51.1574
19808 2 2.70777 91.9292 49.8498
19768 2 6.35415 91.8743 52.392
14151 1 4.53155 91.8882 51.1194
19810 2 5.43935 93.55 49.8874
14149 1 7.26274 93.5092 51.1574
19770 2 9.08566 93.4936 52.4282
22681 2 10.8956 93.55 49.8874
14127 1 9.98779 91.8882 51.1194
19772 2 8.164 91.9292 49.8498
19815 2 1.78246 77.2613 54.7263
13780 1 2.68287 75.6396 53.4344
14173 1 5.41192 77.2625 53.4386
19400 2 4.50962 75.6401 54.7226
19786 2 7.2387 77.2613 54.7263
17042 1 10.8682 77.2625 53.4386
13758 1 8.13911 75.6396 53.4344
19393 2 9.96586 75.6401 54.7226
14174 1 2.68578 78.8848 53.4479
19816 2 1.78736 80.5022 54.7478
14175 1 5.41694 80.5064 53.4619
19776 2 4.51257 78.8821 54.7348
19774 2 7.2436 80.5022 54.7478
17026 1 10.8732 80.5064 53.4619
14133 1 8.14202 78.8848 53.4479
19758 2 9.96881 78.8821 54.7348
14159 1 2.69288 82.1271 53.4805
19801 2 1.79527 83.7403 54.7866
14157 1 5.42585 83.7471 53.5032
19775 2 4.51915 82.1216 54.7652
19777 2 7.25151 83.7403 54.7866
17027 1 10.8821 83.7471 53.5032
14132 1 8.14912 82.1271 53.4805
19757 2 9.97539 82.1216 54.7652
14158 1 2.7031 85.3666 53.5297
19802 2 1.8045 86.9768 54.84
19763 2 7.26074 86.9768 54.84
14160 1 5.43669 86.9858 53.5595
19765 2 4.52796 85.3587 54.8117
17018 1 10.8929 86.9858 53.5595
19756 2 9.9842 85.3587 54.8117
14126 1 8.15934 85.3666 53.5297
19795 2 1.81316 90.2126 54.9035
14147 1 2.71379 88.6049 53.592
19766 2 7.2694 90.2126 54.9035
19764 2 4.53712 88.5947 54.8708
14145 1 5.44656 90.224 53.6266
17019 1 10.9028 90.224 53.6266
19755 2 9.99336 88.5947 54.8708
14125 1 8.17003 88.6049 53.592
19796 2 1.81999 93.4474 54.9719
14146 1 2.72234 91.8429 53.6623
19761 2 4.54496 91.8302 54.9374
14148 1 5.45359 93.4614 53.6983
19759 2 7.27623 93.4474 54.9719
19754 2 10.0012 91.8302 54.9374
14119 1 8.17858 91.8429 53.6623
17017 1 10.9098 93.4614 53.6983
14471 1 1.80756 77.2522 58.5648
13778 1 0.882119 75.639 55.9977
19719 2 2.70812 75.6397 57.2851
14172 1 3.61097 77.2563 56.0014
20104 2 5.43693 77.2556 57.2885
14075 1 4.53511 75.6392 58.5616
13753 1 6.33836 75.639 55.9977
14460 1 7.2638 77.2522 58.5648
14129 1 9.0672 77.2563 56.0014
14027 1 9.99135 75.6392 58.5616
19689 2 8.16436 75.6397 57.2851
22932 2 10.8932 77.2556 57.2885
14155 1 0.884406 78.8735 56.01
14472 1 1.81069 80.4784 58.5845
20105 2 2.71027 78.8714 57.2964
14153 1 3.61487 80.4904 56.0231
14130 1 6.34064 78.8735 56.01
14458 1 4.53693 78.8653 58.5725
20106 2 5.44055 80.4871 57.3086
14456 1 7.26693 80.4784 58.5845
14412 1 9.99317 78.8653 58.5725
14131 1 9.07111 80.4904 56.0231
20070 2 8.16651 78.8714 57.2964
22930 2 10.8968 80.4871 57.3086
14154 1 0.889822 82.1071 56.0403
14468 1 1.81602 83.7048 58.6199
20101 2 2.7152 82.1025 57.3248
14156 1 3.62159 83.7236 56.0614
14457 1 4.54125 82.0916 58.6004
14123 1 6.34606 82.1071 56.0403
20099 2 5.44655 83.7177 57.3447
14459 1 7.27226 83.7048 58.6199
14411 1 9.99749 82.0916 58.6004
14121 1 9.07783 83.7236 56.0614
20069 2 8.17144 82.1025 57.3248
22931 2 10.9028 83.7177 57.3447
14143 1 0.897523 85.34 56.086
14469 1 1.82264 86.9317 58.6682
20100 2 2.72198 85.3329 57.368
14141 1 3.62987 86.9563 56.1135
14450 1 4.54736 85.3182 58.6426
14122 1 6.35376 85.34 56.086
20102 2 5.45379 86.948 57.3942
14448 1 7.27888 86.9317 58.6682
14410 1 10.0036 85.3182 58.6426
14124 1 9.08611 86.9563 56.1135
20064 2 8.17822 85.3329 57.368
22928 2 10.91 86.948 57.3942
14142 1 0.905916 88.5726 56.1434
14464 1 1.82936 90.1592 58.7261
20109 2 0.00471436 90.1783 57.4533
20090 2 2.72934 88.5631 57.4228
14144 1 3.63793 90.189 56.1754
14449 1 4.55418 88.5454 58.6962
14116 1 6.36215 88.5726 56.1434
20088 2 5.46095 90.1783 57.4533
14403 1 10.0104 88.5454 58.6962
14451 1 7.2856 90.1592 58.7261
14114 1 9.09417 90.189 56.1754
20063 2 8.18557 88.5631 57.4228
14139 1 0.91329 91.8053 56.2087
14465 1 1.83514 93.3871 58.79
20107 2 0.0107873 93.4084 57.5181
20089 2 2.73605 91.7934 57.4852
14137 1 3.64438 93.4215 56.2428
14436 1 4.56053 91.7732 58.7575
14115 1 6.36953 91.8053 56.2087
20091 2 5.46703 93.4084 57.5181
14402 1 10.0168 91.7732 58.7575
14434 1 7.29138 93.3871 58.79
14117 1 9.10061 93.4215 56.2428
20050 2 8.19229 91.7934 57.4852
14061 1 2.73007 75.64 61.1253
19717 2 0.904239 75.6401 59.8481
20103 2 3.63287 77.2519 59.8511
20093 2 1.82713 77.2493 62.4132
14470 1 0.00240337 77.2496 61.1281
14453 1 5.45864 77.2496 61.1281
19669 2 6.36048 75.6401 59.8481
19667 2 4.55487 75.6411 62.4107
20066 2 9.08911 77.2519 59.8511
14025 1 8.18631 75.64 61.1253
20065 2 7.28337 77.2493 62.4132
19619 2 10.0111 75.6411 62.4107
14454 1 2.73154 78.8592 61.135
14466 1 0.00496092 80.469 61.1459
20097 2 0.905878 78.8637 59.8582
20095 2 3.63569 80.4755 59.8694
20094 2 1.82941 80.4661 62.43
14455 1 5.4612 80.469 61.1459
20067 2 6.36212 78.8637 59.8582
20057 2 4.55615 78.8576 62.4197
14409 1 8.18778 78.8592 61.135
20068 2 9.09193 80.4755 59.8694
20004 2 10.0124 78.8576 62.4197
20055 2 7.28565 80.4661 62.43
14446 1 2.73508 82.079 61.1605
14467 1 0.00934639 83.6892 61.1785
20096 2 0.909759 82.0874 59.8844
20082 2 1.83335 83.6837 62.461
20098 2 3.64046 83.6994 59.9029
14444 1 5.46558 83.6892 61.1785
20061 2 6.366 82.0874 59.8844
20056 2 4.55933 82.0748 62.4438
14408 1 8.19132 82.079 61.1605
20059 2 9.0967 83.6994 59.9029
20003 2 10.0156 82.0748 62.4438
20058 2 7.28959 83.6837 62.461
14445 1 2.74013 85.2997 61.1997
14462 1 0.014845 86.9105 61.2237
20086 2 0.915209 85.3115 59.9245
20083 2 1.83833 86.9024 62.5043
14447 1 5.47108 86.9105 61.2237
20060 2 6.37145 85.3115 59.9245
20084 2 3.64636 86.9238 59.949
20043 2 4.56388 85.2929 62.4813
14401 1 8.19637 85.2997 61.1997
20062 2 9.1026 86.9238 59.949
20002 2 10.0201 85.2929 62.4813
20041 2 7.29457 86.9024 62.5043
14432 1 2.74586 88.5216 61.25
14463 1 0.020588 90.133 61.2783
20085 2 0.921306 88.5362 59.9758
20074 2 1.8436 90.1224 62.5569
14430 1 5.47683 90.133 61.2783
20047 2 6.37754 88.5362 59.9758
20087 2 3.65242 90.1488 60.0046
20042 2 4.56909 88.5122 62.5296
14400 1 8.2021 88.5216 61.25
20045 2 9.10866 90.1488 60.0046
19995 2 10.0253 88.5122 62.5296
20044 2 7.29984 90.1224 62.5569
14431 1 2.75141 91.7446 61.3082
14461 1 0.0257852 93.3565 61.3394
20078 2 0.927133 91.7616 60.0349
14433 1 5.48202 93.3565 61.3394
20046 2 6.38337 91.7616 60.0349
20076 2 3.65785 93.3744 60.0663
20028 2 4.57426 91.7328 62.5859
14386 1 8.20765 91.7446 61.3082
20048 2 9.11408 93.3744 60.0663
19994 2 10.0305 91.7328 62.5859
20092 2 0.0200323 77.2475 64.9745
14059 1 0.923643 75.6414 63.6887
19653 2 2.74786 75.6425 64.9724
14452 1 3.65211 77.2478 63.6911
20052 2 5.47627 77.2475 64.9745
14006 1 6.37988 75.6414 63.6887
14405 1 9.10835 77.2478 63.6911
19617 2 8.2041 75.6425 64.9724
14442 1 0.924823 78.8543 63.6973
20053 2 2.74889 78.8526 64.9804
20080 2 0.0219197 80.4579 64.9898
14406 1 6.38106 78.8543 63.6973
14440 1 3.65422 80.4611 63.7073
20054 2 5.47816 80.4579 64.9898
14407 1 9.11046 80.4611 63.7073
20001 2 8.20513 78.8526 64.9804
14441 1 0.927787 82.0681 63.7208
20039 2 2.75156 82.0635 65.0027
20081 2 0.0252803 83.6694 65.0189
14398 1 6.38403 82.0681 63.7208
14443 1 3.65792 83.6755 63.7377
20037 2 5.48152 83.6694 65.0189
14396 1 9.11416 83.6755 63.7377
20000 2 8.2078 82.0635 65.0027
14428 1 0.93207 85.2832 63.7575
20038 2 2.75548 85.2757 65.0379
20072 2 0.0296199 86.8825 65.0597
14397 1 6.38831 85.2832 63.7575
14426 1 3.66263 86.8914 63.7801
20040 2 5.48586 86.8825 65.0597
14399 1 9.11887 86.8914 63.7801
19993 2 8.21172 85.2757 65.0379
14427 1 0.937029 88.4999 63.8051
20024 2 2.76009 88.4897 65.0838
20073 2 0.0343482 90.0973 65.11
14383 1 6.39327 88.4999 63.8051
14429 1 3.66767 90.1089 63.8321
20022 2 5.49059 90.0973 65.11
14381 1 9.12391 90.1089 63.8321
19992 2 8.21633 88.4897 65.0838
14420 1 0.94199 91.7183 63.8608
20023 2 2.7648 91.7054 65.1378
20071 2 0.0389097 93.314 65.167
20075 2 1.84852 93.3435 62.6161
14382 1 6.39823 91.7183 63.8608
14418 1 3.67241 93.328 63.8908
20025 2 5.49515 93.314 65.167
20026 2 7.30476 93.3435 62.6161
14384 1 9.12865 93.328 63.8908
19978 2 8.22104 91.7054 65.1378
14438 1 1.84432 77.2467 66.2548
19651 2 0.939519 75.6444 67.5323
14437 1 0.0352661 77.2462 68.8229
13992 1 2.76319 75.6458 68.8211
20051 2 3.66784 77.2461 67.5341
14004 1 4.57218 75.6432 66.2528
19600 2 6.39576 75.6444 67.5323
14389 1 5.4915 77.2462 68.8229
14404 1 7.30056 77.2467 66.2548
19997 2 9.12408 77.2461 67.5341
13965 1 10.0284 75.6432 66.2528
13963 1 8.21943 75.6458 68.8211
14439 1 1.84608 80.4541 66.2698
20035 2 0.940325 78.8479 67.5394
14390 1 2.76395 78.8468 68.8282
14422 1 0.0367516 80.4476 68.8369
14394 1 4.57312 78.8503 66.2605
19998 2 6.39656 78.8479 67.5394
20033 2 3.66943 80.45 67.5482
14391 1 5.49299 80.4476 68.8369
14346 1 10.0294 78.8503 66.2605
14392 1 7.30231 80.4541 66.2698
19999 2 9.12566 80.45 67.5482
14343 1 8.22019 78.8468 68.8282
14424 1 1.84924 83.6627 66.2983
20034 2 0.942631 82.0524 67.5603
14375 1 2.76611 82.0488 68.8489
14423 1 0.039515 83.6504 68.864
14393 1 4.57563 82.0582 66.2824
19990 2 6.39887 82.0524 67.5603
20036 2 3.67237 83.6553 67.5755
14373 1 5.49575 83.6504 68.864
14345 1 10.0319 82.0582 66.2824
14395 1 7.30548 83.6627 66.2983
19988 2 9.12861 83.6553 67.5755
14342 1 8.22235 82.0488 68.8489
14425 1 1.85337 86.8732 66.3386
20020 2 0.946123 85.2586 67.5936
14374 1 2.76938 85.2525 68.8819
14414 1 0.0431839 86.8553 68.9026
14379 1 4.57934 85.2677 66.3171
19989 2 6.40236 85.2586 67.5936
20018 2 3.67629 86.8625 67.6143
14376 1 5.49942 86.8553 68.9026
14344 1 10.0356 85.2677 66.3171
14377 1 7.30961 86.8732 66.3386
19991 2 9.13253 86.8625 67.6143
14335 1 8.22562 85.2525 68.8819
14416 1 1.8579 90.0858 66.3883
20019 2 0.950343 88.467 67.6374
14361 1 2.77333 88.4587 68.9255
14415 1 0.0472979 90.0627 68.9505
14378 1 4.58374 88.4792 66.3624
19975 2 6.40658 88.467 67.6374
20021 2 3.68069 90.0722 67.6626
14359 1 5.50354 90.0627 68.9505
14337 1 10.04 88.4792 66.3624
14380 1 7.31414 90.0858 66.3883
19973 2 9.13692 90.0722 67.6626
14334 1 8.22957 88.4587 68.9255
14417 1 1.86231 93.3004 66.4451
20012 2 0.954785 91.6779 67.6895
14360 1 2.7775 91.6675 68.9773
14413 1 0.0514023 93.273 69.0056
14365 1 4.58827 91.6928 66.416
19974 2 6.41102 91.6779 67.6895
20010 2 3.68506 93.2844 67.7179
14362 1 5.50764 93.273 69.0056
14336 1 10.0445 91.6928 66.416
14363 1 7.31855 93.3004 66.4451
19976 2 9.1413 93.2844 67.7179
14324 1 8.23373 91.6675 68.9773
20031 2 1.85895 77.2441 70.0884
13990 1 0.950466 75.6477 71.4054
14388 1 3.67875 77.2449 71.4071
13954 1 6.4067 75.6477 71.4054
19598 2 4.58688 75.646 70.0867
14339 1 9.13499 77.2449 71.4071
19996 2 7.31519 77.2441 70.0884
19568 2 10.0431 75.646 70.0867
14371 1 0.951127 78.8422 71.4122
20032 2 1.86043 80.4411 70.1021
14340 1 6.40737 78.8422 71.4122
14369 1 3.68005 80.4398 71.4207
19986 2 4.58764 78.8425 70.0936
14341 1 9.13629 80.4398 71.4207
19944 2 10.0439 78.8425 70.0936
19984 2 7.31667 80.4411 70.1021
14370 1 0.95302 82.0378 71.4323
20016 2 1.86318 83.6397 70.1285
14332 1 6.40926 82.0378 71.4323
14372 1 3.68247 83.6364 71.4469
19985 2 4.58979 82.0401 70.1138
14330 1 9.13871 83.6364 71.4469
19943 2 10.046 82.0401 70.1138
19987 2 7.31942 83.6397 70.1285
14357 1 0.955885 85.2357 71.4643
20017 2 1.86684 86.8408 70.1662
14331 1 6.41212 85.2357 71.4643
14355 1 3.68569 86.8356 71.4843
19971 2 4.59305 85.2399 70.1461
14333 1 9.14193 86.8356 71.4843
19942 2 10.0493 85.2399 70.1461
19969 2 7.32308 86.8408 70.1662
14356 1 0.959354 88.4364 71.5066
20008 2 1.87096 90.0451 70.2132
14321 1 6.41559 88.4364 71.5066
14358 1 3.68931 90.0381 71.531
19970 2 4.59699 88.4425 70.1887
14319 1 9.14554 90.0381 71.531
19936 2 10.0532 88.4425 70.1887
19972 2 7.3272 90.0451 70.2132
14351 1 0.96302 91.6406 71.5571
20009 2 1.87509 93.2528 70.2673
14320 1 6.41926 91.6406 71.5571
14349 1 3.69293 93.2441 71.5846
19959 2 4.60117 91.6485 70.2395
14322 1 9.14917 93.2441 71.5846
19935 2 10.0574 91.6485 70.2395
19957 2 7.33133 93.2528 70.2673
14367 1 1.83496 77.2451 74.0657
20030 2 0.0477174 77.2414 72.6295
19586 2 0.948359 75.6492 75.1182
19588 2 2.77565 75.6471 72.6278
19980 2 3.6766 77.2401 75.1198
19981 2 5.50396 77.2414 72.6295
13952 1 4.56308 75.6509 74.0641
19561 2 6.4046 75.6492 75.1182
14338 1 7.2912 77.2451 74.0657
19937 2 9.13284 77.2401 75.1198
13945 1 10.0193 75.6509 74.0641
19566 2 8.23189 75.6471 72.6278
14368 1 1.83495 80.4343 74.0791
19963 2 0.948847 78.8312 75.1246
19982 2 2.77639 78.8358 72.6345
20014 2 0.0491649 80.4306 72.6428
14328 1 4.56308 78.8395 74.0708
19938 2 6.40509 78.8312 75.1246
19961 2 3.67756 80.4228 75.1325
19983 2 5.5054 80.4306 72.6428
14310 1 10.0193 78.8395 74.0708
14326 1 7.29119 80.4343 74.0791
19939 2 9.1338 80.4228 75.1325
19941 2 8.23263 78.8358 72.6345
14353 1 1.83494 83.6257 74.1051
19962 2 0.950241 82.0151 75.1435
19967 2 2.77849 82.026 72.6542
20015 2 0.0518538 83.622 72.6685
14327 1 4.56307 82.0296 74.0906
19931 2 6.40648 82.0151 75.1435
19964 2 3.67934 83.6082 75.1573
19965 2 5.50809 83.622 72.6685
14309 1 10.0193 82.0296 74.0906
14329 1 7.29118 83.6257 74.1051
19929 2 9.13558 83.6082 75.1573
19940 2 8.23473 82.026 72.6542
14354 1 1.83492 86.8202 74.1422
19951 2 0.952337 85.2023 75.1738
19966 2 2.78167 85.2189 72.6857
20006 2 0.0554185 86.8167 72.7053
14317 1 4.56305 85.2225 74.1224
19930 2 6.40858 85.2023 75.1738
19949 2 3.68168 86.7976 75.1928
19968 2 5.51166 86.8167 72.7053
14308 1 10.0193 85.2225 74.1224
14315 1 7.29116 86.8202 74.1422
19932 2 9.13792 86.7976 75.1928
19934 2 8.23791 85.2189 72.6857
14347 1 1.83485 90.0188 74.1885
19950 2 0.95484 88.3942 75.2141
19955 2 2.78551 88.4155 72.7273
20007 2 0.059414 90.0154 72.7513
14316 1 4.56302 88.419 74.1644
19924 2 6.41108 88.3942 75.2141
19952 2 3.68426 89.9921 75.2373
19953 2 5.51565 90.0154 72.7513
14307 1 10.0193 88.419 74.1644
14318 1 7.29109 90.0188 74.1885
19922 2 9.1405 89.9921 75.2373
19933 2 8.24175 88.4155 72.7273
14348 1 1.83466 93.2217 74.2418
19947 2 0.95742 91.5914 75.2623
19954 2 2.78955 91.6164 72.777
20005 2 0.0634084 93.2187 72.8043
19956 2 5.51965 93.2187 72.8043
14313 1 4.5629 91.6197 74.2144
19923 2 6.41366 91.5914 75.2623
19945 2 3.68676 93.1921 75.2887
19927 2 8.24579 91.6164 72.777
19925 2 9.143 93.1921 75.2887
14311 1 7.2909 93.2217 74.2418
14306 1 10.0191 91.6197 74.2144
2111 1 1.85497 94.6126 -2.88205
8361 2 0.924981 96.1982 -1.41827
8369 2 2.74937 96.2207 -3.91609
8376 2 0.0231032 94.6373 -3.93697
2098 1 4.5798 96.1953 -2.86065
8331 2 6.38122 96.1982 -1.41827
8367 2 3.65417 94.6163 -1.43974
8368 2 5.47934 94.6373 -3.93697
2052 1 10.036 96.1953 -2.86065
2100 1 7.31121 94.6126 -2.88205
8330 2 9.11041 94.6163 -1.43974
8334 2 8.20561 96.2207 -3.91609
2112 1 1.84829 97.7772 -2.83834
8360 2 0.92283 99.359 -1.37279
8365 2 2.74559 99.3843 -3.87182
8374 2 0.0193731 97.8031 -3.89433
2097 1 4.57294 99.3581 -2.81528
8325 2 6.37907 99.359 -1.37279
8359 2 3.65203 97.7791 -1.39591
8370 2 5.47561 97.8031 -3.89433
2051 1 10.0292 99.3581 -2.81528
2096 1 7.30453 97.7772 -2.83834
8332 2 9.10826 97.7791 -1.39591
8333 2 8.20183 99.3843 -3.87182
2108 1 1.84131 100.938 -2.79162
8350 2 0.92067 102.516 -1.32491
8364 2 2.74175 102.544 -3.82517
8375 2 0.0155508 100.964 -3.84872
2090 1 4.56589 102.517 -2.76751
8324 2 6.37691 102.516 -1.32491
8362 2 3.64987 100.938 -1.34907
8363 2 5.47179 100.964 -3.84872
2050 1 10.0221 102.517 -2.76751
2099 1 7.29755 100.938 -2.79162
8323 2 9.10611 100.938 -1.34907
8328 2 8.19799 102.544 -3.82517
2109 1 1.83423 104.095 -2.7431
8349 2 0.9185 105.669 -1.27587
8354 2 2.73792 105.698 -3.77732
8372 2 0.0117076 104.121 -3.80133
2089 1 4.55884 105.672 -2.71856
8311 2 6.37474 105.669 -1.27587
8348 2 3.64771 104.093 -1.30046
8366 2 5.46795 104.121 -3.80133
2043 1 10.0151 105.672 -2.71856
2088 1 7.29047 104.095 -2.7431
8326 2 9.10394 104.093 -1.30046
8327 2 8.19416 105.698 -3.77732
2104 1 1.82727 107.249 -2.694
8342 2 0.916314 108.819 -1.22678
8353 2 2.73416 108.849 -3.72935
8373 2 0.00790461 107.274 -3.75329
2076 1 4.552 108.824 -2.66957
8310 2 6.37255 108.819 -1.22678
8351 2 3.64553 107.245 -1.25126
8352 2 5.46414 107.274 -3.75329
2042 1 10.0082 108.824 -2.66957
2091 1 7.2835 107.249 -2.694
8309 2 9.10177 107.245 -1.25126
8314 2 8.19039 108.849 -3.72935
2105 1 1.82058 110.399 -2.64538
8341 2 0.914115 111.966 -1.17867
8343 2 2.73052 111.996 -3.68226
8371 2 0.00419839 110.423 -3.70564
2075 1 4.54552 111.972 -2.62156
8293 2 6.37035 111.966 -1.17867
8340 2 3.64333 110.393 -1.20255
8355 2 5.46044 110.423 -3.70564
2027 1 10.0018 111.972 -2.62156
2074 1 7.27682 110.399 -2.64538
8312 2 9.09957 110.393 -1.20255
8313 2 8.18676 111.996 -3.68226
2082 1 0.928123 96.1547 2.39322
2094 1 2.74659 96.1787 -0.198414
2110 1 0.0198517 94.5976 -0.220031
8357 2 1.8373 94.5899 1.10876
2046 1 6.38436 96.1547 2.39322
2092 1 3.65759 94.575 2.37108
2093 1 5.47609 94.5976 -0.220031
8321 2 4.56422 96.1703 1.13064
2045 1 9.11382 94.575 2.37108
2049 1 8.20283 96.1787 -0.198414
8268 2 10.0205 96.1703 1.13064
8329 2 7.29354 94.5899 1.10876
2081 1 0.925351 99.312 2.4401
2086 1 2.74375 99.3385 -0.15258
2106 1 0.0170598 97.7591 -0.175878
8358 2 1.83487 97.7499 1.15342
2038 1 6.38159 99.312 2.4401
2080 1 3.65487 97.7337 2.41628
2095 1 5.4733 97.7591 -0.175878
8320 2 4.56175 99.3287 1.17697
2047 1 9.11111 97.7337 2.41628
2048 1 8.19999 99.3385 -0.15258
8267 2 10.018 99.3287 1.17697
8319 2 7.29111 97.7499 1.15342
2068 1 0.922486 102.466 2.48937
2085 1 2.74084 102.495 -0.104329
2107 1 0.0141821 100.917 -0.128678
8346 2 1.83237 100.907 1.2011
2037 1 6.37872 102.466 2.48937
2083 1 3.65205 100.89 2.46451
2084 1 5.47042 100.917 -0.128678
8307 2 4.55921 102.484 1.22567
2036 1 9.10829 100.89 2.46451
2041 1 8.19708 102.495 -0.104329
8266 2 10.0155 102.484 1.22567
8322 2 7.28861 100.907 1.2011
2067 1 0.919557 105.618 2.53975
2072 1 2.7379 105.648 -0.0548944
2102 1 0.0112533 104.072 -0.0796847
8347 2 1.82981 104.06 1.25052
2023 1 6.37579 105.618 2.53975
2066 1 3.64915 104.043 2.51449
2087 1 5.46749 104.072 -0.0796847
8306 2 4.55663 105.636 1.27551
2039 1 9.10539 104.043 2.51449
2040 1 8.19414 105.648 -0.0548944
8259 2 10.0129 105.636 1.27551
8305 2 7.28605 104.06 1.25052
2071 1 2.73495 108.799 -0.00543356
2103 1 0.00830233 107.224 -0.0300994
8338 2 1.82721 107.211 1.30048
2069 1 3.6462 107.193 2.56498
2070 1 5.46454 107.224 -0.0300994
8292 2 4.55401 108.786 1.32531
2021 1 9.10243 107.193 2.56498
2026 1 8.19119 108.799 -0.00543356
8258 2 10.0103 108.786 1.32531
8308 2 7.28344 107.211 1.30048
2061 1 2.73202 111.946 0.0430219
2101 1 0.00536085 110.373 0.0189785
8339 2 1.82458 110.36 1.34987
2073 1 5.4616 110.373 0.0189785
8291 2 4.55139 111.933 1.37405
2025 1 8.18826 111.946 0.0430219
8243 2 10.0076 111.933 1.37405
8290 2 7.28082 110.36 1.34987
2078 1 1.84027 94.554 4.94722
8317 2 2.74715 96.1452 3.69327
8356 2 0.0204082 94.5663 3.67095
2034 1 4.56691 96.1323 4.96991
8316 2 5.47665 94.5663 3.67095
1980 1 10.0231 96.1323 4.96991
2044 1 7.29651 94.554 4.94722
8265 2 8.20339 96.1452 3.69327
2079 1 1.83728 97.71 4.99352
8303 2 2.74431 99.3012 3.74048
8344 2 0.0176241 97.7236 3.7165
2033 1 4.56365 99.2873 5.01859
8318 2 5.47386 97.7236 3.7165
1979 1 10.0199 99.2873 5.01859
2032 1 7.29352 97.71 4.99352
8264 2 8.20055 99.3012 3.74048
2064 1 1.83389 100.864 5.04354
8302 2 2.74137 102.455 3.79002
8345 2 0.0147312 100.878 3.76504
2019 1 4.5604 102.44 5.06887
8301 2 5.47097 100.878 3.76504
1978 1 10.0166 102.44 5.06887
2035 1 7.29012 100.864 5.04354
8257 2 8.19761 102.455 3.79002
2065 1 1.83067 104.015 5.09445
8288 2 2.73836 105.606 3.84061
8336 2 0.0117537 104.03 3.81526
2018 1 4.55715 105.59 5.12011
8304 2 5.46799 104.03 3.81526
1971 1 10.0134 105.59 5.12011
2017 1 7.2869 104.015 5.09445
8256 2 8.1946 105.606 3.84061
2060 1 0.916592 108.768 2.59006
2056 1 1.82739 107.165 5.1457
8287 2 2.73531 108.755 3.89106
8337 2 0.00872049 107.18 3.86592
2022 1 6.37283 108.768 2.59006
2004 1 4.55386 108.739 5.17109
8286 2 5.46496 107.18 3.86592
1970 1 10.0101 108.739 5.17109
2020 1 7.28362 107.165 5.1457
8242 2 8.19155 108.755 3.89106
2059 1 0.913635 111.916 2.63925
2057 1 1.8241 110.313 5.19615
8277 2 2.73228 111.902 3.94033
8335 2 0.005672 110.329 3.9159
2005 1 6.36987 111.916 2.63925
2058 1 3.64323 110.342 2.61485
2003 1 4.5506 111.887 5.22077
8289 2 5.46191 110.329 3.9159
2024 1 9.09947 110.342 2.61485
1956 1 10.0068 111.887 5.22077
2002 1 7.28034 110.313 5.19615
8241 2 8.18852 111.902 3.94033
2030 1 2.74861 96.1116 7.54368
2077 1 0.0221457 94.5348 7.52029
8295 2 1.84098 94.5254 8.80911
8299 2 0.929314 96.1227 6.26182
2029 1 5.47838 94.5348 7.52029
8250 2 4.56734 96.1015 8.83268
8262 2 6.38555 96.1227 6.26182
8315 2 3.65898 94.5452 6.23893
1977 1 8.20485 96.1116 7.54368
8208 2 10.0236 96.1015 8.83268
8260 2 7.29722 94.5254 8.80911
8261 2 9.11522 94.5452 6.23893
2015 1 2.74516 99.2638 7.5931
2062 1 0.0188191 97.6879 7.56801
8296 2 1.83743 97.6771 8.85713
8298 2 0.926117 99.2761 6.31017
2031 1 5.47506 97.6879 7.56801
8249 2 4.56373 99.2524 8.88221
8254 2 6.38236 99.2761 6.31017
8297 2 3.65583 97.6996 6.28564
1976 1 8.2014 99.2638 7.5931
8207 2 10.02 99.2524 8.88221
8248 2 7.29367 97.6771 8.85713
8263 2 9.11207 97.6996 6.28564
2014 1 2.74162 102.414 7.64454
2063 1 0.0153019 100.839 7.61869
8280 2 1.83375 100.827 8.9078
8284 2 0.922742 102.428 6.36068
2013 1 5.47154 100.839 7.61869
8235 2 4.55998 102.402 8.93369
8253 2 6.37898 102.428 6.36068
8300 2 3.65255 100.852 6.33526
1969 1 8.19785 102.414 7.64454
8206 2 10.0162 102.402 8.93369
8251 2 7.28999 100.827 8.9078
8252 2 9.10879 100.852 6.33526
2000 1 2.73798 105.564 7.69655
2054 1 0.0116814 103.989 7.67054
8281 2 1.82996 103.976 8.95969
8283 2 0.919331 105.577 6.41197
2016 1 5.46792 103.989 7.67054
8234 2 4.55618 105.55 8.98567
8239 2 6.37557 105.577 6.41197
8282 2 3.64916 104.003 6.3863
1968 1 8.19422 105.564 7.69655
8200 2 10.0124 105.55 8.98567
8233 2 7.2862 103.976 8.95969
8255 2 9.1054 104.003 6.3863
1999 1 2.73434 108.712 7.74804
2055 1 0.00803688 107.138 7.72243
8272 2 1.82617 107.124 9.01148
8276 2 0.915912 108.726 6.4629
1998 1 5.46428 107.138 7.72243
8223 2 4.55242 108.698 9.037
8238 2 6.37215 108.726 6.4629
8285 2 3.64574 107.152 6.43755
1955 1 8.19058 108.712 7.74804
8199 2 10.0087 108.698 9.037
8236 2 7.28241 107.124 9.01148
8237 2 9.10198 107.152 6.43755
1989 1 2.73079 111.859 7.79801
2053 1 0.00443279 110.285 7.77327
8273 2 1.82246 110.272 9.06211
8275 2 0.912547 111.873 6.51245
2001 1 5.46067 110.285 7.77327
8222 2 4.54878 111.845 9.08672
8224 2 6.36879 111.873 6.51245
8274 2 3.64234 110.3 6.4879
1954 1 8.18703 111.859 7.79801
8192 2 10.005 111.845 9.08672
8221 2 7.2787 110.272 9.06211
8240 2 9.09858 110.3 6.4879
2011 1 0.930191 96.0912 10.1166
8246 2 2.74881 96.0806 11.4048
8294 2 0.0226898 94.5059 11.3804
8278 2 0.0186516 97.6549 11.43
1974 1 6.38643 96.0912 10.1166
2028 1 3.66017 94.5159 10.0924
8245 2 5.47893 94.5059 11.3804
8247 2 5.47489 97.6549 11.43
1973 1 9.11641 94.5159 10.0924
8205 2 8.20505 96.0806 11.4048
2010 1 0.926345 99.2409 10.1672
8231 2 2.74471 99.2289 11.4557
8279 2 0.0145024 100.803 11.4818
1966 1 6.38258 99.2409 10.1672
2009 1 3.65641 97.6662 10.1416
8229 2 5.47074 100.803 11.4818
1975 1 9.11265 97.6662 10.1416
8204 2 8.20095 99.2289 11.4557
1996 1 0.922381 102.389 10.2196
8230 2 2.74052 102.376 11.5082
8270 2 0.0103052 103.95 11.5345
1965 1 6.37862 102.389 10.2196
2012 1 3.6525 100.815 10.1933
8232 2 5.46654 103.95 11.5345
1964 1 9.10873 100.815 10.1933
8198 2 8.19676 102.376 11.5082
1995 1 0.918363 105.537 10.2724
8219 2 2.73634 105.524 11.5608
8271 2 0.00616504 107.097 11.5868
1952 1 6.3746 105.537 10.2724
1994 1 3.64849 103.963 10.246
8217 2 5.4624 107.097 11.5868
1967 1 9.10473 103.963 10.246
8197 2 8.19258 105.524 11.5608
1988 1 0.914404 108.684 10.3242
8218 2 2.73227 108.671 11.6124
8269 2 0.00219283 110.244 11.6375
1951 1 6.37064 108.684 10.3242
1997 1 3.64449 107.111 10.2985
8220 2 5.45843 110.244 11.6375
1950 1 9.10073 107.111 10.2985
8191 2 8.18851 108.671 11.6124
1987 1 0.910603 111.832 10.3743
8212 2 2.72842 111.818 11.6621
2412 1 3.63691 113.405 10.3984
1941 1 6.36684 111.832 10.3743
1986 1 3.6406 110.258 10.3495
8653 2 5.45471 113.392 11.686
1953 1 9.09684 110.258 10.3495
8190 2 8.18466 111.818 11.6621
2357 1 9.09315 113.405 10.3984
11966 2 10.911 113.392 11.686
1958 1 2.74848 96.0487 15.2636
8227 2 0.929871 96.059 13.9779
1990 1 0.0178729 97.6209 15.2903
2008 1 1.83739 97.6442 12.7155
1962 1 4.56768 96.0706 12.6897
8202 2 6.38611 96.059 13.9779
1959 1 5.47411 97.6209 15.2903
8225 2 3.65566 97.632 14.0039
1929 1 8.20472 96.0487 15.2636
1932 1 10.0239 96.0706 12.6897
1960 1 7.29363 97.6442 12.7155
8203 2 9.1119 97.632 14.0039
1944 1 2.74349 99.1931 15.3174
8226 2 0.925198 99.2048 14.0304
1991 1 0.012885 100.765 15.3447
1992 1 1.83298 100.791 12.7685
1961 1 4.56331 99.2176 12.7418
8195 2 6.38144 99.2048 14.0304
1942 1 5.46912 100.765 15.3447
8228 2 3.65097 100.778 14.0571
1928 1 8.19973 99.1931 15.3174
1931 1 10.0196 99.2176 12.7418
1963 1 7.28922 100.791 12.7685
8193 2 9.10721 100.778 14.0571
1943 1 2.73854 102.337 15.372
8215 2 0.920518 102.35 14.0839
1982 1 0.00799229 103.91 15.399
1993 1 1.82855 103.937 12.8221
1948 1 4.55888 102.364 12.7953
8194 2 6.37676 102.35 14.0839
1945 1 5.46423 103.91 15.399
8213 2 3.64633 103.923 14.1106
1925 1 8.19477 102.337 15.372
1930 1 10.0151 102.364 12.7953
8196 2 9.10257 103.923 14.1106
1946 1 7.28478 103.937 12.8221
1936 1 2.73375 105.482 15.4258
8214 2 0.915951 105.496 14.1371
1983 1 0.00334523 107.055 15.4521
1984 1 1.8242 107.084 12.8749
1947 1 4.55447 105.51 12.8486
8188 2 6.37219 105.496 14.1371
1934 1 5.45958 107.055 15.4521
8216 2 3.64187 107.069 14.1632
1924 1 8.18999 105.482 15.4258
1927 1 10.0107 105.51 12.8486
8186 2 9.09811 107.069 14.1632
1949 1 7.28044 107.084 12.8749
1935 1 2.72927 108.628 15.4778
8211 2 0.911625 108.643 14.1888
1985 1 1.82008 110.23 12.926
1940 1 4.55023 108.657 12.9007
8187 2 6.36786 108.643 14.1888
1937 1 5.45531 110.202 15.5029
8209 2 3.6377 110.216 14.2139
5053 1 10.9115 110.202 15.5029
8189 2 9.09394 110.216 14.2139
1922 1 8.18551 108.628 15.4778
1926 1 10.0065 108.657 12.9007
1938 1 7.27632 110.23 12.926
1933 1 2.72522 111.776 15.5274
8210 2 0.907641 111.79 14.2383
8652 2 3.63391 113.364 14.262
2391 1 1.81626 113.378 12.9746
1939 1 4.54625 111.804 12.9506
8185 2 6.36388 111.79 14.2383
2341 1 5.45148 113.35 15.551
2356 1 7.2725 113.378 12.9746
8609 2 9.09015 113.364 14.262
1923 1 10.0025 111.804 12.9506
1921 1 8.18145 111.776 15.5274
5462 1 10.9077 113.35 15.551
8550 2 2.74652 96.0093 19.1275
2302 1 0.928692 96.0245 17.8386
8568 2 1.83586 97.6072 16.579
8562 2 0.0153089 97.5794 19.1554
8554 2 4.56666 96.0356 16.5521
2279 1 6.38493 96.0245 17.8386
8551 2 5.47155 97.5794 19.1554
2300 1 3.65394 97.5953 17.8664
8505 2 8.20275 96.0093 19.1275
8508 2 10.0229 96.0356 16.5521
8552 2 7.2921 97.6072 16.579
2280 1 9.11018 97.5953 17.8664
2301 1 0.922978 99.1661 17.8943
8542 2 2.74041 99.1498 19.1835
8564 2 1.83056 100.75 16.6336
8563 2 0.00935732 100.721 19.2114
8553 2 4.56131 99.1788 16.6062
2275 1 6.37922 99.1661 17.8943
2303 1 3.64831 100.737 17.9222
8540 2 5.4656 100.721 19.2114
8504 2 8.19665 99.1498 19.1835
8507 2 10.0176 99.1788 16.6062
8555 2 7.2868 100.75 16.6336
2273 1 9.10454 100.737 17.9222
2295 1 0.917468 102.309 17.9498
8541 2 2.73466 102.292 19.2389
8565 2 1.82547 103.895 16.6878
8546 2 4.5561 102.322 16.6608
2274 1 6.37371 102.309 17.9498
2293 1 3.64297 103.88 17.9771
8497 2 8.1909 102.292 19.2389
8506 2 10.0123 102.322 16.6608
2276 1 9.0992 103.88 17.9771
8544 2 7.28171 103.895 16.6878
2294 1 0.912344 105.452 18.0039
8560 2 1.82075 107.04 16.7405
8545 2 4.55118 105.467 16.7144
2263 1 6.36858 105.452 18.0039
2296 1 3.63809 107.025 18.0301
8499 2 10.0074 105.467 16.7144
8547 2 7.27698 107.04 16.7405
2261 1 9.09433 107.025 18.0301
2288 1 0.907748 108.598 18.0556
8561 2 1.81649 110.187 16.7909
2286 1 3.63379 110.172 18.0804
2262 1 6.36399 108.598 18.0556
8532 2 4.54667 108.613 16.766
8530 2 7.27273 110.187 16.7909
8498 2 10.0029 108.613 16.766
2264 1 9.09003 110.172 18.0804
2287 1 0.903744 111.746 18.1045
8975 2 1.81275 113.336 16.8384
2688 1 3.63008 113.321 18.1278
2245 1 6.35998 111.746 18.1045
8531 2 4.54267 111.761 16.815
8964 2 7.26899 113.336 16.8384
8483 2 9.99891 111.761 16.815
2662 1 9.08632 113.321 18.1278
8538 2 0.925427 95.9784 21.7044
2299 1 1.8329 97.5658 20.4439
2271 1 4.56433 95.9966 20.4151
8502 2 6.38167 95.9784 21.7044
8536 2 3.65001 97.5472 21.7334
2220 1 10.0206 95.9966 20.4151
2269 1 7.28914 97.5658 20.4439
8503 2 9.10625 97.5472 21.7334
8537 2 0.918513 99.1165 21.7622
2291 1 1.8266 100.706 20.501
2270 1 4.55781 99.1355 20.4726
8494 2 6.37475 99.1165 21.7622
8539 2 3.64343 100.687 21.7905
2219 1 10.014 99.1355 20.4726
2272 1 7.28283 100.706 20.501
8492 2 9.09967 100.687 21.7905
8558 2 0.00386625 103.863 19.2661
8524 2 0.912322 102.257 21.8182
2292 1 1.82089 103.848 20.5562
8543 2 5.4601 103.863 19.2661
2259 1 4.55178 102.276 20.5289
8493 2 6.36856 102.257 21.8182
8522 2 3.63768 103.829 21.8453
2218 1 10.008 102.276 20.5289
2257 1 7.27713 103.848 20.5562
8495 2 9.09391 103.829 21.8453
8528 2 2.72946 105.436 19.2926
8523 2 0.907024 105.401 21.8716
2284 1 1.81594 106.993 20.6088
8525 2 3.63284 106.974 21.8972
8526 2 5.45523 107.009 19.3186
2258 1 4.54644 105.42 20.5829
8479 2 6.36326 105.401 21.8716
2260 1 7.27218 106.993 20.6088
8496 2 8.1857 105.436 19.2926
2211 1 10.0027 105.42 20.5829
8477 2 9.08908 106.974 21.8972
11823 2 10.9115 107.009 19.3186
8527 2 2.72492 108.582 19.3438
8516 2 0.902652 108.548 21.922
2285 1 1.81179 110.14 20.6583
8514 2 3.62891 110.123 21.946
8529 2 5.45103 110.156 19.3683
2244 1 4.54189 108.566 20.6339
8478 2 6.35889 108.548 21.922
2242 1 7.26803 110.14 20.6583
8482 2 8.18116 108.582 19.3438
2210 1 9.99813 108.566 20.6339
8480 2 9.08515 110.123 21.946
11821 2 10.9073 110.156 19.3683
8517 2 2.72106 111.731 19.3921
8515 2 0.89913 111.699 21.9691
2682 1 1.80839 113.291 20.7045
8956 2 3.62577 113.275 21.9915
2243 1 4.53812 111.715 20.6818
8461 2 6.35537 111.699 21.9691
8957 2 5.4475 113.306 19.415
2661 1 7.26463 113.291 20.7045
8481 2 8.1773 111.731 19.3921
2195 1 9.99436 111.715 20.6818
8909 2 9.08201 113.275 21.9915
12238 2 10.9037 113.306 19.415
2251 1 0.919379 95.9227 25.574
2267 1 2.74261 95.9633 22.9934
2289 1 0.0107248 97.5312 23.0232
8535 2 1.8272 97.509 24.3131
2214 1 6.37562 95.9227 25.574
8490 2 4.55929 95.9414 24.2832
2249 1 3.64333 97.4894 25.6045
2268 1 5.46696 97.5312 23.0232
2217 1 8.19885 95.9633 22.9934
8436 2 10.0155 95.9414 24.2832
2215 1 9.09956 97.4894 25.6045
8488 2 7.28344 97.509 24.3131
2250 1 0.911394 99.0573 25.6341
2255 1 2.73527 99.0997 23.0526
2290 1 0.00382064 100.669 23.0812
8520 2 1.82016 100.647 24.3708
2252 1 3.63609 100.627 25.6626
2206 1 6.36763 99.0573 25.6341
8489 2 4.55164 99.0776 24.3423
2253 1 5.46006 100.669 23.0812
2216 1 8.19151 99.0997 23.0526
8435 2 10.0079 99.0776 24.3423
2204 1 9.09233 100.627 25.6626
8491 2 7.2764 100.647 24.3708
2236 1 0.904941 102.197 25.6901
2254 1 2.72887 102.24 23.1091
8521 2 1.81442 103.79 24.4251
2234 1 3.63041 103.769 25.7166
2205 1 6.36118 102.197 25.6901
8475 2 4.54524 102.218 24.3984
2256 1 5.45419 103.811 23.1362
8473 2 7.27065 103.79 24.4251
2209 1 8.1851 102.24 23.1091
8434 2 10.0015 102.218 24.3984
2207 1 9.08665 103.769 25.7166
5354 1 10.9104 103.811 23.1362
2235 1 0.900005 105.343 25.7422
2240 1 2.72355 105.383 23.1625
8512 2 1.80993 106.937 24.4759
2237 1 3.62616 106.917 25.7668
2191 1 6.35624 105.343 25.7422
8474 2 4.54014 105.363 24.4509
2238 1 5.44941 106.957 23.1879
8476 2 7.26616 106.937 24.4759
5355 1 10.9057 106.957 23.1879
2208 1 8.17978 105.383 23.1625
8427 2 9.99638 105.363 24.4509
2189 1 9.0824 106.917 25.7668
2228 1 0.896371 108.493 25.7905
2239 1 2.7193 108.531 23.2124
8513 2 1.80651 110.088 24.5234
2226 1 3.62308 110.069 25.8134
2190 1 6.35261 108.493 25.7905
8460 2 4.53622 108.512 24.5001
2241 1 5.44565 110.106 23.2361
8458 2 7.26275 110.088 24.5234
5353 1 10.9019 110.106 23.2361
2194 1 8.17553 108.531 23.2124
8426 2 9.99246 108.512 24.5001
2192 1 9.07931 110.069 25.8134
2227 1 0.893765 111.647 25.8355
2229 1 2.71599 111.682 23.259
8942 2 1.80397 113.242 24.5675
2649 1 3.62088 113.225 25.8568
2174 1 6.35 111.647 25.8355
8459 2 4.53326 111.664 24.5458
2650 1 5.44275 113.259 23.281
8908 2 7.26021 113.242 24.5675
5753 1 10.899 113.259 23.281
2597 1 9.07712 113.225 25.8568
2193 1 8.17223 111.682 23.259
8412 2 9.9895 111.664 24.5458
8486 2 2.7352 95.8961 26.864
2248 1 1.81796 97.4386 28.1876
8518 2 0.00282543 97.4631 26.8944
2202 1 4.55045 95.8722 28.1571
8487 2 5.45906 97.4631 26.8944
2200 1 7.2742 97.4386 28.1876
2154 1 10.0067 95.8722 28.1571
8433 2 8.19144 95.8961 26.864
8471 2 2.72716 99.0315 26.9236
2232 1 1.81096 100.577 28.2446
2201 1 4.5423 99.007 28.2167
8469 2 5.45198 100.602 26.9518
2203 1 7.2672 100.577 28.2446
2153 1 9.99854 99.007 28.2167
8432 2 8.1834 99.0315 26.9236
11783 2 10.9082 100.602 26.9518
8470 2 2.72101 102.173 26.9789
2233 1 1.80602 103.723 28.2967
2187 1 4.53637 102.149 28.2712
8472 2 5.44669 103.746 27.0049
2185 1 7.26226 103.723 28.2967
11774 2 10.9029 103.746 27.0049
2152 1 9.99261 102.149 28.2712
8425 2 8.17724 102.173 26.9789
8456 2 2.71652 105.32 27.03
2224 1 1.8027 106.874 28.3449
2186 1 4.53231 105.298 28.3213
8454 2 5.44292 106.896 27.0542
2188 1 7.25894 106.874 28.3449
11775 2 10.8992 106.896 27.0542
2145 1 9.98854 105.298 28.3213
8424 2 8.17276 105.32 27.03
8455 2 2.71337 108.472 27.0775
2225 1 1.80057 110.03 28.3897
2173 1 4.52963 108.451 28.3677
8457 2 5.4403 110.05 27.1
2171 1 7.25681 110.03 28.3897
11773 2 10.8965 110.05 27.1
2144 1 9.98587 108.451 28.3677
8411 2 8.16961 108.472 27.0775
8445 2 2.71121 111.628 27.1217
2631 1 1.79927 113.189 28.4315
2172 1 4.52796 111.609 28.411
8893 2 5.43854 113.207 27.1426
2596 1 7.25551 113.189 28.4315
2133 1 9.9842 111.609 28.411
8410 2 8.16745 111.628 27.1217
12205 2 10.8948 113.207 27.1426
2198 1 2.72307 95.8095 30.7419
8467 2 0.909072 95.8404 29.4465
8464 2 1.80561 97.3421 32.0585
8465 2 3.633 97.4078 29.4767
8418 2 4.53723 95.7724 32.0293
8430 2 6.36531 95.8404 29.4465
2199 1 5.44712 97.3773 30.7714
8416 2 7.26185 97.3421 32.0585
5302 1 10.9034 97.3773 30.7714
2151 1 8.17931 95.8095 30.7419
8388 2 9.99347 95.7724 32.0293
8431 2 9.08924 97.4078 29.4767
2183 1 2.71571 98.9476 30.7993
8466 2 0.901374 98.9773 29.5054
8448 2 1.80085 100.489 32.1121
8468 2 3.6266 100.549 29.5327
8417 2 4.53103 98.9144 32.086
8422 2 6.35761 98.9773 29.5054
2181 1 5.44123 100.52 30.8258
8419 2 7.25709 100.489 32.1121
5303 1 10.8975 100.52 30.8258
2150 1 8.17195 98.9476 30.7993
8387 2 9.98726 98.9144 32.086
8420 2 9.08284 100.549 29.5327
2182 1 2.7111 102.095 30.8511
8452 2 0.896132 102.122 29.5589
8449 2 1.79823 103.643 32.161
8450 2 3.62236 103.697 29.5839
8404 2 4.52745 102.065 32.137
8421 2 6.35237 102.122 29.5589
2184 1 5.43768 103.671 30.8754
8402 2 7.25447 103.643 32.161
5294 1 10.8939 103.671 30.8754
2143 1 8.16733 102.095 30.8511
8386 2 9.98369 102.065 32.137
8423 2 9.0786 103.697 29.5839
2169 1 2.70841 105.248 30.8988
8451 2 0.892747 105.273 29.608
8440 2 1.79697 106.803 32.2062
8453 2 3.6197 106.851 29.6312
8403 2 4.52559 105.222 32.184
8408 2 6.34899 105.273 29.608
2167 1 5.4357 106.827 30.9214
8405 2 7.25321 106.803 32.2062
5295 1 10.8919 106.827 30.9214
2142 1 8.16465 105.248 30.8988
8383 2 9.98182 105.222 32.184
8406 2 9.07593 106.851 29.6312
2168 1 2.707 108.407 30.9432
8444 2 0.890678 108.429 29.6536
8441 2 1.79658 109.966 32.2485
8442 2 3.61812 110.009 29.6753
8396 2 4.52481 108.384 32.2277
8407 2 6.34692 108.429 29.6536
2170 1 5.43475 109.988 30.9643
8394 2 7.25282 109.966 32.2485
5293 1 10.891 109.988 30.9643
2132 1 8.16324 108.407 30.9432
8382 2 9.98105 108.384 32.2277
8409 2 9.07436 110.009 29.6753
2160 1 2.70642 111.569 30.9847
8443 2 0.889506 111.589 29.6962
8871 2 1.79671 113.132 32.2883
8892 2 3.61728 113.171 29.7164
8395 2 4.52472 111.549 32.2687
8397 2 6.34574 111.589 29.6962
2581 1 5.43445 113.152 31.0045
8836 2 7.25295 113.132 32.2883
2131 1 8.16266 111.569 30.9847
8379 2 9.98096 111.549 32.2687
5702 1 10.8907 113.152 31.0045
8837 2 9.07352 113.171 29.7164
2179 1 0.893794 95.7329 33.3266
8414 2 2.70827 95.6917 34.6098
2177 1 3.61889 97.3048 33.354
2148 1 6.35003 95.7329 33.3266
8415 2 5.43426 97.2663 34.6374
2136 1 4.52008 95.6425 35.9075
11710 2 10.8905 97.2663 34.6374
8385 2 8.16451 95.6917 34.6098
2149 1 9.07513 97.3048 33.354
2118 1 9.97632 95.6425 35.9075
2180 1 3.6152 100.456 33.4047
2178 1 0.888595 98.8794 33.3799
8400 2 2.70472 98.8435 34.6634
8398 2 5.43195 100.423 34.6882
2140 1 6.34483 98.8794 33.3799
11711 2 10.8882 100.423 34.6882
2138 1 9.07144 100.456 33.4047
8384 2 8.16096 98.8435 34.6634
2163 1 3.6136 103.614 33.4515
2165 1 0.886086 102.035 33.4285
8399 2 2.70335 102.003 34.7119
8401 2 5.43128 103.585 34.7347
2139 1 6.34232 102.035 33.4285
11702 2 10.8875 103.585 34.7347
2141 1 9.06984 103.614 33.4515
8381 2 8.15958 102.003 34.7119
8392 2 2.7032 105.168 34.7568
2164 1 0.885174 105.195 33.4737
2166 1 3.61321 106.777 33.4952
2129 1 6.34141 105.195 33.4737
8390 2 5.43154 106.752 34.7782
11703 2 10.8878 106.752 34.7782
8380 2 8.15944 105.168 34.7568
2127 1 9.06945 106.777 33.4952
2157 1 3.61353 109.944 33.5365
2159 1 0.88519 108.36 33.5162
8391 2 2.70376 108.336 34.799
8393 2 5.43232 109.921 34.8192
2128 1 6.34143 108.36 33.5162
11701 2 10.8886 109.921 34.8192
2130 1 9.06977 109.944 33.5365
8378 2 8.16 108.336 34.799
8389 2 2.7047 111.507 34.8388
2158 1 0.885732 111.528 33.5562
2580 1 3.61424 113.113 33.5754
2122 1 6.34197 111.528 33.5562
8821 2 5.43337 113.093 34.8579
2531 1 9.07048 113.113 33.5754
12134 2 10.8896 113.093 34.8579
8377 2 8.16094 111.507 34.8388
8590 2 0.880654 95.6 37.1839
14271 1 2.69165 95.5406 38.4791
8588 2 3.60835 97.1823 37.2102
2176 1 1.79087 97.222 35.9322
8579 2 6.33689 95.6 37.1839
14656 1 5.42133 97.1314 38.5022
2134 1 7.24711 97.222 35.9322
14241 1 8.14789 95.5406 38.4791
8580 2 9.06459 97.1823 37.2102
17484 1 10.8776 97.1314 38.5022
8589 2 0.880238 98.7663 37.2351
14657 1 2.69459 98.7218 38.5249
2161 1 1.79027 100.386 35.9792
8591 2 3.60866 100.351 37.2589
8576 2 6.33648 98.7663 37.2351
2135 1 4.51849 98.8033 35.9561
14658 1 5.42399 100.312 38.5472
2137 1 7.24651 100.386 35.9792
14622 1 8.15083 98.7218 38.5249
2117 1 9.97473 98.8033 35.9561
8574 2 9.0649 100.351 37.2589
17482 1 10.8802 100.312 38.5472
8586 2 0.881061 101.937 37.2818
14653 1 2.69714 101.902 38.5691
2162 1 1.79086 103.554 36.0235
8584 2 3.60984 103.524 37.304
8575 2 6.3373 101.937 37.2818
2125 1 4.51858 101.97 36.0017
14651 1 5.42651 103.492 38.5905
2123 1 7.2471 103.554 36.0235
14621 1 8.15337 101.902 38.5691
2116 1 9.97482 101.97 36.0017
8577 2 9.06608 103.524 37.304
17483 1 10.8827 103.492 38.5905
8585 2 0.882485 105.112 37.3255
14652 1 2.69963 105.082 38.6115
2155 1 1.79206 106.725 36.0657
8587 2 3.61144 106.699 37.3465
8572 2 6.33872 105.112 37.3255
2124 1 4.51953 105.139 36.0449
14654 1 5.42898 106.672 38.632
2126 1 7.2483 106.725 36.0657
14616 1 8.15587 105.082 38.6115
2115 1 9.97577 105.139 36.0449
8570 2 9.06767 106.699 37.3465
17480 1 10.8852 106.672 38.632
8583 2 0.88419 108.287 37.3669
14642 1 2.70207 108.262 38.6521
2156 1 1.79356 109.898 36.1058
8581 2 3.61321 109.876 37.3868
8571 2 6.34043 108.287 37.3669
14640 1 5.43138 109.852 38.6717
2121 1 4.52091 108.312 36.086
2119 1 7.2498 109.898 36.1058
14615 1 8.15831 108.262 38.6521
2114 1 9.97715 108.312 36.086
8573 2 9.06944 109.876 37.3868
17481 1 10.8876 109.852 38.6717
9000 2 3.61501 113.053 37.4249
2559 1 1.79516 113.073 36.1438
8582 2 0.885992 111.464 37.4061
14641 1 2.70441 111.442 38.6909
2530 1 7.25139 113.073 36.1438
8569 2 6.34223 111.464 37.4061
14643 1 5.43365 113.032 38.7095
2120 1 4.52247 111.486 36.1251
8986 2 9.07125 113.053 37.4249
14602 1 8.16065 111.442 38.6909
2113 1 9.97871 111.486 36.1251
17479 1 10.8899 113.032 38.7095
20279 2 1.78616 97.0939 39.774
14269 1 0.869174 95.4372 41.037
19869 2 2.69487 95.405 42.3
14655 1 3.60036 97.0393 41.0612
20261 2 5.42454 97.0065 42.3282
14221 1 6.32541 95.4372 41.037
19883 2 4.51342 95.5018 39.7475
20268 2 7.2424 97.0939 39.774
14618 1 9.05659 97.0393 41.0612
19833 2 8.15111 95.405 42.3
19835 2 9.96966 95.5018 39.7475
23098 2 10.8808 97.0065 42.3282
20280 2 1.78833 100.278 39.8228
20262 2 2.69794 98.6064 42.3546
14649 1 0.874704 98.6389 41.0847
14647 1 3.60493 100.237 41.1077
20266 2 4.51532 98.686 39.799
20263 2 5.42756 100.205 42.3796
14619 1 6.33094 98.6389 41.0847
20264 2 7.24457 100.278 39.8228
14620 1 9.06117 100.237 41.1077
20217 2 8.15418 98.6064 42.3546
20220 2 9.97155 98.686 39.799
23094 2 10.8838 100.205 42.3796
20276 2 1.79078 103.462 39.868
14648 1 0.878707 101.833 41.13
20254 2 2.70094 101.803 42.4035
14650 1 3.60857 103.429 41.1519
20265 2 4.51766 101.87 39.8458
14613 1 6.33495 101.833 41.13
20252 2 5.43054 103.4 42.4265
20267 2 7.24701 103.462 39.868
14611 1 9.06481 103.429 41.1519
20216 2 8.15718 101.803 42.4035
20219 2 9.9739 101.87 39.8458
23095 2 10.8868 103.4 42.4265
20277 2 1.79327 106.646 39.9106
14638 1 0.882101 105.023 41.1732
20253 2 2.70388 104.996 42.4488
14636 1 3.61178 106.618 41.194
20258 2 4.52015 105.054 39.8896
14612 1 6.33834 105.023 41.1732
20255 2 5.43343 106.592 42.4704
20256 2 7.24951 106.646 39.9106
14614 1 9.06802 106.618 41.194
20209 2 8.16012 104.996 42.4488
20218 2 9.97638 105.054 39.8896
23090 2 10.8897 106.592 42.4704
20272 2 1.79572 109.829 39.9509
14637 1 0.885157 108.212 41.2144
20240 2 2.70671 108.187 42.4913
14639 1 3.6147 109.805 41.2342
20257 2 4.52263 108.237 39.931
14599 1 6.3414 108.212 41.2144
20238 2 5.43617 109.782 42.5117
20259 2 7.25195 109.829 39.9509
14597 1 9.07094 109.805 41.2342
20208 2 8.16294 108.187 42.4913
20211 2 9.97886 108.237 39.931
23091 2 10.8924 109.782 42.5117
20273 2 1.79803 113.012 39.9892
14630 1 0.887944 111.398 41.2536
20239 2 2.70936 111.377 42.5314
14628 1 3.61736 112.992 41.2724
14598 1 6.34418 111.398 41.2536
20241 2 5.43873 112.971 42.5506
20244 2 4.52501 111.421 39.9703
20242 2 7.25427 113.012 39.9892
14600 1 9.0736 112.992 41.2724
20194 2 8.1656 111.377 42.5314
20210 2 9.98125 111.421 39.9703
23089 2 10.895 112.971 42.5506
14645 1 1.78467 96.9523 43.61
19867 2 0.880239 95.3153 44.8442
20260 2 3.61022 96.9242 44.8748
14219 1 4.50969 95.3419 43.5826
19814 2 6.33648 95.3153 44.8442
14617 1 7.24091 96.9523 43.61
20213 2 9.06646 96.9242 44.8748
14171 1 9.96593 95.3419 43.5826
14646 1 1.7895 100.164 43.6607
20250 2 0.883768 98.5305 44.9033
20248 2 3.61346 100.135 44.9302
14609 1 4.51537 98.5592 43.6359
20214 2 6.34001 98.5305 44.9033
14607 1 7.24574 100.164 43.6607
14556 1 9.97161 98.5592 43.6359
20215 2 9.0697 100.135 44.9302
14634 1 1.79337 103.366 43.7076
20249 2 0.886855 101.738 44.9557
20251 2 3.61645 103.339 44.9801
14608 1 4.51963 101.766 43.6846
20206 2 6.34309 101.738 44.9557
14610 1 7.2496 103.366 43.7076
14555 1 9.97587 101.766 43.6846
20204 2 9.07269 103.339 44.9801
14635 1 1.79674 106.564 43.7517
20236 2 0.889785 104.94 45.0036
20234 2 3.61932 106.539 45.0262
14595 1 4.52322 104.966 43.73
20205 2 6.34602 104.94 45.0036
14593 1 7.25298 106.564 43.7517
14554 1 9.97946 104.966 43.73
20207 2 9.07556 106.539 45.0262
14626 1 1.79978 109.758 43.7932
20235 2 0.892581 108.138 45.048
20237 2 3.62204 109.736 45.0692
14594 1 4.52641 108.162 43.7727
20191 2 6.34882 108.138 45.048
14596 1 7.25602 109.758 43.7932
14547 1 9.98265 108.162 43.7727
20189 2 9.07828 109.736 45.0692
14627 1 1.80254 112.951 43.8325
20228 2 0.895215 111.334 45.0896
20226 2 3.62458 112.931 45.1094
14580 1 4.52931 111.355 43.8131
20190 2 6.35145 111.334 45.0896
14578 1 7.25878 112.951 43.8325
14546 1 9.98555 111.355 43.8131
20192 2 9.08082 112.931 45.1094
20246 2 1.79831 96.8497 47.4169
14203 1 0.8895 95.1879 48.6567
14205 1 2.6986 95.2586 46.1208
14603 1 3.61958 96.8053 48.6902
14604 1 5.42919 96.8739 46.1517
14152 1 6.34574 95.1879 48.6567
19812 2 4.52444 95.2361 47.3841
20212 2 7.25455 96.8497 47.4169
14549 1 9.07582 96.8053 48.6902
14169 1 8.15484 95.2586 46.1208
19773 2 9.98068 95.2361 47.3841
17464 1 10.8854 96.8739 46.1517
14587 1 0.89319 98.4199 48.7217
14605 1 2.70324 98.4858 46.1806
20247 2 1.8015 100.069 47.4763
14585 1 3.62288 100.032 48.7513
14550 1 6.34943 98.4199 48.7217
14606 1 5.43331 100.095 46.2079
20202 2 4.52811 98.4606 47.4475
20200 2 7.25774 100.069 47.4763
14551 1 9.07912 100.032 48.7513
14553 1 8.15948 98.4858 46.1806
20154 2 9.98435 98.4606 47.4475
17452 1 10.8895 100.095 46.2079
14586 1 0.896218 101.642 48.7793
14591 1 2.70698 101.702 46.2338
20232 2 1.80427 103.282 47.5297
14588 1 3.62572 103.25 48.806
14542 1 6.35246 101.642 48.7793
14589 1 5.43677 103.306 46.2586
20201 2 4.53104 101.676 47.5036
20203 2 7.26051 103.282 47.5297
14540 1 9.08196 103.25 48.806
14552 1 8.16321 101.702 46.2338
20153 2 9.98727 101.676 47.5036
17453 1 10.893 103.306 46.2586
14572 1 0.898932 104.856 48.8316
14590 1 2.71024 104.91 46.2824
20233 2 1.80687 106.488 47.5786
14570 1 3.62834 106.461 48.8561
14541 1 6.35517 104.856 48.8316
14592 1 5.43987 106.512 46.3054
20187 2 4.53371 104.885 47.5546
20185 2 7.26311 106.488 47.5786
14543 1 9.08458 106.461 48.8561
14545 1 8.16648 104.91 46.2824
20152 2 9.98995 104.885 47.5546
17444 1 10.8961 106.512 46.3054
14571 1 0.901467 108.065 48.8796
14576 1 2.71321 108.112 46.3276
20224 2 1.80935 109.691 47.6238
14573 1 3.6308 109.667 48.9023
14527 1 6.35771 108.065 48.8796
14574 1 5.44272 109.712 46.3491
20186 2 4.53625 108.09 47.6016
20188 2 7.26559 109.691 47.6238
14525 1 9.08704 109.667 48.9023
14544 1 8.16944 108.112 46.3276
20145 2 9.99249 108.09 47.6016
17445 1 10.899 109.712 46.3491
14564 1 0.903855 111.269 48.9241
14575 1 2.71594 111.312 46.3698
20225 2 1.8117 112.891 47.6657
14562 1 3.63311 112.87 48.945
14526 1 6.36009 111.269 48.9241
14577 1 5.44534 112.91 46.3899
20173 2 4.53867 111.291 47.6451
20171 2 7.26794 112.891 47.6657
14528 1 9.08935 112.87 48.945
14530 1 8.17218 111.312 46.3698
20144 2 9.9949 111.291 47.6451
17443 1 10.9016 112.91 46.3899
14583 1 1.81065 96.7463 51.2287
19800 2 2.71386 95.1683 49.9232
19798 2 0.903991 95.1115 52.4636
20196 2 3.63424 96.7278 52.4979
20197 2 5.44404 96.7842 49.9572
14150 1 4.53694 95.1287 51.1939
14548 1 7.26689 96.7463 51.2287
19762 2 6.36023 95.1115 52.4636
14120 1 9.99318 95.1287 51.1939
19771 2 8.1701 95.1683 49.9232
20147 2 9.09047 96.7278 52.4979
23065 2 10.9003 96.7842 49.9572
14584 1 1.81349 99.9757 51.293
20198 2 2.71761 98.3979 49.9894
20179 2 0.907831 98.3424 52.5309
20177 2 3.63737 99.9554 52.5626
14538 1 4.54029 98.362 51.2617
20199 2 5.44717 100.009 50.0199
14536 1 7.26973 99.9757 51.293
20148 2 6.36407 98.3424 52.5309
23050 2 10.9034 100.009 50.0199
14496 1 9.99653 98.362 51.2617
20151 2 8.17385 98.3979 49.9894
20149 2 9.09361 99.9554 52.5626
14568 1 1.81582 103.198 51.3513
20183 2 2.72035 101.619 50.0489
20178 2 0.91048 101.567 52.5929
14537 1 4.54281 101.588 51.3229
20181 2 5.44968 103.227 50.0766
14539 1 7.27206 103.198 51.3513
20140 2 6.36672 101.567 52.5929
23051 2 10.9059 103.227 50.0766
14495 1 9.99905 101.588 51.3229
20150 2 8.17659 101.619 50.0489
14569 1 1.81794 106.413 51.4045
20182 2 2.72271 104.834 50.103
14523 1 4.54501 104.806 51.3785
20184 2 5.45194 106.439 50.1284
14521 1 7.27417 106.413 51.4045
23042 2 10.9082 106.439 50.1284
14494 1 10.0013 104.806 51.3785
20143 2 8.17895 104.834 50.103
14560 1 1.81995 109.624 51.4533
20169 2 2.72491 108.043 50.1527
14522 1 4.54707 108.019 51.4294
20167 2 5.45409 109.647 50.176
23043 2 10.9103 109.647 50.176
14488 1 10.0033 108.019 51.4294
14524 1 7.27619 109.624 51.4533
20142 2 8.18115 108.043 50.1527
14561 1 1.82188 112.831 51.4983
20168 2 2.72701 111.249 50.1985
14511 1 4.54904 111.228 51.4763
20170 2 5.45614 112.851 50.22
14487 1 10.0053 111.228 51.4763
14509 1 7.27812 112.831 51.4983
20132 2 8.18324 111.249 50.1985
23041 2 10.9124 112.851 50.22
14582 1 0.00169904 96.696 53.7688
20175 2 1.82474 96.6794 55.0403
14140 1 2.72792 95.0792 53.734
14533 1 5.45794 96.696 53.7688
19760 2 4.55072 95.0638 55.0063
20146 2 7.28098 96.6794 55.0403
14118 1 8.18415 95.0792 53.734
19753 2 10.007 95.0638 55.0063
14534 1 2.73134 98.3115 53.8024
14566 1 0.00446799 99.9256 53.8348
20176 2 1.82792 99.9071 55.1057
14535 1 5.46071 99.9256 53.8348
20136 2 4.5546 98.2938 55.0734
14493 1 8.18757 98.3115 53.8024
20118 2 10.0108 98.2938 55.0734
20134 2 7.28416 99.9071 55.1057
14519 1 2.73366 101.538 53.8659
14567 1 0.00650598 103.149 53.8957
20161 2 1.83016 103.13 55.1669
14517 1 5.46274 103.149 53.8957
20135 2 4.55724 101.519 55.1369
20180 2 3.63969 103.177 52.6219
14492 1 8.1899 101.538 53.8659
20117 2 10.0135 101.519 55.1369
20137 2 7.2864 103.13 55.1669
20138 2 9.09593 103.177 52.6219
14518 1 2.73552 104.759 53.9243
14558 1 0.00824063 106.368 53.9516
20162 2 1.83192 106.349 55.2237
20165 2 0.912586 104.785 52.6498
14520 1 5.46448 106.368 53.9516
20125 2 4.5592 104.74 55.1959
20139 2 6.36882 104.785 52.6498
20163 2 3.64166 106.393 52.6765
14486 1 8.19175 104.759 53.9243
20116 2 10.0154 104.74 55.1959
20123 2 7.28816 106.349 55.2237
20141 2 9.0979 106.393 52.6765
20164 2 0.914458 107.999 52.702
20155 2 1.83346 109.563 55.2761
14559 1 0.00985339 109.582 54.003
14507 1 2.73718 107.976 53.9779
20166 2 3.64347 109.604 52.7266
20129 2 6.3707 107.999 52.702
20124 2 4.56083 107.957 55.2504
14505 1 5.46609 109.582 54.003
20127 2 9.09971 109.604 52.7266
20126 2 7.28969 109.563 55.2761
20115 2 10.0171 107.957 55.2504
14485 1 8.19341 107.976 53.9779
20159 2 0.91622 111.209 52.7501
20156 2 1.83488 112.775 55.3241
14557 1 0.0114045 112.793 54.0502
14506 1 2.73875 111.188 54.0271
20157 2 3.64519 112.813 52.7726
20128 2 6.37246 111.209 52.7501
20121 2 4.5623 111.17 55.3006
14508 1 5.46764 112.793 54.0502
14479 1 8.19499 111.188 54.0271
20130 2 9.10143 112.813 52.7726
20119 2 7.29112 112.775 55.3241
20114 2 10.0185 111.17 55.3006
14831 1 1.83947 96.6147 58.8565
20472 2 0.0153532 96.6373 57.5846
14138 1 0.918703 95.0374 56.2772
20079 2 2.74138 95.0231 57.5513
14532 1 3.6488 96.6527 56.3114
20464 2 5.47159 96.6373 57.5846
14435 1 4.56561 95.001 58.8231
14113 1 6.37494 95.0374 56.2772
14489 1 9.10504 96.6527 56.3114
14820 1 7.29571 96.6147 58.8565
14387 1 10.0218 95.001 58.8231
20049 2 8.19762 95.0231 57.5513
14515 1 0.922262 98.2673 56.345
14832 1 1.84245 99.8409 58.9224
20470 2 0.018554 99.8638 57.6499
20465 2 2.74522 98.2509 57.6176
14513 1 3.65166 99.881 56.3777
14490 1 6.3785 98.2673 56.345
14818 1 4.56923 98.2281 58.8896
20466 2 5.47479 99.8638 57.6499
14772 1 10.0255 98.2281 58.8896
14491 1 9.1079 99.881 56.3777
14816 1 7.29869 99.8409 58.9224
20430 2 8.20146 98.2509 57.6176
14514 1 0.924604 101.494 56.4095
14828 1 1.84447 103.065 58.9857
20471 2 0.0207934 103.087 57.7123
20461 2 2.74789 101.476 57.6816
14516 1 3.65363 103.105 56.4402
14817 1 4.57167 101.453 58.9544
14483 1 6.38084 101.494 56.4095
20459 2 5.47703 103.087 57.7123
14771 1 10.0279 101.453 58.9544
14819 1 7.3007 103.065 58.9857
14481 1 9.10986 103.105 56.4402
20429 2 8.20412 101.476 57.6816
14503 1 0.926302 104.716 56.4699
14829 1 1.84592 106.286 59.0453
20468 2 0.0224583 106.307 57.7708
20460 2 2.7498 104.698 57.742
14501 1 3.65514 106.326 56.4983
14810 1 4.57336 104.676 59.016
14482 1 6.38254 104.716 56.4699
20462 2 5.4787 106.307 57.7708
14770 1 10.0296 104.676 59.016
14808 1 7.30215 106.286 59.0453
14484 1 9.11138 106.326 56.4983
20424 2 8.20604 104.698 57.742
14502 1 0.9277 107.935 56.5257
14824 1 1.84707 109.504 59.1006
20469 2 0.0238156 109.524 57.825
20450 2 2.75128 107.916 57.7984
14504 1 3.65646 109.542 56.5519
14809 1 4.57464 107.895 59.0735
14476 1 6.38394 107.935 56.5257
20448 2 5.48005 109.524 57.825
14763 1 10.0309 107.895 59.0735
14811 1 7.30331 109.504 59.1006
14474 1 9.1127 109.542 56.5519
20423 2 8.20752 107.916 57.7984
14499 1 0.92897 111.15 56.577
14825 1 1.8481 112.72 59.1515
20467 2 0.0250207 112.738 57.8749
20449 2 2.75255 111.132 57.8505
14497 1 3.6577 112.756 56.6011
14796 1 4.57571 111.112 59.1266
14475 1 6.38521 111.15 56.577
20451 2 5.48126 112.738 57.8749
14762 1 10.032 111.112 59.1266
14794 1 7.30434 112.72 59.1515
14477 1 9.11394 112.756 56.6011
20410 2 8.20879 111.132 57.8505
14830 1 0.0299531 96.5804 61.4038
14421 1 2.75613 94.9684 61.3714
20077 2 0.932042 94.9872 60.0984
14813 1 5.48619 96.5804 61.4038
20463 2 3.66218 96.5999 60.1309
20029 2 6.38828 94.9872 60.0984
20426 2 9.11842 96.5999 60.1309
14385 1 8.21237 94.9684 61.3714
14814 1 2.75973 98.1923 61.4364
14826 1 0.0330044 99.804 61.4689
20457 2 0.935797 98.2123 60.1635
14815 1 5.48924 99.804 61.4689
20427 2 6.39204 98.2123 60.1635
20455 2 3.66539 99.8244 60.1957
14769 1 8.21597 98.1923 61.4364
20428 2 9.12162 99.8244 60.1957
14806 1 2.76229 101.416 61.501
14827 1 0.0351362 103.027 61.5324
20456 2 0.938507 101.436 60.2275
14804 1 5.49137 103.027 61.5324
20421 2 6.39475 101.436 60.2275
20458 2 3.66767 103.047 60.2585
14768 1 8.21853 101.416 61.501
20419 2 9.12391 103.047 60.2585
14805 1 2.76407 104.637 61.5632
14822 1 0.0366345 106.248 61.593
20446 2 0.940445 104.658 60.2888
14807 1 5.49287 106.248 61.593
20420 2 6.39668 104.658 60.2888
20444 2 3.66933 106.268 60.3182
14761 1 8.22031 104.637 61.5632
20422 2 9.12557 106.268 60.3182
14792 1 2.76535 107.858 61.6218
14823 1 0.0377507 109.467 61.6497
20445 2 0.941886 107.877 60.3466
14790 1 5.49399 109.467 61.6497
20407 2 6.39812 107.877 60.3466
20447 2 3.67061 109.486 60.3739
14760 1 8.22158 107.858 61.6218
20405 2 9.12685 109.486 60.3739
14791 1 2.76635 111.076 61.6764
14821 1 0.0386689 112.685 61.7019
20438 2 0.943043 111.095 60.4001
14793 1 5.49491 112.685 61.7019
20406 2 6.39928 111.095 60.4001
20436 2 3.67168 112.703 60.4253
14746 1 8.22258 111.076 61.6764
20408 2 9.12792 112.703 60.4253
20452 2 0.0428998 96.5323 65.2283
20453 2 1.85265 96.5654 62.679
14419 1 0.946403 94.938 63.9218
20013 2 2.76911 94.923 65.1973
14812 1 3.67642 96.5482 63.9535
20412 2 5.49914 96.5323 65.2283
14366 1 6.40264 94.938 63.9218
20027 2 4.57882 94.9544 62.6473
14765 1 9.13265 96.5482 63.9535
20425 2 7.30889 96.5654 62.679
19977 2 8.22535 94.923 65.1973
19979 2 10.0351 94.9544 62.6473
14802 1 0.949961 98.1587 63.9855
20413 2 2.77273 98.1419 65.2598
20440 2 0.046135 99.7518 65.2914
20454 2 1.85586 99.7875 62.7429
14766 1 6.4062 98.1587 63.9855
14800 1 3.67952 99.7692 64.0176
20414 2 5.50237 99.7518 65.2914
20417 2 4.58249 98.1765 62.711
14767 1 9.13576 99.7692 64.0176
20361 2 8.22897 98.1419 65.2598
20364 2 10.0387 98.1765 62.711
20415 2 7.31209 99.7875 62.7429
14801 1 0.952634 101.38 64.0495
20399 2 2.77559 101.362 65.3229
20441 2 0.0486301 102.972 65.3541
20442 2 1.85823 103.009 62.8059
14758 1 6.40887 101.38 64.0495
14803 1 3.6818 102.99 64.081
20397 2 5.50487 102.972 65.3541
20416 2 4.58525 101.398 62.7746
14756 1 9.13804 102.99 64.081
20360 2 8.23183 101.362 65.3229
20363 2 10.0415 101.398 62.7746
20418 2 7.31446 103.009 62.8059
14788 1 0.95456 104.601 64.1119
20398 2 2.77775 104.582 65.3847
20432 2 0.0504899 106.192 65.4147
20443 2 1.85995 106.23 62.8662
14757 1 6.4108 104.601 64.1119
14786 1 3.68342 106.211 64.142
20400 2 5.50673 106.192 65.4147
20403 2 4.58727 104.619 62.8364
14759 1 9.13966 106.211 64.142
20353 2 8.23399 104.582 65.3847
20362 2 10.0435 104.619 62.8364
20401 2 7.31619 106.23 62.8662
14787 1 0.955936 107.821 64.1713
20384 2 2.77935 107.802 65.4439
20433 2 0.051866 109.412 65.4721
20434 2 1.86124 109.449 62.9229
14743 1 6.41217 107.821 64.1713
14789 1 3.6846 109.431 64.1995
20382 2 5.5081 109.412 65.4721
20402 2 4.58876 107.84 62.8951
14741 1 9.14084 109.431 64.1995
20352 2 8.23559 107.802 65.4439
20355 2 10.045 107.84 62.8951
20404 2 7.31748 109.449 62.9229
14780 1 0.956961 111.041 64.2267
20383 2 2.78055 111.022 65.4993
20431 2 0.052938 112.632 65.5255
20435 2 1.86227 112.667 62.9755
14742 1 6.4132 111.041 64.2267
14778 1 3.68552 112.65 64.2528
20385 2 5.50918 112.632 65.5255
20388 2 4.5899 111.058 62.9498
14744 1 9.14176 112.65 64.2528
20338 2 8.23679 111.022 65.4993
20354 2 10.0461 111.058 62.9498
20386 2 7.31851 112.667 62.9755
14798 1 1.86621 96.517 66.5061
20011 2 0.958996 94.8914 67.7474
14797 1 0.055138 96.4859 69.0652
14352 1 2.78145 94.8791 69.0349
20411 2 3.68903 96.499 67.7777
14364 1 4.59246 94.9085 66.4752
19960 2 6.41523 94.8914 67.7474
14749 1 5.51138 96.4859 69.0652
14764 1 7.32244 96.517 66.5061
20357 2 9.14527 96.499 67.7777
14325 1 10.0487 94.9085 66.4752
14323 1 8.23769 94.8791 69.0349
14799 1 1.86937 99.7353 66.5692
20395 2 0.962657 98.1073 67.8086
14750 1 2.78491 98.0934 69.0959
14782 1 0.0582727 99.7015 69.127
14754 1 4.596 98.126 66.5375
20358 2 6.4189 98.1073 67.8086
20393 2 3.69236 99.716 67.8398
14751 1 5.51451 99.7015 69.127
14706 1 10.0522 98.126 66.5375
14752 1 7.32561 99.7353 66.5692
20359 2 9.14859 99.716 67.8398
14703 1 8.24115 98.0934 69.0959
14784 1 1.87181 102.955 66.6322
20394 2 0.965658 101.325 67.8711
14735 1 2.78776 101.31 69.1583
14783 1 0.0608269 102.919 69.1895
14753 1 4.5988 101.345 66.6008
20350 2 6.4219 101.325 67.8711
20396 2 3.69504 102.935 67.9021
14733 1 5.51707 102.919 69.1895
14705 1 10.055 101.345 66.6008
14755 1 7.32805 102.955 66.6322
20348 2 9.15128 102.935 67.9021
14702 1 8.244 101.31 69.1583
14785 1 1.87363 106.175 66.6934
20380 2 0.968038 104.545 67.9328
14734 1 2.79002 104.529 69.2203
14774 1 0.0628126 106.139 69.2505
14739 1 4.60091 104.565 66.6631
20349 2 6.42428 104.545 67.9328
20378 2 3.69712 106.155 67.9629
14736 1 5.51905 106.139 69.2505
14704 1 10.0572 104.565 66.6631
14737 1 7.32987 106.175 66.6934
20351 2 9.15335 106.155 67.9629
14695 1 8.24626 104.529 69.2203
14776 1 1.87494 109.395 66.7513
20379 2 0.969817 107.765 67.9922
14738 1 4.60245 107.785 66.7228
20335 2 6.42606 107.765 67.9922
20381 2 3.69865 109.376 68.0206
14697 1 10.0587 107.785 66.7228
14740 1 7.33118 109.395 66.7513
20333 2 9.15489 109.376 68.0206
14777 1 1.87594 112.616 66.8052
20372 2 0.971157 110.986 68.048
14725 1 4.60359 111.005 66.7788
20334 2 6.4274 110.986 68.048
20370 2 3.69984 112.597 68.0744
14696 1 10.0598 111.005 66.7788
14723 1 7.33218 112.616 66.8052
20336 2 9.15608 112.597 68.0744
20391 2 1.87889 96.464 70.326
14350 1 0.966524 94.8485 71.6133
14748 1 3.69626 96.4537 71.6429
14314 1 6.42276 94.8485 71.6133
19958 2 4.60517 94.858 70.2962
14699 1 9.1525 96.4537 71.6429
20356 2 7.33513 96.464 70.326
19928 2 10.0614 94.858 70.2962
14731 1 0.969644 98.0598 71.673
20392 2 1.88213 99.6785 70.387
14700 1 6.42588 98.0598 71.673
14729 1 3.69916 99.6667 71.7035
20346 2 4.6087 98.0709 70.3564
14701 1 9.1554 99.6667 71.7035
20304 2 10.0649 98.0709 70.3564
20344 2 7.33837 99.6785 70.387
14730 1 0.972309 101.274 71.7339
20376 2 1.88488 102.896 70.4486
14692 1 6.42855 101.274 71.7339
14732 1 3.70148 102.883 71.7654
20345 2 4.61164 101.287 70.4179
14690 1 9.15772 102.883 71.7654
20303 2 10.0679 101.287 70.4179
20347 2 7.34112 102.896 70.4486
14717 1 0.974315 104.492 71.7962
20377 2 1.88706 106.116 70.5088
14691 1 6.43055 104.492 71.7962
14715 1 3.7033 106.102 71.8262
20331 2 4.61417 104.506 70.479
14693 1 9.15954 106.102 71.8262
20302 2 10.0704 104.506 70.479
20329 2 7.3433 106.116 70.5088
14716 1 0.975955 107.712 71.8555
14721 1 2.79171 107.749 69.28
14775 1 0.0642784 109.359 69.3085
20368 2 1.88873 109.338 70.5663
14681 1 6.43219 107.712 71.8555
14718 1 3.70477 109.323 71.8839
14719 1 5.52052 109.359 69.3085
20330 2 4.61607 107.727 70.538
14679 1 9.16101 109.323 71.8839
14694 1 8.24795 107.749 69.28
20296 2 10.0723 107.727 70.538
20332 2 7.34496 109.338 70.5663
14711 1 0.977284 110.935 71.9113
14720 1 2.793 110.97 69.3361
14773 1 0.0654368 112.581 69.3626
20369 2 1.89006 112.561 70.62
14680 1 6.43352 110.935 71.9113
14709 1 3.706 112.546 71.9378
14722 1 5.52168 112.581 69.3626
20319 2 4.61754 110.949 70.5937
14682 1 9.16224 112.546 71.9378
14684 1 8.24924 110.97 69.3361
20295 2 10.0738 110.949 70.5937
20317 2 7.3463 112.561 70.62
14727 1 1.8343 96.4288 74.2997
20390 2 0.0670714 96.4267 72.8619
19946 2 0.959789 94.7942 75.3163
19948 2 2.79342 94.8221 72.8326
20340 2 3.68895 96.3976 75.3449
20341 2 5.52331 96.4267 72.8619
14312 1 4.56262 94.8247 74.2703
19921 2 6.41603 94.7942 75.3163
14698 1 7.29054 96.4288 74.2997
20297 2 9.14519 96.3976 75.3449
14305 1 10.0189 94.8247 74.2703
19926 2 8.24966 94.8221 72.8326
14728 1 1.83386 99.6397 74.3602
20323 2 0.961792 98.0024 75.3741
20342 2 2.79684 98.0324 72.8918
20374 2 0.0702269 99.6392 72.9221
14688 1 4.5622 98.0338 74.3298
20298 2 6.41803 98.0024 75.3741
20321 2 3.69083 99.6085 75.4037
20343 2 5.52647 99.6392 72.9221
14670 1 10.0184 98.0338 74.3298
14686 1 7.2901 99.6397 74.3602
20299 2 9.14706 99.6085 75.4037
20301 2 8.25308 98.0324 72.8918
14713 1 1.83325 102.854 74.4206
20322 2 0.9635 101.216 75.4335
20327 2 2.79966 101.247 72.9524
20375 2 0.072995 102.855 72.9825
14687 1 4.56185 101.246 74.3904
20291 2 6.41974 101.216 75.4335
20324 2 3.69242 102.824 75.4622
20325 2 5.52923 102.855 72.9825
14669 1 10.0181 101.246 74.3904
14689 1 7.28949 102.854 74.4206
20289 2 9.14866 102.824 75.4622
20300 2 8.2559 101.247 72.9524
14714 1 1.83269 106.072 74.4797
20311 2 0.964964 104.434 75.4909
20326 2 2.80232 104.465 73.0124
20366 2 0.0752143 106.076 73.0418
14677 1 4.56103 104.463 74.4504
20290 2 6.4212 104.434 75.4909
20309 2 3.69371 106.044 75.5195
20328 2 5.53145 106.076 73.0418
14668 1 10.0173 104.463 74.4504
14675 1 7.28893 106.072 74.4797
20292 2 9.14994 106.044 75.5195
20294 2 8.25855 104.465 73.0124
14707 1 1.83239 109.294 74.5365
20310 2 0.966159 107.656 75.5475
20315 2 2.80426 107.687 73.0706
20367 2 0.0769571 109.299 73.0986
14676 1 4.56062 107.683 74.5085
20284 2 6.4224 107.656 75.5475
20312 2 3.69479 109.268 75.575
20313 2 5.5332 109.299 73.0986
14667 1 10.0169 107.683 74.5085
14678 1 7.28863 109.294 74.5365
20282 2 9.15103 109.268 75.575
20293 2 8.2605 107.687 73.0706
14708 1 1.83243 112.517 74.5898
20307 2 0.967177 110.881 75.6017
20314 2 2.80582 110.911 73.1257
20365 2 0.0783923 112.524 73.1519
14673 1 4.56048 110.905 74.5637
20283 2 6.42342 110.881 75.6017
20305 2 3.69581 112.494 75.6275
20316 2 5.53463 112.524 73.1519
14666 1 10.0167 110.905 74.5637
14671 1 7.28867 112.517 74.5898
20285 2 9.15205 112.494 75.6275
20287 2 8.26206 110.911 73.1257
2495 1 1.81434 113.545 -2.5982
8769 2 0.911916 115.11 -1.13241
8777 2 2.72705 115.139 -3.63688
8784 2 0.000642233 113.568 -3.65931
2482 1 4.53954 115.117 -2.57539
8739 2 6.36815 115.11 -1.13241
8775 2 3.64113 113.538 -1.15526
8776 2 5.45688 113.568 -3.65931
2484 1 7.27058 113.545 -2.5982
2436 1 9.99578 115.117 -2.57539
8738 2 9.09737 113.538 -1.15526
8742 2 8.18329 115.139 -3.63688
2496 1 1.80864 116.689 -2.55323
8768 2 0.909745 118.252 -1.08869
8773 2 2.72381 118.28 -3.59392
2481 1 4.53414 118.26 -2.53178
8733 2 6.36598 118.252 -1.08869
8767 2 3.63894 116.681 -1.1102
8778 2 5.45352 116.71 -3.61506
2480 1 7.26488 116.689 -2.55323
2435 1 9.99038 118.26 -2.53178
8740 2 9.09518 116.681 -1.1102
8741 2 8.18005 118.28 -3.59392
12046 2 10.9098 116.71 -3.61506
2492 1 1.80355 119.83 -2.5111
8758 2 0.907639 121.392 -1.04807
8772 2 2.72082 121.418 -3.55392
8770 2 3.6368 119.822 -1.06797
2474 1 4.52937 121.4 -2.49125
8732 2 6.36388 121.392 -1.04807
8771 2 5.4504 119.849 -3.57352
2483 1 7.25979 119.83 -2.5111
2434 1 9.9856 121.4 -2.49125
8731 2 9.09304 119.822 -1.06797
8736 2 8.17706 121.418 -3.55392
12047 2 10.9066 119.849 -3.57352
2493 1 1.7991 122.969 -2.47228
8757 2 0.905637 124.531 -1.01095
8762 2 2.71812 124.555 -3.51731
8756 2 3.63474 122.961 -1.02905
2473 1 4.52522 124.538 -2.45422
8719 2 6.36188 124.531 -1.01095
8774 2 5.44755 122.987 -3.53517
2472 1 7.25533 122.969 -2.47228
2427 1 9.98146 124.538 -2.45422
8734 2 9.09098 122.961 -1.02905
8735 2 8.17436 124.555 -3.51731
12044 2 10.9038 122.987 -3.53517
2488 1 1.79525 126.107 -2.43711
8750 2 0.903779 127.668 -0.977614
8761 2 2.71571 127.689 -3.48438
8759 2 3.63281 126.099 -0.993795
2460 1 4.52167 127.675 -2.42097
8718 2 6.36002 127.668 -0.977614
8760 2 5.44499 126.122 -3.50037
2475 1 7.25149 126.107 -2.43711
2426 1 9.97791 127.675 -2.42097
8717 2 9.08905 126.099 -0.993795
8722 2 8.17194 127.689 -3.48438
12045 2 10.9012 126.122 -3.50037
2489 1 1.79199 129.243 -2.40582
8749 2 0.902099 130.804 -0.948254
8751 2 2.7136 130.823 -3.45534
8748 2 3.63103 129.236 -0.962428
2459 1 4.51868 130.811 -2.39168
8701 2 6.35834 130.804 -0.948254
8763 2 5.44273 129.256 -3.46936
2458 1 7.24823 129.243 -2.40582
2411 1 9.97492 130.811 -2.39168
8720 2 9.08727 129.236 -0.962428
8721 2 8.16984 130.823 -3.45534
12043 2 10.899 129.256 -3.46936
2478 1 2.72917 115.091 0.0895948
2494 1 0.00246646 113.519 0.066592
8765 2 1.82196 113.506 1.39775
2477 1 5.4587 113.519 0.066592
8729 2 4.54879 115.078 1.42086
2433 1 8.18541 115.091 0.0895948
8676 2 10.005 115.078 1.42086
8737 2 7.2782 113.506 1.39775
2470 1 2.72643 118.234 0.133575
8766 2 1.81939 116.65 1.44331
2479 1 5.4559 116.663 0.111947
8728 2 4.54626 118.222 1.46503
2432 1 8.18266 118.234 0.133575
8675 2 10.0025 118.222 1.46503
8727 2 7.27563 116.65 1.44331
5562 1 10.9121 116.663 0.111947
2469 1 2.72384 121.376 0.174414
8754 2 1.81692 119.793 1.48595
2468 1 5.45323 119.805 0.154415
8715 2 4.54385 121.364 1.50602
8730 2 7.27316 119.793 1.48595
2425 1 8.18007 121.376 0.174414
8674 2 10.0001 121.364 1.50602
5563 1 10.9095 119.805 0.154415
2456 1 2.72144 124.516 0.211709
8755 2 1.81458 122.934 1.5252
2471 1 5.45073 122.946 0.193524
8714 2 4.54159 124.505 1.54344
8713 2 7.27082 122.934 1.5252
2424 1 8.17768 124.516 0.211709
8667 2 9.99783 124.505 1.54344
5558 1 10.907 122.946 0.193524
2455 1 2.71927 127.655 0.24518
8746 2 1.81242 126.075 1.56072
2454 1 5.44844 126.086 0.228936
8700 2 4.53953 127.645 1.57701
8716 2 7.26866 126.075 1.56072
2410 1 8.1755 127.655 0.24518
8666 2 9.99577 127.645 1.57701
5559 1 10.9047 126.086 0.228936
2445 1 2.71734 130.793 0.274644
8747 2 1.81047 129.215 1.5923
2457 1 5.44639 129.224 0.260421
8699 2 4.53769 130.784 1.60655
8698 2 7.2667 129.215 1.5923
2409 1 8.17358 130.793 0.274644
8651 2 9.99393 130.784 1.60655
5557 1 10.9026 129.224 0.260421
2466 1 0.910734 115.061 2.68643
2462 1 1.82088 113.46 5.24486
8725 2 2.7293 115.048 3.98755
8764 2 0.0026593 113.475 3.96424
2430 1 6.36697 115.061 2.68643
2476 1 3.64029 113.489 2.66314
2418 1 4.54743 115.033 5.26831
8724 2 5.4589 113.475 3.96424
2429 1 9.09653 113.489 2.66314
2364 1 10.0037 115.033 5.26831
2428 1 7.27712 113.46 5.24486
8673 2 8.18554 115.048 3.98755
2465 1 0.90794 118.206 2.73091
2464 1 3.63744 116.634 2.70905
2463 1 1.81778 116.606 5.29105
8711 2 2.72645 118.193 4.03203
2422 1 6.36418 118.206 2.73091
2417 1 4.54441 118.179 5.31301
8726 2 5.45598 116.621 4.01017
2416 1 7.27402 116.606 5.29105
2431 1 9.09368 116.634 2.70905
2363 1 10.0007 118.179 5.31301
8672 2 8.18269 118.193 4.03203
12016 2 10.9122 116.621 4.01017
2452 1 0.905303 121.349 2.77215
2467 1 3.63472 119.778 2.75196
2448 1 1.81486 119.751 5.33414
8710 2 2.72376 121.337 4.07326
2421 1 6.36154 121.349 2.77215
2403 1 4.5416 121.324 5.35438
8709 2 5.4532 119.765 4.05308
2419 1 7.2711 119.751 5.33414
2420 1 9.09096 119.778 2.75196
2362 1 9.99784 121.324 5.35438
8665 2 8.18 121.337 4.07326
12017 2 10.9094 119.765 4.05308
2451 1 0.902865 124.491 2.80976
2450 1 3.63218 122.92 2.79143
2449 1 1.81216 122.896 5.37371
8696 2 2.72129 124.48 4.11085
2407 1 6.3591 124.491 2.80976
2402 1 4.53903 124.468 5.39207
8712 2 5.45062 122.909 4.09253
2401 1 7.2684 122.896 5.37371
2423 1 9.08841 122.92 2.79143
2355 1 9.99527 124.468 5.39207
8664 2 8.17753 124.48 4.11085
12008 2 10.9069 122.909 4.09253
2444 1 0.900659 127.633 2.84346
2453 1 3.62985 126.062 2.82711
2440 1 1.80973 126.04 5.40944
8695 2 2.71906 127.623 4.14454
2406 1 6.3569 127.633 2.84346
2388 1 4.53673 127.612 5.42581
8694 2 5.44826 126.052 4.12819
2404 1 7.26597 126.04 5.40944
2405 1 9.08609 126.062 2.82711
2354 1 9.99297 127.612 5.42581
8650 2 8.1753 127.623 4.14454
12009 2 10.9045 126.052 4.12819
2443 1 0.89871 130.774 2.8731
2442 1 3.62777 129.203 2.8588
2441 1 1.80757 129.184 5.44115
8685 2 2.7171 130.765 4.17415
2389 1 6.35495 130.774 2.8731
2387 1 4.53472 130.756 5.45546
8697 2 5.44617 129.194 4.15986
2386 1 7.26381 129.184 5.44115
2408 1 9.08401 129.203 2.8588
2340 1 9.99096 130.756 5.45546
8649 2 8.17334 130.765 4.17415
12007 2 10.9024 129.194 4.15986
2414 1 2.72739 115.006 7.84564
2461 1 0.000946233 113.433 7.82216
8703 2 1.81891 113.419 9.11072
8707 2 0.909303 115.02 6.55981
2413 1 5.45718 113.433 7.82216
8658 2 4.54534 114.993 9.13405
8670 2 6.36554 115.02 6.55981
8723 2 3.63903 113.447 6.53645
2361 1 8.18363 115.006 7.84564
8616 2 10.0016 114.993 9.13405
8668 2 7.27515 113.419 9.11072
8669 2 9.09526 113.447 6.53645
2399 1 2.7242 118.153 7.89033
8704 2 1.81559 116.566 9.15663
8706 2 0.90624 118.166 6.60432
8705 2 3.63587 116.593 6.58245
2415 1 5.45388 116.579 7.86839
8657 2 4.54214 118.14 9.17841
8662 2 6.36248 118.166 6.60432
8656 2 7.27182 116.566 9.15663
2360 1 8.18044 118.153 7.89033
8615 2 9.99838 118.14 9.17841
8671 2 9.0921 116.593 6.58245
5518 1 10.9101 116.579 7.86839
2398 1 2.72128 121.299 7.93161
8688 2 1.81253 119.713 9.19934
8692 2 0.903406 121.312 6.64551
8708 2 3.63291 119.739 6.62535
2397 1 5.45083 119.726 7.91142
8643 2 4.53924 121.287 9.21938
8661 2 6.35964 121.312 6.64551
8659 2 7.26877 119.713 9.19934
2353 1 8.17752 121.299 7.93161
8614 2 9.99547 121.287 9.21938
8660 2 9.08915 119.739 6.62535
5519 1 10.9071 119.726 7.91142
2384 1 2.71865 124.445 7.96916
8689 2 1.80978 122.861 9.2385
8691 2 0.900833 124.457 6.68301
8690 2 3.6302 122.884 6.66474
2400 1 5.44805 122.872 7.95087
8647 2 6.35707 124.457 6.68301
8641 2 7.26602 122.861 9.2385
2352 1 8.17489 124.445 7.96916
8663 2 9.08644 122.884 6.66474
5510 1 10.9043 122.872 7.95087
2383 1 2.71632 127.592 8.00277
8684 2 0.898544 127.602 6.71661
8693 2 3.62777 126.029 6.70031
2382 1 5.44557 126.018 7.98647
8646 2 6.35478 127.602 6.71661
2339 1 8.17256 127.592 8.00277
8645 2 9.08401 126.029 6.70031
5511 1 10.9018 126.018 7.98647
2373 1 2.71431 130.738 8.03228
8683 2 0.896549 130.747 6.74613
8682 2 3.62563 129.174 6.73188
2385 1 5.4434 129.165 8.01804
8632 2 6.35279 130.747 6.74613
2338 1 8.17055 130.738 8.03228
8648 2 9.08187 129.174 6.73188
5509 1 10.8996 129.165 8.01804
2395 1 0.907039 114.979 10.4218
8654 2 2.72485 114.966 11.7092
2393 1 3.63348 116.553 10.4444
2358 1 6.36328 114.979 10.4218
8655 2 5.45131 116.54 11.7317
8613 2 8.18109 114.966 11.7092
2359 1 9.08972 116.553 10.4444
11950 2 10.9075 116.54 11.7317
2394 1 0.903767 118.127 10.4662
8639 2 2.72162 118.114 11.7533
2396 1 3.63037 119.701 10.4872
2350 1 6.36001 118.127 10.4662
8637 2 5.44825 119.688 11.774
8612 2 8.17785 118.114 11.7533
2348 1 9.08661 119.701 10.4872
11951 2 10.9045 119.688 11.774
2380 1 0.900818 121.275 10.5072
8638 2 2.71873 121.263 11.7938
2378 1 3.62759 122.849 10.5263
2349 1 6.35706 121.275 10.5072
8640 2 5.44554 122.837 11.8127
8606 2 8.17497 121.263 11.7938
2351 1 9.08383 122.849 10.5263
11942 2 10.9018 122.837 11.8127
2379 1 0.898206 124.423 10.5444
8627 2 2.7162 124.412 11.8307
2381 1 3.62515 125.997 10.5616
8642 2 4.53664 124.434 9.25666
2336 1 6.35444 124.423 10.5444
8625 2 5.44318 125.987 11.8477
8608 2 9.99288 124.434 9.25666
8605 2 8.17244 124.412 11.8307
2334 1 9.08138 125.997 10.5616
11943 2 10.8994 125.987 11.8477
8680 2 1.80734 126.008 9.27384
2372 1 0.89593 127.571 10.5777
8626 2 2.714 127.562 11.8637
8681 2 1.80522 129.155 9.30519
2370 1 3.62303 129.146 10.5928
8631 2 4.53436 127.582 9.29002
8644 2 7.26358 126.008 9.27384
2335 1 6.35217 127.571 10.5777
8629 2 7.26146 129.155 9.30519
8628 2 5.44115 129.137 11.8787
8607 2 9.9906 127.582 9.29002
8599 2 8.17024 127.562 11.8637
2337 1 9.07927 129.146 10.5928
11941 2 10.8974 129.137 11.8787
2371 1 0.893979 130.72 10.607
8620 2 2.71214 130.712 11.8927
9111 2 1.80341 132.303 9.33245
2796 1 3.62124 132.295 10.62
8630 2 4.53239 130.729 9.31933
2325 1 6.35022 130.72 10.607
9076 2 7.25965 132.303 9.33245
9061 2 5.43944 132.287 11.9056
8600 2 9.98863 130.729 9.31933
8598 2 8.16837 130.712 11.8927
2741 1 9.07748 132.295 10.62
12374 2 10.8957 132.287 11.9056
2342 1 2.72162 114.925 15.5739
8635 2 0.904054 114.938 14.285
2392 1 1.81281 116.526 13.0202
8633 2 3.63054 116.513 14.3071
2346 1 4.54261 114.952 12.9978
8610 2 6.36029 114.938 14.285
2343 1 5.44812 116.5 15.596
2344 1 7.26905 116.526 13.0202
2313 1 8.17786 114.925 15.5739
2316 1 9.99885 114.952 12.9978
5446 1 10.9044 116.5 15.596
8611 2 9.08678 116.513 14.3071
2328 1 2.71849 118.075 15.6172
8634 2 0.900885 118.088 14.3284
2376 1 1.80975 119.676 13.0624
8636 2 3.62757 119.663 14.3489
2345 1 4.53935 118.101 13.0417
8603 2 6.35712 118.088 14.3284
2326 1 5.44521 119.65 15.6375
2347 1 7.26598 119.676 13.0624
5447 1 10.9014 119.65 15.6375
2312 1 8.17473 118.075 15.6172
2315 1 9.99559 118.101 13.0417
8601 2 9.08381 119.663 14.3489
8621 2 3.62501 122.814 14.387
2327 1 2.71579 121.226 15.657
8623 2 0.898124 121.239 14.3684
2377 1 1.80706 122.826 13.101
2330 1 7.2633 122.826 13.101
2332 1 4.53648 121.251 13.0822
8602 2 6.35436 121.239 14.3684
2329 1 5.44272 122.802 15.6755
8604 2 9.08125 122.814 14.387
5438 1 10.899 122.802 15.6755
2309 1 8.17203 121.226 15.657
2314 1 9.99271 121.251 13.0822
8624 2 3.62281 125.966 14.4214
2368 1 1.80474 125.976 13.1358
2320 1 2.7135 124.379 15.693
8622 2 0.895746 124.39 14.4047
2333 1 7.26098 125.976 13.1358
2318 1 5.44061 125.955 15.7096
8596 2 6.35198 124.39 14.4047
2331 1 4.53398 124.401 13.1189
8594 2 9.07905 125.966 14.4214
2311 1 9.99021 124.401 13.1189
2308 1 8.16974 124.379 15.693
5439 1 10.8969 125.955 15.7096
8617 2 3.62095 129.118 14.452
2369 1 1.80276 129.127 13.1667
8619 2 0.893721 127.542 14.4372
2319 1 2.71157 127.532 15.7253
2322 1 7.259 129.127 13.1667
2321 1 5.43884 129.109 15.7399
8595 2 6.34996 127.542 14.4372
2324 1 4.53183 127.552 13.1518
8597 2 9.07719 129.118 14.452
2310 1 9.98807 127.552 13.1518
2306 1 8.16781 127.532 15.7253
5437 1 10.8951 129.109 15.7399
8618 2 0.892018 130.695 14.4657
2317 1 2.70996 130.686 15.7536
2775 1 1.8011 132.279 13.1935
9060 2 3.6194 132.271 14.4785
2740 1 7.25734 132.279 13.1935
2725 1 5.43738 132.263 15.7663
8593 2 6.34826 130.695 14.4657
2323 1 4.53001 130.703 13.1806
9017 2 9.07564 132.271 14.4785
5846 1 10.8936 132.263 15.7663
2305 1 8.16619 130.686 15.7536
2307 1 9.98625 130.703 13.1806
2686 1 0.900329 114.896 18.1502
8976 2 1.80952 116.486 16.8828
2684 1 3.62695 116.472 18.1718
8962 2 4.53919 114.911 16.861
2663 1 6.35657 114.896 18.1502
8960 2 7.26576 116.486 16.8828
8916 2 9.99543 114.911 16.861
2664 1 9.08319 116.472 18.1718
2685 1 0.897457 118.048 18.1926
8972 2 1.80678 119.638 16.9238
2687 1 3.62432 119.625 18.2125
8961 2 4.53621 118.062 16.9037
2659 1 6.3537 118.048 18.1926
8963 2 7.26301 119.638 16.9238
8915 2 9.99245 118.062 16.9037
2657 1 9.08056 119.625 18.2125
2679 1 0.895061 121.202 18.2315
8973 2 1.80446 122.791 16.9612
2677 1 3.62214 122.779 18.2495
8954 2 4.53368 121.214 16.9429
2658 1 6.3513 121.202 18.2315
8952 2 7.26069 122.791 16.9612
8914 2 9.98992 121.214 16.9429
2660 1 9.07838 122.779 18.2495
2678 1 0.893074 124.357 18.2667
8968 2 1.80251 125.945 16.9949
2680 1 3.62033 125.934 18.283
8953 2 4.53156 124.368 16.9785
2647 1 6.34931 124.357 18.2667
8955 2 7.25875 125.945 16.9949
8907 2 9.9878 124.368 16.9785
2645 1 9.07657 125.934 18.283
2672 1 0.891433 127.512 18.2983
8969 2 1.80089 129.1 17.0249
2670 1 3.61884 129.091 18.3126
2646 1 6.34767 127.512 18.2983
8940 2 4.52978 127.522 17.0104
8938 2 7.25713 129.1 17.0249
8906 2 9.98602 127.522 17.0104
2648 1 9.07508 129.091 18.3126
2671 1 0.890085 130.669 18.3261
9383 2 1.79955 132.255 17.0509
3072 1 3.61763 132.247 18.3385
2629 1 6.34632 130.669 18.3261
8939 2 4.52831 130.678 17.0384
9372 2 7.25579 132.255 17.0509
8891 2 9.98455 130.678 17.0384
3046 1 9.07386 132.247 18.3385
8958 2 2.71784 114.882 19.4371
8946 2 0.896337 114.852 22.013
2683 1 1.80563 116.444 20.7475
8944 2 3.62329 116.429 22.0337
8959 2 5.44457 116.458 19.4584
2655 1 4.53506 114.867 20.7264
8910 2 6.35258 114.852 22.013
2653 1 7.26187 116.444 20.7475
8913 2 8.17408 114.882 19.4371
2604 1 9.99129 114.867 20.7264
8911 2 9.07953 116.429 22.0337
12234 2 10.9008 116.458 19.4584
8950 2 2.71518 118.035 19.4789
8945 2 0.894138 118.007 22.0536
2675 1 1.80342 119.599 20.7871
8947 2 3.62134 119.585 22.0727
8948 2 5.44216 119.612 19.4984
2654 1 4.53258 118.021 20.7677
8902 2 6.35038 118.007 22.0536
2656 1 7.25966 119.599 20.7871
8912 2 8.17142 118.035 19.4789
2603 1 9.98882 118.021 20.7677
8900 2 9.07758 119.585 22.0727
12235 2 10.8984 119.612 19.4984
8949 2 2.713 121.189 19.5172
8932 2 0.892409 121.164 22.0909
2676 1 1.80164 122.755 20.8232
8930 2 3.61981 122.743 22.1083
8951 2 5.44018 122.767 19.535
2643 1 4.5306 121.177 20.8055
8901 2 6.34865 121.164 22.0909
2641 1 7.25788 122.755 20.8232
8905 2 8.16924 121.189 19.5172
2602 1 9.98684 121.177 20.8055
8903 2 9.07605 122.743 22.1083
12230 2 10.8964 122.767 19.535
8936 2 2.71122 124.345 19.5519
8931 2 0.891048 124.323 22.1248
2668 1 1.80021 125.913 20.8558
8933 2 3.6186 125.903 22.1404
8934 2 5.43857 125.924 19.5679
2642 1 4.529 124.334 20.8399
8887 2 6.34729 124.323 22.1248
2644 1 7.25645 125.913 20.8558
8904 2 8.16746 124.345 19.5519
2595 1 9.98524 124.334 20.8399
8885 2 9.07484 125.903 22.1404
12231 2 10.8948 125.924 19.5679
8935 2 2.70976 127.503 19.583
8924 2 0.88997 127.483 22.1551
2669 1 1.79906 129.072 20.8847
8922 2 3.61764 129.063 22.169
8937 2 5.43726 129.081 19.5972
2628 1 4.52772 127.493 20.8707
8886 2 6.34621 127.483 22.1551
2626 1 7.2553 129.072 20.8847
8890 2 8.166 127.503 19.583
2594 1 9.98396 127.493 20.8707
8888 2 9.07388 129.063 22.169
12229 2 10.8935 129.081 19.5972
8925 2 2.70857 130.661 19.6105
8923 2 0.889115 130.644 22.1819
3066 1 1.79814 132.232 20.91
9364 2 3.61687 132.224 22.1939
2627 1 4.52669 130.652 20.8978
8869 2 6.34535 130.644 22.1819
9365 2 5.43619 132.24 19.6228
3045 1 7.25438 132.232 20.91
8889 2 8.16481 130.661 19.6105
2579 1 9.98293 130.652 20.8978
9317 2 9.07311 132.224 22.1939
12646 2 10.8924 132.24 19.6228
2635 1 0.89193 114.804 25.8773
2651 1 2.71345 114.836 23.3023
8943 2 1.80209 116.399 24.6085
2633 1 3.61935 116.383 25.8971
2598 1 6.34817 114.804 25.8773
8898 2 4.53107 114.82 24.5884
2652 1 5.44053 116.414 23.3227
8896 2 7.25832 116.399 24.6085
2601 1 8.16969 114.836 23.3023
8844 2 9.98731 114.82 24.5884
2599 1 9.07559 116.383 25.8971
5745 1 10.8968 116.414 23.3227
2634 1 0.890653 117.963 25.9161
2639 1 2.71151 117.993 23.3423
8928 2 1.8007 119.558 24.6463
2590 1 6.34689 117.963 25.9161
8897 2 4.52946 117.978 24.6278
2637 1 5.43885 119.572 23.3611
8899 2 7.25694 119.558 24.6463
2600 1 8.16775 117.993 23.3423
8843 2 9.9857 117.978 24.6278
5746 1 10.8951 119.572 23.3611
2638 1 2.71004 121.151 23.379
8929 2 1.79968 122.719 24.6808
8883 2 4.52827 121.138 24.6639
2640 1 5.43756 122.731 23.3962
8881 2 7.25592 122.719 24.6808
2593 1 8.16628 121.151 23.379
8842 2 9.98451 121.138 24.6639
5738 1 10.8938 122.731 23.3962
2624 1 2.70892 124.311 23.4124
8920 2 1.79892 125.881 24.7121
8882 2 4.52739 124.3 24.6969
2622 1 5.43657 125.892 23.4279
8884 2 7.25516 125.881 24.7121
2592 1 8.16515 124.311 23.4124
8835 2 9.98363 124.3 24.6969
5739 1 10.8928 125.892 23.4279
2623 1 2.70805 127.473 23.4424
8921 2 1.79835 129.044 24.7399
8868 2 4.52674 127.463 24.7264
2625 1 5.43581 129.054 23.4561
8866 2 7.25459 129.044 24.7399
2578 1 8.16428 127.473 23.4424
8834 2 9.98298 127.463 24.7264
5737 1 10.892 129.054 23.4561
2613 1 2.70737 130.635 23.4689
9350 2 1.79792 132.209 24.7643
8867 2 4.52624 130.626 24.7526
3034 1 5.43521 132.216 23.4808
9316 2 7.25416 132.209 24.7643
2577 1 8.16361 130.635 23.4689
8820 2 9.98248 130.626 24.7526
6137 1 10.8914 132.216 23.4808
8894 2 2.70978 114.787 27.1628
2632 1 1.79853 116.351 28.4703
2586 1 4.52697 114.77 28.4513
8895 2 5.43738 116.367 27.1822
2584 1 7.25477 116.351 28.4703
12190 2 10.8936 116.367 27.1822
2538 1 9.9832 114.77 28.4513
8841 2 8.16602 114.787 27.1628
2636 1 3.61829 119.544 25.9343
8879 2 2.70885 117.948 27.2009
2616 1 1.79816 119.515 28.5063
2585 1 4.52643 117.933 28.4887
8877 2 5.43664 119.53 27.2188
2587 1 7.25439 119.515 28.5063
12191 2 10.8929 119.53 27.2188
2588 1 9.07453 119.544 25.9343
2537 1 9.98267 117.933 28.4887
8840 2 8.16509 117.948 27.2009
2620 1 0.889771 121.125 25.9517
2618 1 3.61756 122.706 25.9683
8878 2 2.70826 121.112 27.236
2617 1 1.79801 122.681 28.5394
2589 1 6.34601 121.125 25.9517
2571 1 4.52618 121.098 28.5232
8880 2 5.43618 122.694 27.2524
2569 1 7.25425 122.681 28.5394
12182 2 10.8924 122.694 27.2524
2591 1 9.0738 122.706 25.9683
2536 1 9.98242 121.098 28.5232
8833 2 8.1645 121.112 27.236
2619 1 0.889162 124.288 25.9841
2621 1 3.61705 125.87 25.9991
8864 2 2.7079 124.276 27.268
2608 1 1.79799 125.848 28.5694
2575 1 6.3454 124.288 25.9841
2570 1 4.52611 124.264 28.5548
8862 2 5.4359 125.859 27.2828
2572 1 7.25423 125.848 28.5694
12183 2 10.8921 125.859 27.2828
2573 1 9.07329 125.87 25.9991
2529 1 9.98234 124.264 28.5548
8832 2 8.16414 124.276 27.268
2612 1 0.888736 127.452 26.0133
2610 1 3.61669 129.035 26.0267
8863 2 2.70768 127.442 27.2969
2609 1 1.79804 129.016 28.5963
2574 1 6.34497 127.452 26.0133
2557 1 4.52613 127.432 28.5833
8865 2 5.43573 129.026 27.31
2555 1 7.25428 129.016 28.5963
12181 2 10.892 129.026 27.31
2576 1 9.07293 129.035 26.0267
2528 1 9.98237 127.432 28.5833
8819 2 8.16392 127.442 27.2969
2611 1 0.888433 130.618 26.0392
8853 2 2.70755 130.609 27.3224
3033 1 3.61643 132.201 26.0508
3015 1 1.79812 132.185 28.6199
2558 1 6.34467 130.618 26.0392
2556 1 4.5262 130.6 28.6085
9301 2 5.43563 132.193 27.3339
2980 1 7.25436 132.185 28.6199
2517 1 9.98244 130.6 28.6085
8818 2 8.16379 130.609 27.3224
2981 1 9.07267 132.201 26.0508
12613 2 10.8919 132.193 27.3339
2582 1 2.70634 114.734 31.0236
8875 2 0.88893 114.752 29.7359
8872 2 1.79715 116.301 32.3255
8873 2 3.61691 116.335 29.7547
8826 2 4.52502 114.716 32.3072
8838 2 6.34517 114.752 29.7359
2583 1 5.43454 116.318 31.0421
8824 2 7.25339 116.301 32.3255
5686 1 10.8908 116.318 31.0421
2535 1 8.16258 114.734 31.0236
8796 2 9.98126 114.716 32.3072
8839 2 9.07315 116.335 29.7547
2567 1 2.70656 117.902 31.0599
8874 2 0.888734 117.917 29.7728
8856 2 1.79774 119.471 32.3601
8876 2 3.61685 119.501 29.7902
8825 2 4.52555 117.886 32.3431
8830 2 6.34497 117.917 29.7728
2565 1 5.43486 119.486 31.077
8827 2 7.25398 119.471 32.3601
5687 1 10.8911 119.486 31.077
2534 1 8.1628 117.902 31.0599
8795 2 9.98179 117.886 32.3431
8828 2 9.07309 119.501 29.7902
2566 1 2.70695 121.07 31.0935
8860 2 0.888767 121.084 29.8069
8857 2 1.79839 122.642 32.392
8858 2 3.61695 122.668 29.8229
8812 2 4.52618 121.056 32.3764
8829 2 6.34501 121.084 29.8069
2568 1 5.43529 122.655 31.1092
8810 2 7.25462 122.642 32.392
5678 1 10.8915 122.655 31.1092
2527 1 8.16318 121.07 31.0935
8794 2 9.98242 121.056 32.3764
8831 2 9.07319 122.668 29.8229
2553 1 2.70739 124.24 31.1243
8859 2 0.888926 124.252 29.8381
8848 2 1.79902 125.814 32.4211
8861 2 3.61715 125.837 29.8526
8811 2 4.52683 124.228 32.4069
8816 2 6.34516 124.252 29.8381
2551 1 5.43574 125.826 31.1386
8813 2 7.25526 125.814 32.4211
5679 1 10.892 125.826 31.1386
2526 1 8.16363 124.24 31.1243
8791 2 9.98307 124.228 32.4069
8814 2 9.07339 125.837 29.8526
2552 1 2.70785 127.411 31.1521
8852 2 0.889142 127.422 29.8662
8849 2 1.79961 128.987 32.4472
8850 2 3.61738 129.007 29.8791
8804 2 4.52744 127.401 32.4345
8815 2 6.34538 127.422 29.8662
2554 1 5.43618 128.997 31.1649
8802 2 7.25585 128.987 32.4472
5677 1 10.8924 128.997 31.1649
2516 1 8.16409 127.411 31.1521
8790 2 9.98368 127.401 32.4345
8817 2 9.07361 129.007 29.8791
2544 1 2.70827 130.583 31.1769
8851 2 0.88937 130.592 29.8912
9279 2 1.80013 132.161 32.4701
9300 2 3.6176 132.177 29.9025
8803 2 4.528 130.574 32.459
8805 2 6.34561 130.592 29.8912
2965 1 5.43658 132.169 31.188
9244 2 7.25637 132.161 32.4701
2515 1 8.16451 130.583 31.1769
8787 2 9.98424 130.574 32.459
6086 1 10.8928 132.169 31.188
9245 2 9.07384 132.177 29.9025
2563 1 0.886553 114.698 33.594
8822 2 2.70583 114.68 34.8764
2561 1 3.61514 116.284 33.612
2532 1 6.34279 114.698 33.594
8823 2 5.43454 116.266 34.8943
12118 2 10.8908 116.266 34.8943
8793 2 8.16207 114.68 34.8764
2533 1 9.07137 116.284 33.612
2564 1 3.6161 119.456 33.6461
2562 1 0.887496 117.87 33.6293
8808 2 2.70701 117.853 34.9115
8806 2 5.43571 119.441 34.9282
2524 1 6.34373 117.87 33.6293
12119 2 10.8919 119.441 34.9282
2522 1 9.07234 119.456 33.6461
8792 2 8.16325 117.853 34.9115
2547 1 3.61705 122.629 33.6777
2549 1 0.88846 121.042 33.6622
8807 2 2.70816 121.028 34.9442
8809 2 5.43683 122.616 34.9596
2523 1 6.3447 121.042 33.6622
12110 2 10.8931 122.616 34.9596
2525 1 9.07329 122.629 33.6777
8789 2 8.1644 121.028 34.9442
2550 1 3.61793 125.803 33.7065
8800 2 2.70923 124.204 34.9743
2548 1 0.88938 124.216 33.6924
8798 2 5.43785 125.792 34.9883
2513 1 6.34562 124.216 33.6924
12111 2 10.8941 125.792 34.9883
2511 1 9.07417 125.803 33.7065
8788 2 8.16547 124.204 34.9743
2541 1 3.61872 128.978 33.7323
8799 2 2.71019 127.38 35.0015
2543 1 0.890217 127.39 33.7198
8801 2 5.43875 128.968 35.014
2512 1 6.34646 127.39 33.7198
2514 1 9.07495 128.978 33.7323
8786 2 8.16643 127.38 35.0015
12109 2 10.895 128.968 35.014
8797 2 2.71103 130.557 35.0257
2542 1 0.890949 130.565 33.7441
2964 1 3.61939 132.153 33.7551
2506 1 6.34719 130.565 33.7441
9229 2 5.43952 132.145 35.0367
8785 2 8.16727 130.557 35.0257
12542 2 10.8958 132.145 35.0367
2915 1 9.07563 132.153 33.7551
8998 2 0.887779 114.642 37.4432
14631 1 2.7066 114.623 38.7277
2560 1 1.79674 116.249 36.1798
8996 2 3.61676 116.231 37.4609
8987 2 6.34402 114.642 37.4432
2520 1 4.52408 114.661 36.1621
15016 1 5.43575 116.213 38.7453
2518 1 7.25298 116.249 36.1798
2502 1 9.98031 114.661 36.1621
14601 1 8.16284 114.623 38.7277
8988 2 9.073 116.231 37.4609
17844 1 10.892 116.213 38.7453
8997 2 0.889479 117.82 37.478
15017 1 2.70862 117.804 38.7623
2545 1 1.79825 119.425 36.2134
8999 2 3.6184 119.41 37.4945
8984 2 6.34572 117.82 37.478
2519 1 4.52563 117.837 36.1969
15018 1 5.43767 119.394 38.7787
2521 1 7.25449 119.425 36.2134
14982 1 8.16485 117.804 38.7623
2501 1 9.98187 117.837 36.1969
8982 2 9.07464 119.41 37.4945
17842 1 10.8939 119.394 38.7787
8994 2 0.891047 120.999 37.5104
15013 1 2.71043 120.985 38.7946
2546 1 1.79964 122.602 36.2445
8992 2 3.61989 122.589 37.5256
8983 2 6.34728 120.999 37.5104
2509 1 4.52708 121.014 36.2293
15011 1 5.43937 122.576 38.8097
2507 1 7.25588 122.602 36.2445
14981 1 8.16667 120.985 38.7946
2500 1 9.98332 121.014 36.2293
8985 2 9.07613 122.589 37.5256
17843 1 10.8956 122.576 38.8097
8993 2 0.892455 124.179 37.5402
15012 1 2.71203 124.166 38.8242
2539 1 1.80087 125.78 36.273
8995 2 3.62121 125.769 37.5541
8980 2 6.34869 124.179 37.5402
2508 1 4.52839 124.191 36.2591
15014 1 5.44087 125.757 38.8381
2510 1 7.25711 125.78 36.273
14976 1 8.16827 124.166 38.8242
2499 1 9.98463 124.191 36.2591
8978 2 9.07745 125.769 37.5541
17840 1 10.8971 125.757 38.8381
8991 2 0.89369 127.359 37.5672
15002 1 2.71342 127.348 38.8512
2540 1 1.80194 128.958 36.2986
8989 2 3.62236 128.949 37.5796
8979 2 6.34993 127.359 37.5672
15000 1 5.44215 128.939 38.8635
2505 1 4.52955 127.369 36.2861
2503 1 7.25818 128.958 36.2986
14975 1 8.16966 127.348 38.8512
2498 1 9.98579 127.369 36.2861
8981 2 9.0786 128.949 37.5796
17841 1 10.8984 128.939 38.8635
8990 2 0.894748 130.539 37.5912
15001 1 2.7146 130.53 38.8751
2943 1 1.80285 132.137 36.3211
9408 2 3.62333 132.129 37.6021
8977 2 6.35099 130.539 37.5912
15003 1 5.44323 132.121 38.886
2504 1 4.53054 130.548 36.3102
2914 1 7.25909 132.137 36.3211
14962 1 8.17084 130.53 38.8751
2497 1 9.98678 130.548 36.3102
17839 1 10.8995 132.121 38.886
9394 2 9.07957 132.129 37.6021
20639 2 1.80018 116.195 40.0252
14629 1 0.890477 114.585 41.2907
20229 2 2.7118 114.566 42.5692
15015 1 3.61977 116.177 41.3084
20621 2 5.44106 116.16 42.5872
14581 1 6.34672 114.585 41.2907
20243 2 4.52725 114.604 40.0075
20628 2 7.25642 116.195 40.0252
14978 1 9.07601 116.177 41.3084
20193 2 8.16804 114.566 42.5692
20195 2 9.98349 114.604 40.0075
23458 2 10.8973 116.16 42.5872
20640 2 1.80213 119.379 40.0589
15009 1 0.892757 117.77 41.3256
15007 1 3.62192 119.363 41.3421
20626 2 4.5293 117.787 40.0423
14979 1 6.349 117.77 41.3256
20624 2 7.25837 119.379 40.0589
14980 1 9.07816 119.363 41.3421
20580 2 9.98554 117.787 40.0423
20636 2 1.80388 122.562 40.09
15008 1 0.894784 120.956 41.358
15010 1 3.62382 122.548 41.3733
20625 2 4.53115 120.97 40.0748
14973 1 6.35102 120.956 41.358
20627 2 7.26012 122.562 40.09
14971 1 9.08006 122.548 41.3733
20579 2 9.98739 120.97 40.0748
20637 2 1.80541 125.745 40.1184
14998 1 0.896561 124.141 41.3878
14996 1 3.62548 125.734 41.4017
20618 2 4.53279 124.154 40.1046
14972 1 6.3528 124.141 41.3878
20616 2 7.26165 125.745 40.1184
14974 1 9.08172 125.734 41.4017
20578 2 9.98903 124.154 40.1046
20632 2 1.80673 128.929 40.1439
14997 1 0.898095 127.326 41.4148
14999 1 3.62689 128.919 41.4272
20617 2 4.53421 127.337 40.1315
14959 1 6.35433 127.326 41.4148
20619 2 7.26297 128.929 40.1439
14957 1 9.08313 128.919 41.4272
20571 2 9.99045 127.337 40.1315
20633 2 1.80784 132.113 40.1664
14990 1 0.899396 130.512 41.4388
14988 1 3.62808 132.104 41.4497
14958 1 6.35563 130.512 41.4388
20604 2 4.53543 130.521 40.1555
20602 2 7.26408 132.113 40.1664
14960 1 9.08432 132.104 41.4497
20570 2 9.99167 130.521 40.1555
15005 1 1.80503 116.142 43.8693
20227 2 0.897656 114.528 45.1285
20620 2 3.62692 116.124 45.1469
14579 1 4.53194 114.546 43.8512
20174 2 6.35389 114.528 45.1285
14977 1 7.26127 116.142 43.8693
20573 2 9.08315 116.124 45.1469
14531 1 9.98818 114.546 43.8512
20622 2 2.71403 117.754 42.6046
15006 1 1.80726 119.332 43.9036
20610 2 0.899883 117.72 45.1647
20608 2 3.62903 119.316 45.1818
20623 2 5.44318 119.347 42.6213
14969 1 4.5343 117.737 43.8867
20574 2 6.35612 117.72 45.1647
14967 1 7.2635 119.332 43.9036
20577 2 8.17027 117.754 42.6046
14916 1 9.99054 117.737 43.8867
20575 2 9.08527 119.316 45.1818
23454 2 10.8994 119.347 42.6213
20614 2 2.71602 120.941 42.6373
14994 1 1.80923 122.521 43.9352
20609 2 0.901886 120.912 45.1981
20611 2 3.63092 122.507 45.2138
20612 2 5.44505 122.535 42.6527
14968 1 4.5364 120.926 43.9197
20566 2 6.35812 120.912 45.1981
14970 1 7.26547 122.521 43.9352
20576 2 8.17226 120.941 42.6373
14915 1 9.99263 120.926 43.9197
20564 2 9.08716 122.507 45.2138
23455 2 10.9013 122.535 42.6527
20613 2 2.71778 124.128 42.6674
14995 1 1.81094 125.71 43.9639
20596 2 0.90366 124.103 45.2287
20594 2 3.63258 125.698 45.2428
20615 2 5.44669 125.722 42.6813
14955 1 4.53823 124.116 43.9499
20565 2 6.3599 124.103 45.2287
14953 1 7.26718 125.71 43.9639
20569 2 8.17402 124.128 42.6674
14914 1 9.99447 124.116 43.9499
20567 2 9.08882 125.698 45.2428
23450 2 10.9029 125.722 42.6813
20600 2 2.71931 127.315 42.6945
14986 1 1.81241 128.899 43.9896
20595 2 0.905207 127.294 45.2561
20597 2 3.63402 128.889 45.2687
20598 2 5.44811 128.909 42.707
14954 1 4.53983 127.305 43.9771
20551 2 6.36145 127.294 45.2561
14956 1 7.26865 128.899 43.9896
20568 2 8.17555 127.315 42.6945
14907 1 9.99606 127.305 43.9771
20549 2 9.09025 128.889 45.2687
23451 2 10.9043 128.909 42.707
20599 2 2.72061 130.503 42.7186
14987 1 1.81365 132.088 44.0122
20588 2 0.906532 130.484 45.2805
20586 2 3.63523 132.079 45.2914
20601 2 5.4493 132.096 42.7295
14940 1 4.54118 130.494 44.0013
20550 2 6.36277 130.484 45.2805
14938 1 7.26989 132.088 44.0122
20554 2 8.17685 130.503 42.7186
14906 1 9.99742 130.494 44.0013
20552 2 9.09147 132.079 45.2914
23449 2 10.9055 132.096 42.7295
20606 2 1.81388 116.088 47.7046
14563 1 0.906087 114.471 48.9652
14565 1 2.71844 114.508 46.4093
14963 1 3.63526 116.071 48.9846
14964 1 5.44773 116.106 46.4279
14512 1 6.36233 114.471 48.9652
20172 2 4.54093 114.49 47.6856
20572 2 7.27012 116.088 47.7046
14909 1 9.0915 116.071 48.9846
14529 1 8.17468 114.508 46.4093
20133 2 9.99717 114.49 47.6856
17824 1 10.904 116.106 46.4279
14947 1 0.908147 117.67 49.0032
14965 1 2.72072 117.703 46.4459
20607 2 1.81588 119.285 47.7405
14945 1 3.63723 119.269 49.021
14910 1 6.36439 117.67 49.0032
14966 1 5.44988 119.3 46.4631
20562 2 4.54303 117.687 47.7229
20560 2 7.27212 119.285 47.7405
14911 1 9.09347 119.269 49.021
14913 1 8.17695 117.703 46.4459
20514 2 9.99926 117.687 47.7229
17812 1 10.9061 119.3 46.4631
14946 1 0.910021 120.868 49.038
14951 1 2.72275 120.897 46.4797
20592 2 1.81768 122.48 47.7733
14902 1 6.36626 120.868 49.038
14948 1 3.639 122.466 49.0542
14949 1 5.4518 122.494 46.4954
20561 2 4.54493 120.882 47.7573
20563 2 7.27392 122.48 47.7733
17813 1 10.908 122.494 46.4954
14900 1 9.09524 122.466 49.0542
14912 1 8.17899 120.897 46.4797
20513 2 10.0012 120.882 47.7573
14932 1 0.911701 124.065 49.0696
14950 1 2.72455 124.09 46.5104
20593 2 1.81928 125.675 47.8029
14901 1 6.36794 124.065 49.0696
14930 1 3.64059 125.663 49.0841
14952 1 5.45348 125.687 46.5247
20547 2 4.54663 124.077 47.7885
17804 1 10.9097 125.687 46.5247
14903 1 9.09682 125.663 49.0841
14905 1 8.18079 124.09 46.5104
20512 2 10.0029 124.077 47.7885
20545 2 7.27552 125.675 47.8029
14931 1 0.913184 127.261 49.0978
14936 1 2.72612 127.283 46.5381
20584 2 1.82068 128.869 47.8292
14887 1 6.36942 127.261 49.0978
14933 1 3.64197 128.859 49.1107
14934 1 5.45494 128.879 46.5507
20546 2 4.54813 127.272 47.8165
17805 1 10.9112 128.879 46.5507
14885 1 9.09821 128.859 49.1107
14904 1 8.18236 127.283 46.5381
20505 2 10.0044 127.272 47.8165
20548 2 7.27692 128.869 47.8292
14924 1 0.914471 130.457 49.1227
14935 1 2.72747 130.475 46.5626
20585 2 1.82187 132.063 47.8522
14886 1 6.37071 130.457 49.1227
14922 1 3.64316 132.054 49.1338
14937 1 5.45618 132.071 46.5736
20533 2 4.54942 130.466 47.8411
17803 1 10.9124 132.071 46.5736
14888 1 9.0994 132.054 49.1338
14890 1 8.1837 130.475 46.5626
20504 2 10.0057 130.466 47.8411
20531 2 7.27811 132.063 47.8522
14943 1 1.82371 116.036 51.5396
20605 2 0.00182882 116.053 50.2605
20160 2 2.729 114.453 50.2407
20557 2 5.45807 116.053 50.2605
14510 1 4.55093 114.434 51.5194
14908 1 7.27995 116.036 51.5396
14480 1 10.0072 114.434 51.5194
20131 2 8.18524 114.453 50.2407
14944 1 1.82542 119.238 51.5774
20558 2 2.73086 117.654 50.2795
20590 2 0.00362561 119.254 50.2976
14898 1 4.5527 117.637 51.5589
20559 2 5.45986 119.254 50.2976
14856 1 10.0089 117.637 51.5589
14896 1 7.28166 119.238 51.5774
20511 2 8.1871 117.654 50.2795
14928 1 1.827 122.439 51.6116
20543 2 2.73259 120.853 50.3149
20591 2 0.00527047 122.453 50.3313
14897 1 4.55435 120.839 51.5949
20541 2 5.46151 122.453 50.3313
14855 1 10.0106 120.839 51.5949
14899 1 7.28324 122.439 51.6116
20510 2 8.18883 120.853 50.3149
14929 1 1.82843 125.639 51.6423
20542 2 2.73415 124.052 50.3469
20582 2 0.00675204 125.651 50.3617
14883 1 4.55585 124.039 51.6274
20544 2 5.46299 125.651 50.3617
14854 1 10.0121 124.039 51.6274
14881 1 7.28467 125.639 51.6423
20503 2 8.19039 124.052 50.3469
14920 1 1.82971 128.838 51.6694
20529 2 2.73555 127.25 50.3755
20583 2 0.00806318 128.848 50.3885
14882 1 4.55721 127.239 51.6563
20527 2 5.4643 128.848 50.3885
14848 1 10.0134 127.239 51.6563
14884 1 7.28594 128.838 51.6694
20502 2 8.19179 127.25 50.3755
14921 1 1.83082 132.037 51.693
20528 2 2.73677 130.447 50.4007
20581 2 0.00919969 132.046 50.4119
14871 1 4.5584 130.438 51.6816
20530 2 5.46544 132.046 50.4119
14847 1 10.0146 130.438 51.6816
14869 1 7.28706 132.037 51.693
20492 2 8.19301 130.447 50.4007
14942 1 0.0129023 116.001 54.0933
20535 2 1.83625 115.984 55.3681
14500 1 2.74028 114.397 54.0722
20158 2 0.917902 114.416 52.7942
14893 1 5.46914 116.001 54.0933
20556 2 3.64683 116.019 52.8149
20120 2 4.56369 114.38 55.3466
20122 2 6.37414 114.416 52.7942
20506 2 7.29249 115.984 55.3681
20507 2 9.10307 116.019 52.8149
14478 1 8.19652 114.397 54.0722
20113 2 10.0199 114.38 55.3466
14894 1 2.74175 117.604 54.1133
14926 1 0.0143361 119.207 54.1324
20536 2 1.83755 119.192 55.4079
20539 2 0.919501 117.621 52.8346
14895 1 5.47057 119.207 54.1324
20496 2 4.56503 117.588 55.3885
20508 2 6.37574 117.621 52.8346
20537 2 3.64838 119.223 52.8533
14853 1 8.19799 117.604 54.1133
20478 2 10.0213 117.588 55.3885
20494 2 7.29379 119.192 55.4079
20509 2 9.10462 119.223 52.8533
14879 1 2.74314 120.809 54.1506
14927 1 0.0156902 122.411 54.1678
20521 2 1.8388 122.398 55.4438
20538 2 0.921004 120.824 52.8712
14877 1 5.47193 122.411 54.1678
20495 2 4.56631 120.795 55.4264
20500 2 6.37724 120.824 52.8712
20540 2 3.64983 122.425 52.8881
14852 1 8.19938 120.809 54.1506
20477 2 10.0225 120.795 55.4264
20497 2 7.29504 122.398 55.4438
20498 2 9.10607 122.425 52.8881
14878 1 2.74445 124.013 54.184
14918 1 0.016948 125.615 54.1993
20522 2 1.83997 125.603 55.4758
20525 2 0.922395 124.026 52.9042
14880 1 5.47319 125.615 54.1993
20485 2 4.56752 124 55.4603
20499 2 6.37863 124.026 52.9042
20523 2 3.65116 125.627 52.9193
14846 1 8.20069 124.013 54.184
20476 2 10.0238 124 55.4603
20483 2 7.29621 125.603 55.4758
20501 2 9.1074 125.627 52.9193
14867 1 2.74566 127.216 54.2137
14919 1 0.0180937 128.818 54.2271
20515 2 1.84105 128.807 55.5038
20524 2 0.923661 127.228 52.9334
20526 2 3.65236 128.828 52.9467
20489 2 6.3799 127.228 52.9334
14865 1 5.47433 128.818 54.2271
20484 2 4.56864 127.205 55.4903
20487 2 9.1086 128.828 52.9467
20486 2 7.29729 128.807 55.5038
20475 2 10.0249 127.205 55.4903
14845 1 8.20189 127.216 54.2137
20519 2 0.92479 130.428 52.9591
20516 2 1.84202 132.012 55.5281
14917 1 0.0191131 132.02 54.2511
14866 1 2.74674 130.419 54.2395
20517 2 3.65342 132.029 52.9705
20488 2 6.38103 130.428 52.9591
20481 2 4.56967 130.41 55.5165
14868 1 5.47535 132.02 54.2511
20490 2 9.10966 132.029 52.9705
20479 2 7.29826 132.012 55.5281
20474 2 10.0259 130.41 55.5165
14839 1 8.20298 130.419 54.2395
15191 1 1.84907 115.934 59.1979
20832 2 0.0261536 115.951 57.9204
14498 1 0.930186 114.362 56.624
20439 2 2.75371 114.345 57.8982
14892 1 3.6589 115.967 56.6459
20824 2 5.48239 115.951 57.9204
14795 1 4.5767 114.327 59.1753
14473 1 6.38642 114.362 56.624
14849 1 9.11514 115.967 56.6459
15180 1 7.30531 115.934 59.1979
14747 1 10.0329 114.327 59.1753
20409 2 8.20995 114.345 57.8982
14875 1 0.931372 117.572 56.6667
15192 1 1.85003 119.146 59.2398
20830 2 0.0272501 119.161 57.9616
20825 2 2.75482 117.556 57.9415
14873 1 3.66007 119.176 56.6865
14850 1 6.38761 117.572 56.6667
15178 1 4.57767 117.54 59.2194
20826 2 5.48349 119.161 57.9616
15132 1 10.0339 117.54 59.2194
14851 1 9.11631 119.176 56.6865
15176 1 7.30627 119.146 59.2398
20790 2 8.21106 117.556 57.9415
14874 1 0.93253 120.78 56.7052
20831 2 0.0283174 122.371 57.9985
20821 2 2.75591 120.766 57.9806
14876 1 3.66121 122.384 56.7229
15177 1 4.57863 120.752 59.259
14843 1 6.38877 120.78 56.7052
20819 2 5.48456 122.371 57.9985
15131 1 10.0349 120.752 59.259
14841 1 9.11745 122.384 56.7229
20789 2 8.21215 120.766 57.9806
14863 1 0.933647 123.988 56.7396
20828 2 0.0293455 125.579 58.0313
20820 2 2.75696 123.975 58.0154
14861 1 3.6623 125.591 56.7553
14842 1 6.38989 123.988 56.7396
20822 2 5.48558 125.579 58.0313
14844 1 9.11854 125.591 56.7553
20784 2 8.21319 123.975 58.0154
14862 1 0.934704 127.194 56.77
20829 2 0.0303162 128.787 58.06
20810 2 2.75796 127.183 58.0461
14864 1 3.66332 128.797 56.7837
14836 1 6.39094 127.194 56.77
20808 2 5.48655 128.787 58.06
14834 1 9.11956 128.797 56.7837
20783 2 8.2142 127.183 58.0461
14859 1 0.93568 130.4 56.7964
20827 2 0.0312088 131.994 58.0847
20809 2 2.75889 130.391 58.0728
14857 1 3.66425 132.003 56.8082
14835 1 6.39192 130.4 56.7964
20811 2 5.48745 131.994 58.0847
14837 1 9.12049 132.003 56.8082
20770 2 8.21513 130.391 58.0728
15190 1 0.0395083 115.901 61.7496
14781 1 2.76721 114.293 61.7263
20437 2 0.944056 114.31 60.4493
15173 1 5.49575 115.901 61.7496
20823 2 3.67266 115.917 60.4721
20389 2 6.40029 114.31 60.4493
20786 2 9.12889 115.917 60.4721
14745 1 8.22345 114.293 61.7263
15174 1 2.76804 117.508 61.7716
15186 1 0.0403378 119.116 61.7925
20817 2 0.945011 117.524 60.4939
15175 1 5.49658 119.116 61.7925
20787 2 6.40125 117.524 60.4939
20815 2 3.6736 119.131 60.5145
15129 1 8.22428 117.508 61.7716
20788 2 9.12984 119.131 60.5145
15188 1 1.851 122.357 59.2772
15166 1 2.76888 120.723 61.8123
15187 1 0.041188 122.33 61.8309
20816 2 0.94595 120.737 60.534
15164 1 5.49743 122.33 61.8309
20781 2 6.40219 120.737 60.534
20818 2 3.67454 122.343 60.5524
15179 1 7.30724 122.357 59.2772
15128 1 8.22512 120.723 61.8123
20779 2 9.13077 122.343 60.5524
15189 1 1.85195 125.567 59.3104
15165 1 2.76974 123.937 61.8485
15182 1 0.0420455 125.543 61.8649
20806 2 0.94688 123.949 60.5697
15170 1 4.57959 123.962 59.2944
15167 1 5.49828 125.543 61.8649
20780 2 6.40312 123.949 60.5697
20804 2 3.67546 125.555 60.5859
15130 1 10.0358 123.962 59.2944
15168 1 7.30819 125.567 59.3104
15121 1 8.22597 123.937 61.8485
20782 2 9.1317 125.555 60.5859
15184 1 1.85286 128.777 59.3394
15152 1 2.77059 127.15 61.8802
15183 1 0.0428923 128.756 61.8944
20805 2 0.947789 127.161 60.6011
15169 1 4.58053 127.172 59.3255
15150 1 5.49913 128.756 61.8944
20767 2 6.40403 127.161 60.6011
20807 2 3.67635 128.766 60.6152
15123 1 10.0368 127.172 59.3255
15171 1 7.3091 128.777 59.3394
15120 1 8.22683 127.15 61.8802
20765 2 9.13259 128.766 60.6152
15185 1 1.85372 131.986 59.3644
15151 1 2.77142 130.362 61.9076
15181 1 0.0437015 131.968 61.9197
20798 2 0.948656 130.372 60.6283
15156 1 4.58142 130.381 59.3524
15153 1 5.49994 131.968 61.9197
20766 2 6.40489 130.372 60.6283
20796 2 3.67719 131.977 60.6403
15122 1 10.0377 130.381 59.3524
15154 1 7.30995 131.986 59.3644
15106 1 8.22766 130.362 61.9076
20768 2 9.13342 131.977 60.6403
20812 2 0.0538437 115.852 65.5742
20813 2 1.86317 115.884 63.0234
14779 1 0.957811 114.259 64.2777
20373 2 2.78153 114.242 65.5504
15172 1 3.68634 115.868 64.3014
20772 2 5.51008 115.852 65.5742
14726 1 6.41405 114.259 64.2777
20387 2 4.59085 114.276 63
15125 1 9.14258 115.868 64.3014
20785 2 7.31941 115.884 63.0234
20337 2 8.23777 114.242 65.5504
20339 2 10.0471 114.276 63
15162 1 0.958596 117.477 64.3239
20773 2 2.78242 117.461 65.5969
20800 2 0.0547321 119.071 65.6183
20814 2 1.86404 119.101 63.0668
15126 1 6.41483 117.477 64.3239
15160 1 3.68712 119.086 64.3452
20774 2 5.51097 119.071 65.6183
20777 2 4.59172 117.493 63.0457
15127 1 9.14336 119.086 64.3452
20721 2 8.23865 117.461 65.5969
20724 2 10.048 117.493 63.0457
20775 2 7.32028 119.101 63.0668
15161 1 0.959401 120.694 64.3654
20759 2 2.78329 120.68 65.6386
20801 2 0.0555992 122.289 65.6577
20802 2 1.86491 122.316 63.1055
15118 1 6.41564 120.694 64.3654
15163 1 3.68793 122.303 64.3844
20757 2 5.51184 122.289 65.6577
20776 2 4.59259 120.709 63.0867
15116 1 9.14416 122.303 64.3844
20720 2 8.23952 120.68 65.6386
20723 2 10.0488 120.709 63.0867
20778 2 7.32115 122.316 63.1055
15148 1 0.960218 123.911 64.4022
20758 2 2.78415 123.898 65.6756
20792 2 0.0564684 125.507 65.6924
20803 2 1.86577 125.531 63.1397
15117 1 6.41646 123.911 64.4022
15146 1 3.68875 125.519 64.4189
20760 2 5.51271 125.507 65.6924
20763 2 4.59346 123.924 63.1231
15119 1 9.14499 125.519 64.4189
20713 2 8.24039 123.898 65.6756
20722 2 10.0497 123.924 63.1231
20761 2 7.32201 125.531 63.1397
15147 1 0.961048 127.127 64.4345
20744 2 2.78502 127.116 65.708
20793 2 0.0573303 128.725 65.7226
20794 2 1.86662 128.745 63.1695
15103 1 6.41729 127.127 64.4345
15149 1 3.68958 128.735 64.4489
20742 2 5.51357 128.725 65.7226
20762 2 4.59432 127.138 63.1551
15101 1 9.14582 128.735 64.4489
20712 2 8.24126 127.116 65.708
20715 2 10.0506 127.138 63.1551
20764 2 7.32286 128.745 63.1695
15140 1 0.961868 130.343 64.4623
20743 2 2.78587 130.333 65.736
20791 2 0.0581584 131.942 65.7484
20795 2 1.86744 131.959 63.1949
15102 1 6.41811 130.343 64.4623
15138 1 3.69038 131.951 64.4746
20745 2 5.5144 131.942 65.7484
20748 2 4.59516 130.352 63.1827
15104 1 9.14662 131.951 64.4746
20698 2 8.24211 130.333 65.736
20714 2 10.0514 130.352 63.1827
20746 2 7.32368 131.959 63.1949
15158 1 1.87691 115.836 66.8542
20371 2 0.972241 114.208 68.0997
20771 2 3.70085 115.819 68.1237
14724 1 4.60453 114.226 66.8304
20320 2 6.42848 114.208 68.0997
15124 1 7.33315 115.836 66.8542
20717 2 9.15709 115.819 68.1237
14685 1 10.0608 114.226 66.8304
15159 1 1.87773 119.056 66.8988
20755 2 0.973207 117.429 68.1466
15114 1 4.60544 117.446 66.8771
20718 2 6.42945 117.429 68.1466
20753 2 3.70179 119.04 68.1683
15066 1 10.0617 117.446 66.8771
15112 1 7.33397 119.056 66.8988
20719 2 9.15803 119.04 68.1683
15144 1 1.87856 122.276 66.9386
20754 2 0.97414 120.651 68.1888
15113 1 4.60626 120.666 66.9193
20710 2 6.43038 120.651 68.1888
20756 2 3.70273 122.262 68.2082
15065 1 10.0625 120.666 66.9193
15115 1 7.33479 122.276 66.9386
20708 2 9.15896 122.262 68.2082
15145 1 1.87941 125.496 66.9736
20740 2 0.975075 123.872 68.2263
15099 1 4.6071 123.886 66.9567
20709 2 6.43131 123.872 68.2263
20738 2 3.70366 125.483 68.2432
15064 1 10.0633 123.886 66.9567
15097 1 7.33565 125.496 66.9736
20711 2 9.1599 125.483 68.2432
15136 1 1.88027 128.715 67.004
20739 2 0.976009 127.093 68.2591
15098 1 4.60796 127.105 66.9893
20695 2 6.43225 127.093 68.2591
20741 2 3.70459 128.704 68.2737
15057 1 10.0642 127.105 66.9893
15100 1 7.33651 128.715 67.004
20693 2 9.16083 128.704 68.2737
15137 1 1.88111 131.934 67.0299
20732 2 0.976919 130.314 68.2873
15085 1 4.60882 130.324 67.0175
20694 2 6.43316 130.314 68.2873
20730 2 3.70547 131.925 68.2998
15056 1 10.0651 130.324 67.0175
15083 1 7.33735 131.934 67.0299
20696 2 9.16171 131.925 68.2998
15157 1 0.0664446 115.804 69.4121
20751 2 1.89122 115.785 70.6694
14710 1 0.978457 114.158 71.9631
14712 1 2.79407 114.192 69.3879
15108 1 3.70715 115.771 71.9873
15109 1 5.52268 115.804 69.4121
14674 1 6.4347 114.158 71.9631
20318 2 4.61878 114.173 70.6453
15059 1 9.16338 115.771 71.9873
20716 2 7.34746 115.785 70.6694
14683 1 8.25031 114.192 69.3879
20288 2 10.075 114.173 70.6453
15091 1 0.979599 117.383 72.0103
15110 1 2.79505 117.415 69.4351
15142 1 0.0674116 119.026 69.457
20752 2 1.89232 119.009 70.7141
15060 1 6.43584 117.383 72.0103
15089 1 3.7083 118.996 72.0322
15111 1 5.52365 119.026 69.457
20706 2 4.6199 117.397 70.6924
15061 1 9.16454 118.996 72.0322
15063 1 8.25129 117.415 69.4351
20664 2 10.0761 117.397 70.6924
20704 2 7.34856 119.009 70.7141
15090 1 0.980773 120.608 72.0528
15095 1 2.79602 120.637 69.4776
15143 1 0.0683909 122.249 69.497
20736 2 1.89341 122.234 70.7541
15052 1 6.43701 120.608 72.0528
15092 1 3.70949 122.221 72.0723
15093 1 5.52463 122.249 69.497
20705 2 4.62098 120.622 70.7347
15050 1 9.16573 122.221 72.0723
15062 1 8.25226 120.637 69.4776
20663 2 10.0772 120.622 70.7347
20707 2 7.34965 122.234 70.7541
15077 1 0.981983 123.834 72.0906
15094 1 2.79701 123.86 69.5152
15134 1 0.0693882 125.471 69.5322
20737 2 1.89449 125.458 70.7894
15051 1 6.43822 123.834 72.0906
15075 1 3.71071 125.447 72.1077
15096 1 5.52563 125.471 69.5322
20691 2 4.62207 123.846 70.7723
15053 1 9.16695 125.447 72.1077
15055 1 8.25325 123.86 69.5152
20662 2 10.0783 123.846 70.7723
20689 2 7.35073 125.458 70.7894
15076 1 0.983197 127.06 72.1236
15081 1 2.79801 127.083 69.5481
15135 1 0.0703797 128.694 69.5629
20728 2 1.89555 128.683 70.82
15041 1 6.43944 127.06 72.1236
15078 1 3.71191 128.673 72.1384
15079 1 5.52662 128.694 69.5629
20690 2 4.62314 127.071 70.8053
15039 1 9.16815 128.673 72.1384
15054 1 8.25424 127.083 69.5481
20656 2 10.0794 127.071 70.8053
20692 2 7.35178 128.683 70.82
15071 1 0.984367 130.285 72.1521
15080 1 2.79898 130.305 69.5765
15133 1 0.0713282 131.916 69.589
20729 2 1.89654 131.907 70.8463
15040 1 6.44061 130.285 72.1521
15069 1 3.71304 131.898 72.1647
15082 1 5.52757 131.916 69.589
20679 2 4.62417 130.295 70.8337
15042 1 9.16928 131.898 72.1647
15044 1 8.25522 130.305 69.5765
20655 2 10.0804 130.295 70.8337
20677 2 7.35278 131.907 70.8463
15087 1 1.83291 115.742 74.639
20750 2 0.0796912 115.751 73.2011
20306 2 0.968231 114.108 75.6524
20308 2 2.80717 114.137 73.1771
20700 2 3.69693 115.722 75.6761
20701 2 5.53593 115.751 73.2011
14672 1 4.56073 114.129 74.615
20281 2 6.42447 114.108 75.6524
15058 1 7.28915 115.742 74.639
20657 2 9.15317 115.722 75.6761
14665 1 10.017 114.129 74.615
20286 2 8.26341 114.137 73.1771
15088 1 1.83381 118.968 74.6836
20683 2 0.969437 117.336 75.6989
20702 2 2.80844 117.365 73.224
20734 2 0.0809599 118.978 73.2458
15048 1 4.56143 117.355 74.6619
20658 2 6.42568 117.336 75.6989
20681 2 3.69823 118.951 75.7204
20703 2 5.5372 118.978 73.2458
15030 1 10.0177 117.355 74.6619
15046 1 7.29004 118.968 74.6836
20659 2 9.15446 118.951 75.7204
20661 2 8.26468 117.365 73.224
15073 1 1.83504 122.195 74.7236
20682 2 0.970813 120.566 75.7409
20687 2 2.80972 120.592 73.2663
20735 2 0.0822365 122.206 73.2857
15047 1 4.56251 120.581 74.7042
20651 2 6.42705 120.566 75.7409
20684 2 3.69967 122.181 75.7602
20685 2 5.53847 122.206 73.2857
15029 1 10.0187 120.581 74.7042
15049 1 7.29128 122.195 74.7236
20649 2 9.15591 122.181 75.7602
20660 2 8.26595 120.592 73.2663
15074 1 1.83648 125.423 74.7589
20671 2 0.972304 123.796 75.7784
20686 2 2.81099 123.82 73.304
20726 2 0.083509 125.434 73.3211
15037 1 4.56386 123.809 74.7418
20650 2 6.42854 123.796 75.7784
20669 2 3.70119 125.411 75.7954
20688 2 5.53975 125.434 73.3211
15028 1 10.0201 123.809 74.7418
15035 1 7.29272 125.423 74.7589
20652 2 9.15742 125.411 75.7954
20654 2 8.26723 123.82 73.304
15067 1 1.83798 128.651 74.7896
20670 2 0.973824 127.026 75.8113
20675 2 2.81225 127.048 73.337
20727 2 0.0847395 128.662 73.3518
15036 1 4.56535 127.037 74.7748
20644 2 6.43006 127.026 75.8113
20672 2 3.70269 128.641 75.8261
20673 2 5.54098 128.662 73.3518
15027 1 10.0216 127.037 74.7748
15038 1 7.29422 128.651 74.7896
20642 2 9.15892 128.641 75.8261
20653 2 8.26849 127.048 73.337
15068 1 1.83944 131.88 74.8159
20667 2 0.975286 130.257 75.8398
20674 2 2.81344 130.275 73.3655
20725 2 0.0858838 131.889 73.3781
15033 1 4.56684 130.265 74.8033
20643 2 6.43152 130.257 75.8398
20665 2 3.70409 131.872 75.8524
20676 2 5.54212 131.889 73.3781
15026 1 10.0231 130.265 74.8033
15031 1 7.29568 131.88 74.8159
20645 2 9.16033 131.872 75.8524
20647 2 8.26968 130.275 73.3655
2879 1 1.78927 132.378 -2.37854
9177 2 0.90062 133.94 -0.923009
9185 2 2.71183 133.956 -3.43033
9183 2 3.62945 132.372 -0.935108
2866 1 4.51627 133.946 -2.36644
9147 2 6.35686 133.94 -0.923009
9184 2 5.44079 132.39 -3.44232
2868 1 7.24551 132.378 -2.37854
2820 1 9.97251 133.946 -2.36644
9146 2 9.08569 132.372 -0.935108
9150 2 8.16807 133.956 -3.43033
12456 2 10.897 132.39 -3.44232
2880 1 1.78723 135.513 -2.35548
9176 2 0.899339 137.076 -0.901999
9181 2 2.71041 137.088 -3.40947
9175 2 3.62807 135.508 -0.911974
2865 1 4.5146 137.08 -2.34559
9141 2 6.35558 137.076 -0.901999
9186 2 5.43919 135.522 -3.41938
2864 1 7.24347 135.513 -2.35548
2819 1 9.97084 137.08 -2.34559
9148 2 9.08431 135.508 -0.911974
9149 2 8.16665 137.088 -3.40947
12454 2 10.8954 135.522 -3.41938
2876 1 1.78585 138.647 -2.33672
9166 2 0.898294 140.21 -0.885202
9180 2 2.70931 140.22 -3.39276
9178 2 3.6269 138.643 -0.893077
2858 1 4.51341 140.213 -2.32889
9140 2 6.35453 140.21 -0.885202
9179 2 5.43794 138.654 -3.40059
2867 1 7.24208 138.647 -2.33672
2818 1 9.96965 140.213 -2.32889
9139 2 9.08314 138.643 -0.893077
9144 2 8.16555 140.22 -3.39276
12455 2 10.8942 138.654 -3.40059
2877 1 1.78481 141.78 -2.3221
9165 2 0.897505 143.345 -0.8726
9170 2 2.70849 143.352 -3.38022
9164 2 3.62599 141.778 -0.878376
2857 1 4.51253 143.347 -2.31636
9127 2 6.35374 143.345 -0.8726
9182 2 5.43698 141.786 -3.38597
2856 1 7.24105 141.78 -2.3221
2811 1 9.96877 143.347 -2.31636
9142 2 9.08222 141.778 -0.878376
9143 2 8.16473 143.352 -3.38022
12452 2 10.8932 141.786 -3.38597
2872 1 1.78408 144.913 -2.31165
9158 2 0.896977 146.48 -0.864196
9169 2 2.70794 146.483 -3.37185
9167 2 3.62533 144.913 -0.867873
2873 1 1.78364 148.046 -2.30538
9156 2 3.62493 148.047 -0.86157
2844 1 4.51194 146.48 -2.30799
9126 2 6.35322 146.48 -0.864196
9168 2 5.4363 144.918 -3.37551
2859 1 7.24032 144.913 -2.31165
9171 2 5.43589 148.049 -3.36924
2842 1 7.23988 148.046 -2.30538
2810 1 9.96818 146.48 -2.30799
9125 2 9.08157 144.913 -0.867873
9130 2 8.16418 146.483 -3.37185
12453 2 10.8925 144.918 -3.37551
9128 2 9.08117 148.047 -0.86157
12451 2 10.8921 148.049 -3.36924
9157 2 0.896713 149.614 -0.859994
9159 2 2.70766 149.615 -3.36767
191 1 1.7835 151.179 -2.30329
6327 2 3.6248 151.181 -0.859469
2843 1 4.51165 149.613 -2.30381
9109 2 6.35295 149.614 -0.859994
6328 2 5.43575 151.18 -3.36715
180 1 7.23973 151.179 -2.30329
2795 1 9.96789 149.613 -2.30381
9129 2 8.1639 149.615 -3.36767
6290 2 9.08104 151.181 -0.859469
9600 2 10.892 151.18 -3.36715
2862 1 2.71568 133.931 0.299961
9173 2 1.80875 132.354 1.61976
2861 1 5.4446 132.362 0.287831
9137 2 4.5361 133.923 1.63192
9145 2 7.26498 132.354 1.61976
2817 1 8.17192 133.931 0.299961
9084 2 9.99233 133.923 1.63192
5950 1 10.9008 132.362 0.287831
2854 1 2.71431 137.068 0.321006
9174 2 1.80727 135.493 1.64301
2863 1 5.44308 135.499 0.311018
9136 2 4.53475 137.062 1.65304
9135 2 7.26351 135.493 1.64301
2816 1 8.17055 137.068 0.321006
9083 2 9.99098 137.062 1.65304
5946 1 10.8993 135.499 0.311018
2853 1 2.71321 140.204 0.337818
9162 2 1.80605 138.631 1.66201
2852 1 5.44184 138.636 0.329937
9123 2 4.53366 140.2 1.66992
9138 2 7.26229 138.631 1.66201
2809 1 8.16945 140.204 0.337818
9082 2 9.98989 140.2 1.66992
5947 1 10.8981 138.636 0.329937
2840 1 2.71239 143.341 0.350429
9163 2 1.80509 141.769 1.67677
9154 2 1.80441 144.907 1.68731
2855 1 5.44088 141.773 0.344648
9122 2 4.53284 143.338 1.68257
9121 2 7.26133 141.769 1.67677
9124 2 7.26065 144.907 1.68731
2808 1 8.16862 143.341 0.350429
9075 2 9.98907 143.338 1.68257
5942 1 10.8971 141.773 0.344648
2839 1 2.71184 146.477 0.358838
9155 2 1.804 148.045 1.69364
2838 1 5.4402 144.909 0.355159
9108 2 4.53229 146.476 1.691
2841 1 5.43978 148.045 0.361465
9106 2 7.26024 148.045 1.69364
2794 1 8.16808 146.477 0.358838
9074 2 9.98853 146.476 1.691
5943 1 10.8964 144.909 0.355159
5941 1 10.896 148.045 0.361465
2829 1 2.71156 149.613 0.363042
6317 2 1.80386 151.182 1.69574
9107 2 4.53202 149.614 1.69522
173 1 5.43965 151.181 0.363568
6289 2 7.2601 151.182 1.69574
2793 1 8.1678 149.613 0.363042
9059 2 9.98826 149.614 1.69522
3262 1 10.8959 151.181 0.363568
2850 1 0.897029 133.914 2.89853
2860 1 3.62595 132.344 2.88635
2846 1 1.8057 132.327 5.46871
9133 2 2.71541 133.907 4.19957
2814 1 6.35327 133.914 2.89853
2802 1 4.533 133.899 5.4809
9132 2 5.44434 132.336 4.18739
2812 1 7.26194 132.327 5.46871
2813 1 9.08219 132.344 2.88635
2748 1 9.98924 133.899 5.4809
9081 2 8.17165 133.907 4.19957
12436 2 10.9006 132.336 4.18739
2849 1 0.895623 137.055 2.9197
2848 1 3.62441 135.484 2.90965
2847 1 1.80413 135.471 5.49202
9119 2 2.714 137.049 4.22074
2806 1 6.35186 137.055 2.9197
2801 1 4.53157 137.042 5.50208
9134 2 5.44279 135.478 4.21069
2800 1 7.26037 135.471 5.49202
2815 1 9.08065 135.484 2.90965
2747 1 9.98781 137.042 5.50208
9080 2 8.17024 137.049 4.22074
12424 2 10.899 135.478 4.21069
2836 1 0.894497 140.194 2.93661
2851 1 3.62314 138.624 2.92869
2832 1 1.80285 138.614 5.51108
9118 2 2.71287 140.19 4.23766
2833 1 1.80185 141.757 5.52588
2805 1 6.35074 140.194 2.93661
2787 1 4.53043 140.185 5.51901
9117 2 5.44152 138.619 4.22974
2803 1 7.25908 138.614 5.51108
2785 1 7.25809 141.757 5.52588
2804 1 9.07938 138.624 2.92869
2746 1 9.98667 140.185 5.51901
9073 2 8.16911 140.19 4.23766
12425 2 10.8978 138.619 4.22974
2835 1 0.893654 143.334 2.94927
2834 1 3.62216 141.764 2.94347
9104 2 2.71203 143.331 4.25034
2837 1 3.62146 144.904 2.95402
2824 1 1.80115 144.9 5.53644
2791 1 6.34989 143.334 2.94927
2786 1 4.52958 143.328 5.53169
9120 2 5.44053 141.761 4.24453
9102 2 5.43983 144.902 4.25509
2788 1 7.25739 144.9 5.53644
2807 1 9.0784 141.764 2.94347
2739 1 9.98582 143.328 5.53169
9072 2 8.16827 143.331 4.25034
12416 2 10.8968 141.761 4.24453
2789 1 9.0777 144.904 2.95402
12417 2 10.8961 144.902 4.25509
2828 1 0.893094 146.474 2.95771
9103 2 2.71147 146.472 4.25878
2826 1 3.62104 148.043 2.96035
2825 1 1.80073 148.042 5.54278
2790 1 6.34933 146.474 2.95771
2772 1 4.52902 146.471 5.54014
9105 2 5.43941 148.043 4.26142
2770 1 7.25697 148.042 5.54278
2738 1 9.98526 146.471 5.54014
9058 2 8.16771 146.472 4.25878
2792 1 9.07728 148.043 2.96035
12415 2 10.8957 148.043 4.26142
2827 1 0.892815 149.613 2.96193
9093 2 2.71119 149.614 4.263
172 1 3.6209 151.183 2.96246
158 1 1.80059 151.185 5.5449
2773 1 6.34905 149.613 2.96193
2771 1 4.52875 149.614 5.54437
6276 2 5.43927 151.184 4.26353
124 1 7.25683 151.185 5.5449
2724 1 9.98499 149.614 5.54437
9057 2 8.16743 149.614 4.263
125 1 9.07714 151.183 2.96246
9580 2 10.8955 151.184 4.26353
2798 1 2.7126 133.884 8.05761
9115 2 0.894849 133.892 6.77147
9131 2 3.62378 132.319 6.75933
2797 1 5.44154 132.311 8.04547
9078 2 6.35109 133.892 6.77147
2745 1 8.16884 133.884 8.05761
9077 2 9.08002 132.319 6.75933
5917 1 10.8978 132.311 8.04547
2783 1 2.71119 137.03 8.07873
9114 2 0.893442 137.036 6.7926
9113 2 3.62223 135.464 6.78257
2799 1 5.43998 135.457 8.0687
9070 2 6.34968 137.036 6.7926
2781 1 5.43872 138.603 8.08769
2744 1 8.16743 137.03 8.07873
9079 2 9.07847 135.464 6.78257
5902 1 10.8962 135.457 8.0687
5903 1 10.895 138.603 8.08769
2782 1 2.71008 140.176 8.09561
9100 2 0.892323 140.181 6.80949
9116 2 3.62097 138.609 6.80158
9098 2 3.61999 141.753 6.81635
9069 2 6.34856 140.181 6.80949
2784 1 5.43775 141.749 8.10246
2737 1 8.16632 140.176 8.09561
9068 2 9.0772 138.609 6.80158
9071 2 9.07623 141.753 6.81635
5894 1 10.894 141.749 8.10246
2768 1 2.70925 143.322 8.10826
9099 2 0.891492 143.325 6.82215
9101 2 3.6193 144.897 6.8269
9055 2 6.34773 143.325 6.82215
2766 1 5.43707 144.895 8.113
2736 1 8.16549 143.322 8.10826
9053 2 9.07554 144.897 6.8269
5895 1 10.8933 144.895 8.113
2767 1 2.70871 146.468 8.11669
9092 2 0.890943 146.47 6.83059
9090 2 3.61889 148.042 6.83323
9054 2 6.34718 146.47 6.83059
2769 1 5.43666 148.041 8.11933
2723 1 8.16495 146.468 8.11669
9056 2 9.07513 148.042 6.83323
5893 1 10.8929 148.041 8.11933
2757 1 2.70844 149.614 8.12092
9091 2 0.890673 149.614 6.83481
6275 2 3.61876 151.186 6.83534
9040 2 6.34691 149.614 6.83481
109 1 5.43653 151.187 8.12145
2722 1 8.16468 149.614 8.12092
6221 2 9.075 151.186 6.83534
3229 1 10.8928 151.187 8.12145
2779 1 0.892341 133.869 10.6321
9062 2 2.71057 133.862 11.9176
9112 2 1.8019 135.45 9.35554
2777 1 3.61975 135.444 10.6431
9066 2 4.53073 133.877 9.34452
2742 1 6.34858 133.869 10.6321
9064 2 7.25813 135.45 9.35554
9063 2 5.43802 135.437 11.9285
9024 2 9.98697 133.877 9.34452
9021 2 8.16681 133.862 11.9176
2743 1 9.07599 135.444 10.6431
12358 2 10.8943 135.437 11.9285
2778 1 0.891001 137.018 10.653
9047 2 2.7093 137.012 11.9384
9096 2 1.80068 138.598 9.37444
2780 1 3.61856 138.593 10.6619
9065 2 4.52937 137.024 9.36552
2734 1 6.34724 137.018 10.653
9067 2 7.25692 138.598 9.37444
9045 2 5.43688 138.588 11.9472
9023 2 9.98561 137.024 9.36552
9020 2 8.16554 137.012 11.9384
2732 1 9.0748 138.593 10.6619
12359 2 10.8931 138.588 11.9472
2764 1 0.889946 140.167 10.6698
9046 2 2.7083 140.163 11.955
9097 2 1.79974 141.746 9.38915
2762 1 3.61764 141.742 10.6766
9051 2 4.52829 140.172 9.38232
2733 1 6.34618 140.167 10.6698
9049 2 7.25598 141.746 9.38915
9048 2 5.43601 141.738 11.9618
9022 2 9.98453 140.172 9.38232
9014 2 8.16453 140.163 11.955
2735 1 9.07388 141.742 10.6766
12350 2 10.8923 141.738 11.9618
2763 1 0.889167 143.316 10.6824
9035 2 2.70756 143.314 11.9675
9088 2 1.79908 144.893 9.39965
2765 1 3.617 144.891 10.6871
9050 2 4.5275 143.319 9.39492
2720 1 6.34541 143.316 10.6824
9052 2 7.25532 144.893 9.39965
9033 2 5.4354 144.889 11.9722
9016 2 9.98373 143.319 9.39492
9013 2 8.1638 143.314 11.9675
2718 1 9.07324 144.891 10.6871
12351 2 10.8916 144.889 11.9722
2756 1 0.888657 146.466 10.6908
9034 2 2.70708 146.464 11.9759
9089 2 1.79869 148.041 9.40596
2754 1 3.61662 148.04 10.6934
9039 2 4.52697 146.467 9.40333
2719 1 6.3449 146.466 10.6908
9037 2 7.25493 148.041 9.40596
9036 2 5.43505 148.04 11.9785
9015 2 9.98321 146.467 9.40333
9007 2 8.16331 146.464 11.9759
2721 1 9.07286 148.04 10.6934
12349 2 10.8913 148.04 11.9785
2755 1 0.88841 149.615 10.695
9028 2 2.70684 149.615 11.9801
6255 2 1.79857 151.188 9.40808
108 1 3.6165 151.189 10.6955
9038 2 4.52672 149.614 9.40754
2709 1 6.34465 149.615 10.695
6220 2 7.25481 151.188 9.40808
6205 2 5.43494 151.19 11.9806
9008 2 9.98296 149.614 9.40754
9006 2 8.16308 149.615 11.9801
53 1 9.07274 151.189 10.6955
9518 2 10.8912 151.19 11.9806
2726 1 2.70863 133.84 15.778
9043 2 0.890608 133.848 14.4903
2776 1 1.79973 135.431 13.2163
9041 2 3.61812 135.424 14.5011
2730 1 4.5285 133.855 13.2054
9018 2 6.34685 133.848 14.4903
2727 1 5.43618 135.418 15.7887
2728 1 7.25597 135.431 13.2163
5830 1 10.8924 135.418 15.7887
2697 1 8.16487 133.84 15.778
2700 1 9.98474 133.855 13.2054
9019 2 9.07436 135.424 14.5011
2712 1 2.70756 136.995 15.7984
9042 2 0.889466 137.001 14.5108
2760 1 1.79864 138.583 13.2349
9044 2 3.61711 138.578 14.5196
2729 1 4.52727 137.007 13.2261
9011 2 6.3457 137.001 14.5108
2710 1 5.43523 138.573 15.8071
2731 1 7.25488 138.583 13.2349
5831 1 10.8915 138.573 15.8071
2696 1 8.1638 136.995 15.7984
2699 1 9.98351 137.007 13.2261
9009 2 9.07335 138.578 14.5196
9029 2 3.61634 141.731 14.534
2711 1 2.70672 140.15 15.8148
9031 2 0.888575 140.155 14.5273
2761 1 1.79781 141.735 13.2495
2713 1 5.43451 141.728 15.8214
2716 1 4.52631 140.159 13.2427
9010 2 6.34481 140.155 14.5273
2714 1 7.25405 141.735 13.2495
9012 2 9.07258 141.731 14.534
5822 1 10.8907 141.728 15.8214
2693 1 8.16296 140.15 15.8148
2698 1 9.98255 140.159 13.2427
9032 2 3.6158 144.885 14.5443
9030 2 0.88792 143.308 14.5396
2704 1 2.70611 143.305 15.8271
2752 1 1.79723 144.887 13.2599
2702 1 5.43401 144.883 15.8317
9004 2 6.34416 143.308 14.5396
2715 1 4.52561 143.311 13.2552
2717 1 7.25347 144.887 13.2599
9002 2 9.07204 144.885 14.5443
2695 1 9.98185 143.311 13.2552
2692 1 8.16235 143.305 15.8271
5823 1 10.8902 144.883 15.8317
9027 2 0.887493 146.462 14.5479
2703 1 2.70572 146.461 15.8353
9025 2 3.61548 148.039 14.5505
2753 1 1.79689 148.039 13.2661
2705 1 5.43371 148.038 15.8379
9003 2 6.34373 146.462 14.5479
2708 1 4.52515 146.463 13.2635
2706 1 7.25313 148.039 13.2661
5821 1 10.89 148.038 15.8379
9005 2 9.07172 148.039 14.5505
2694 1 9.98139 146.463 13.2635
2690 1 8.16195 146.461 15.8353
9026 2 0.887289 149.616 14.5521
2701 1 2.70553 149.616 15.8395
87 1 1.79679 151.191 13.2682
6204 2 3.61539 151.193 14.5526
2707 1 4.52493 149.615 13.2677
9001 2 6.34353 149.616 14.5521
37 1 5.43363 151.194 15.84
52 1 7.25302 151.191 13.2682
2689 1 8.16177 149.616 15.8395
2691 1 9.98116 149.615 13.2677
6161 2 9.07163 151.193 14.5526
3158 1 10.8899 151.194 15.84
3070 1 0.888988 133.826 18.35
9384 2 1.79847 135.411 17.0731
3068 1 3.61664 135.405 18.3605
9370 2 4.5271 133.833 17.0625
3047 1 6.34523 133.826 18.35
9368 2 7.25471 135.411 17.0731
9324 2 9.98334 133.833 17.0625
3048 1 9.07288 135.405 18.3605
3069 1 0.888112 136.984 18.37
9380 2 1.79761 138.568 17.0913
3071 1 3.61587 138.563 18.3785
9369 2 4.52613 136.99 17.0827
3043 1 6.34435 136.984 18.37
9371 2 7.25385 138.568 17.0913
9323 2 9.98237 136.99 17.0827
3041 1 9.07211 138.563 18.3785
3063 1 0.887434 140.142 18.3861
9381 2 1.79696 141.724 17.1055
3061 1 3.61528 141.721 18.3927
9362 2 4.52538 140.146 17.0989
3042 1 6.34367 140.142 18.3861
9360 2 7.2532 141.724 17.1055
9322 2 9.98162 140.146 17.0989
3044 1 9.07152 141.721 18.3927
3062 1 0.886938 143.3 18.3982
9376 2 1.79651 144.881 17.1157
3064 1 3.61488 144.879 18.4028
9361 2 4.52483 143.303 17.1111
3031 1 6.34318 143.3 18.3982
9363 2 7.25275 144.881 17.1157
9315 2 9.98107 143.303 17.1111
3029 1 9.07111 144.879 18.4028
3056 1 0.886617 146.459 18.4063
9377 2 1.79625 148.038 17.1218
3054 1 3.61464 148.038 18.4089
3030 1 6.34285 146.459 18.4063
9348 2 4.52447 146.46 17.1193
9346 2 7.25248 148.038 17.1218
9314 2 9.98071 146.46 17.1193
3032 1 9.07088 148.038 18.4089
3055 1 0.886464 149.617 18.4104
6527 2 1.79617 151.195 17.1239
384 1 3.61457 151.196 18.411
3013 1 6.3427 149.617 18.4104
9347 2 4.5243 149.616 17.1234
6516 2 7.25241 151.195 17.1239
9299 2 9.98054 149.616 17.1234
358 1 9.07081 151.196 18.411
9366 2 2.70761 133.819 19.6341
9354 2 0.888436 133.805 22.205
3067 1 1.7974 135.392 20.9315
9352 2 3.61627 135.386 22.2152
9367 2 5.43533 135.399 19.6445
3039 1 4.52587 133.812 20.9213
9318 2 6.34467 133.805 22.205
3037 1 7.25364 135.392 20.9315
9321 2 8.16385 133.819 19.6341
2988 1 9.98211 133.812 20.9213
9319 2 9.07251 135.386 22.2152
12642 2 10.8916 135.399 19.6445
9358 2 2.70685 136.978 19.6539
9353 2 0.887902 136.967 22.2244
3059 1 1.79683 138.553 20.9493
9355 2 3.6158 138.548 22.2327
9356 2 5.43466 138.558 19.6624
3038 1 4.52521 136.973 20.9409
9310 2 6.34414 136.967 22.2244
3040 1 7.25306 138.553 20.9493
9320 2 8.16309 136.978 19.6539
2987 1 9.98145 136.973 20.9409
9308 2 9.07204 138.548 22.2327
12643 2 10.8909 138.558 19.6624
9357 2 2.70626 140.138 19.6698
9340 2 0.887493 140.13 22.2401
3060 1 1.79639 141.714 20.9631
9338 2 3.61545 141.711 22.2464
9359 2 5.43415 141.718 19.6763
3027 1 4.52471 140.134 20.9567
9309 2 6.34373 140.13 22.2401
3025 1 7.25263 141.714 20.9631
9313 2 8.1625 140.138 19.6698
2986 1 9.98095 140.134 20.9567
9311 2 9.07169 141.711 22.2464
12638 2 10.8904 141.718 19.6763
9344 2 2.70583 143.298 19.6818
9339 2 0.887196 143.292 22.2519
3052 1 1.79609 144.876 20.9731
9341 2 3.61521 144.874 22.2563
9342 2 5.4338 144.877 19.6864
3026 1 4.52434 143.295 20.9686
9295 2 6.34343 143.292 22.2519
3028 1 7.25233 144.876 20.9731
9312 2 8.16207 143.298 19.6818
2979 1 9.98058 143.295 20.9686
9293 2 9.07144 144.874 22.2563
12639 2 10.89 144.877 19.6864
9343 2 2.70556 146.457 19.6899
9332 2 0.887004 146.455 22.2598
3053 1 1.79592 148.037 20.9791
9330 2 3.61507 148.037 22.2623
9345 2 5.43359 148.037 19.6924
3012 1 4.52411 146.456 20.9766
9294 2 6.34324 146.455 22.2598
3010 1 7.25215 148.037 20.9791
9298 2 8.16179 146.457 19.6899
2978 1 9.98035 146.456 20.9766
9296 2 9.0713 148.037 22.2623
12637 2 10.8898 148.037 19.6924
9333 2 2.70542 149.617 19.694
9331 2 0.886913 149.618 22.2638
378 1 1.79587 151.199 20.9812
6508 2 3.61503 151.2 22.2644
3011 1 4.524 149.618 20.9806
9277 2 6.34315 149.618 22.2638
6509 2 5.43353 151.197 19.6945
357 1 7.25211 151.199 20.9812
9297 2 8.16166 149.617 19.694
2963 1 9.98023 149.618 20.9806
6461 2 9.07126 151.2 22.2644
9790 2 10.8898 151.197 19.6945
3035 1 2.70684 133.798 23.4918
9351 2 1.79759 135.373 24.7852
9306 2 4.52586 133.791 24.7752
3036 1 5.43474 135.38 23.5019
9304 2 7.25382 135.373 24.7852
2985 1 8.16308 133.798 23.4918
9252 2 9.9821 133.791 24.7752
6129 1 10.891 135.38 23.5019
3023 1 2.70643 136.962 23.511
9336 2 1.79733 138.539 24.8023
9305 2 4.52557 136.956 24.7942
3021 1 5.43438 138.543 23.5192
9307 2 7.25357 138.539 24.8023
2984 1 8.16267 136.962 23.511
9251 2 9.98181 136.956 24.7942
6130 1 10.8906 138.543 23.5192
3022 1 2.70611 140.126 23.5265
9337 2 1.79714 141.704 24.8158
9291 2 4.52535 140.122 24.8095
3024 1 5.43411 141.708 23.5328
9289 2 7.25338 141.704 24.8158
2977 1 8.16235 140.126 23.5265
9250 2 9.98159 140.122 24.8095
6122 1 10.8903 141.708 23.5328
3008 1 2.70589 143.29 23.5382
9328 2 1.79701 144.87 24.8255
9290 2 4.52519 143.287 24.8211
3006 1 5.43392 144.872 23.5426
9292 2 7.25325 144.87 24.8255
2976 1 8.16212 143.29 23.5382
9243 2 9.98143 143.287 24.8211
6123 1 10.8902 144.872 23.5426
3007 1 2.70574 146.454 23.5461
9329 2 1.79693 148.036 24.8314
9276 2 4.52508 146.453 24.8289
3009 1 5.43381 148.036 23.5486
9274 2 7.25317 148.036 24.8314
2962 1 8.16198 146.454 23.5461
9242 2 9.98132 146.453 24.8289
6121 1 10.8901 148.036 23.5486
2997 1 2.70567 149.619 23.5501
6494 2 1.79691 151.202 24.8334
9275 2 4.52504 149.619 24.8329
346 1 5.43378 151.201 23.5506
6460 2 7.25315 151.202 24.8334
2961 1 8.16191 149.619 23.5501
9228 2 9.98127 149.619 24.8329
3449 1 10.89 151.201 23.5506
3019 1 0.888212 133.784 26.0615
3017 1 3.61624 135.367 26.0714
9302 2 2.70748 133.777 27.3445
3016 1 1.7982 135.354 28.6401
2982 1 6.34445 133.784 26.0615
2970 1 4.52628 133.77 28.6304
9303 2 5.43557 135.361 27.3543
2968 1 7.25444 135.354 28.6401
12598 2 10.8918 135.361 27.3543
2983 1 9.07248 135.367 26.0714
2922 1 9.98252 133.77 28.6304
9249 2 8.16371 133.777 27.3445
3018 1 0.888048 136.95 26.0804
3020 1 3.6161 138.534 26.0884
9287 2 2.70743 136.945 27.3632
3000 1 1.79827 138.524 28.6568
2974 1 6.34429 136.95 26.0804
2969 1 4.52636 136.939 28.6489
9285 2 5.43553 138.529 27.3711
2971 1 7.25451 138.524 28.6568
12599 2 10.8918 138.529 27.3711
2972 1 9.07234 138.534 26.0884
2921 1 9.9826 136.939 28.6489
9248 2 8.16366 136.945 27.3632
3004 1 0.887925 140.117 26.0956
3002 1 3.616 141.701 26.1018
9286 2 2.70739 140.113 27.3782
3001 1 1.79833 141.694 28.6699
2973 1 6.34416 140.117 26.0956
2955 1 4.52642 140.109 28.6638
9288 2 5.4355 141.698 27.3843
2953 1 7.25457 141.694 28.6699
12590 2 10.8917 141.698 27.3843
2975 1 9.07223 141.701 26.1018
2920 1 9.98266 140.109 28.6638
9241 2 8.16363 140.113 27.3782
3003 1 0.887836 143.285 26.1071
3005 1 3.61592 144.868 26.1114
9272 2 2.70737 143.282 27.3896
2992 1 1.79837 144.865 28.6794
2959 1 6.34407 143.285 26.1071
2954 1 4.52647 143.28 28.6751
9270 2 5.43548 144.867 27.3939
2956 1 7.2546 144.865 28.6794
12591 2 10.8917 144.867 27.3939
2957 1 9.07216 144.868 26.1114
2913 1 9.98271 143.28 28.6751
9240 2 8.16361 143.282 27.3896
2996 1 0.887778 146.452 26.1148
2994 1 3.61588 148.036 26.1172
9271 2 2.70735 146.451 27.3973
2993 1 1.79839 148.035 28.6851
2958 1 6.34402 146.452 26.1148
2941 1 4.5265 146.45 28.6827
9273 2 5.43547 148.036 27.3997
2939 1 7.25462 148.035 28.6851
12589 2 10.8917 148.036 27.3997
2960 1 9.07212 148.036 26.1172
2912 1 9.98274 146.45 28.6827
9227 2 8.16359 146.451 27.3973
2995 1 0.88775 149.62 26.1187
9261 2 2.70734 149.62 27.4012
345 1 3.61587 151.203 26.1193
327 1 1.79839 151.206 28.6872
2942 1 6.34399 149.62 26.1187
2940 1 4.52651 149.621 28.6866
6445 2 5.43546 151.205 27.4017
292 1 7.25463 151.206 28.6872
2901 1 9.98275 149.621 28.6866
9226 2 8.16358 149.62 27.4012
293 1 9.07211 151.203 26.1193
9757 2 10.8917 151.205 27.4017
2966 1 2.70864 133.755 31.1984
9283 2 0.889582 133.763 29.9129
9280 2 1.80056 135.335 32.4898
9281 2 3.6178 135.348 29.9225
9234 2 4.52848 133.748 32.4804
9246 2 6.34582 133.763 29.9129
2967 1 5.43691 135.342 31.2079
9232 2 7.2568 135.335 32.4898
6070 1 10.8932 135.342 31.2079
2919 1 8.16487 133.755 31.1984
9204 2 9.98471 133.748 32.4804
9247 2 9.07403 135.348 29.9225
2951 1 2.70894 136.928 31.2165
9282 2 0.889763 136.934 29.9312
9264 2 1.80091 138.51 32.5061
9284 2 3.61796 138.519 29.9391
9233 2 4.52887 136.923 32.4984
9238 2 6.346 136.934 29.9312
2949 1 5.43718 138.515 31.2243
9235 2 7.25715 138.51 32.5061
6071 1 10.8934 138.515 31.2243
2918 1 8.16518 136.928 31.2165
9203 2 9.98511 136.923 32.4984
9236 2 9.0742 138.519 29.9391
2950 1 2.70917 140.101 31.2312
9268 2 0.889907 140.105 29.946
9265 2 1.80117 141.685 32.5189
9266 2 3.61808 141.691 29.9521
9220 2 4.52917 140.097 32.513
9237 2 6.34615 140.105 29.946
2952 1 5.43739 141.688 31.2372
9218 2 7.25741 141.685 32.5189
6062 1 10.8936 141.688 31.2372
2911 1 8.16541 140.101 31.2312
9202 2 9.98541 140.097 32.513
9239 2 9.07432 141.691 29.9521
2937 1 2.70934 143.275 31.2423
9267 2 0.890011 143.277 29.9572
9256 2 1.80135 144.86 32.5282
9269 2 3.61817 144.863 29.9615
9219 2 4.52939 143.272 32.524
9224 2 6.34625 143.277 29.9572
2935 1 5.43753 144.861 31.2465
9221 2 7.25759 144.86 32.5282
6063 1 10.8938 144.861 31.2465
2910 1 8.16558 143.275 31.2423
9199 2 9.98563 143.272 32.524
9222 2 9.07441 144.863 29.9615
2936 1 2.70945 146.448 31.2498
9260 2 0.890078 146.449 29.9648
9257 2 1.80145 148.035 32.5339
9258 2 3.61822 148.035 29.9672
9212 2 4.52953 146.447 32.5315
9223 2 6.34632 146.449 29.9648
2938 1 5.4376 148.035 31.2522
9210 2 7.25769 148.035 32.5339
6061 1 10.8938 148.035 31.2522
2900 1 8.16569 146.448 31.2498
9198 2 9.98577 146.447 32.5315
9225 2 9.07445 148.035 29.9672
2928 1 2.7095 149.622 31.2537
9259 2 0.890109 149.621 29.9687
6444 2 3.61823 151.207 29.9692
9211 2 4.5296 149.622 32.5353
9213 2 6.34635 149.621 29.9687
2899 1 8.16574 149.622 31.2537
9195 2 9.98584 149.622 32.5353
6389 2 9.07447 151.207 29.9692
2947 1 0.891566 133.741 33.7653
9230 2 2.71173 133.734 35.0468
2945 1 3.61995 135.329 33.7747
2916 1 6.3478 133.741 33.7653
9231 2 5.44015 135.322 35.0561
12526 2 10.8964 135.322 35.0561
9201 2 8.16797 133.734 35.0468
2917 1 9.07619 135.329 33.7747
2948 1 3.62039 138.505 33.7909
2946 1 0.892067 136.917 33.7832
9216 2 2.7123 136.911 35.0646
9214 2 5.44066 138.5 35.0722
2908 1 6.34831 136.917 33.7832
12527 2 10.8969 138.5 35.0722
2906 1 9.07663 138.505 33.7909
9200 2 8.16854 136.911 35.0646
2931 1 3.62073 141.681 33.8036
2933 1 0.892455 140.093 33.7977
9215 2 2.71274 140.089 35.079
9217 2 5.44104 141.678 35.0849
2907 1 6.34869 140.093 33.7977
12518 2 10.8973 141.678 35.0849
2909 1 9.07697 141.681 33.8036
9197 2 8.16898 140.089 35.079
2934 1 3.62096 144.858 33.8128
9208 2 2.71306 143.267 35.0899
2932 1 0.892735 143.27 33.8087
9206 2 5.4413 144.856 35.0941
2897 1 6.34897 143.27 33.8087
12519 2 10.8975 144.856 35.0941
2895 1 9.07719 144.858 33.8128
9196 2 8.1693 143.267 35.0899
2925 1 3.62108 148.035 33.8184
9207 2 2.71327 146.445 35.0973
2927 1 0.892913 146.446 33.8161
9209 2 5.44145 148.034 35.0997
2896 1 6.34915 146.446 33.8161
2898 1 9.07732 148.035 33.8184
9194 2 8.16951 146.445 35.0973
12517 2 10.8977 148.034 35.0997
9205 2 2.71336 149.623 35.1011
2926 1 0.892995 149.623 33.8199
2890 1 6.34923 149.623 33.8199
9193 2 8.1696 149.623 35.1011
9406 2 0.89563 133.719 37.6121
14991 1 2.71558 133.712 38.896
2944 1 1.80359 135.316 36.3405
9404 2 3.62413 135.31 37.6214
9395 2 6.35187 133.719 37.6121
15345 1 5.44411 135.303 38.9052
2904 1 4.53136 133.726 36.3312
2902 1 7.25983 135.316 36.3405
2886 1 9.9876 133.726 36.3312
14961 1 8.17181 133.712 38.896
9396 2 9.08036 135.31 37.6214
18172 1 10.9004 135.303 38.9052
9405 2 0.896343 136.9 37.6298
15346 1 2.71636 136.894 38.9136
2929 1 1.80418 138.495 36.3565
9407 2 3.62476 138.49 37.6374
9392 2 6.35258 136.9 37.6298
15347 1 5.44481 138.485 38.9212
2903 1 4.53202 136.906 36.3489
2905 1 7.26042 138.495 36.3565
15317 1 8.1726 136.894 38.9136
2885 1 9.98826 136.906 36.3489
9390 2 9.081 138.49 37.6374
18170 1 10.901 138.485 38.9212
9402 2 0.896895 140.081 37.6441
15342 1 2.71697 140.077 38.9279
2930 1 1.80462 141.675 36.3691
9400 2 3.62523 141.671 37.65
9391 2 6.35313 140.081 37.6441
15340 1 5.44533 141.668 38.9337
2893 1 4.53254 140.085 36.3632
2891 1 7.26086 141.675 36.3691
15316 1 8.17321 140.077 38.9279
2884 1 9.98878 140.085 36.3632
9393 2 9.08147 141.671 37.65
18171 1 10.9016 141.668 38.9337
9401 2 0.897294 143.262 37.6549
15341 1 2.71741 143.259 38.9387
2923 1 1.80492 144.854 36.3782
9403 2 3.62556 144.853 37.6591
9388 2 6.35353 143.262 37.6549
15343 1 5.44569 144.851 38.9428
2892 1 4.53291 143.265 36.3741
2894 1 7.26116 144.854 36.3782
15311 1 8.17365 143.259 38.9387
2883 1 9.98915 143.265 36.3741
9386 2 9.0818 144.853 37.6591
18168 1 10.9019 144.851 38.9428
9399 2 0.89755 146.443 37.6623
15332 1 2.7177 146.442 38.946
2924 1 1.8051 148.034 36.3838
9397 2 3.62575 148.034 37.6646
9387 2 6.35379 146.443 37.6623
15330 1 5.4459 148.034 38.9483
2889 1 4.53314 146.444 36.3815
2887 1 7.26133 148.034 36.3838
15310 1 8.17393 146.442 38.946
2882 1 9.98938 146.444 36.3815
9389 2 9.08198 148.034 37.6646
18169 1 10.9021 148.034 38.9483
9398 2 0.897669 149.624 37.6661
15331 1 2.71783 149.625 38.9498
9385 2 6.35391 149.624 37.6661
2888 1 4.53325 149.624 36.3853
15297 1 8.17406 149.625 38.9498
2881 1 9.98949 149.624 36.3853
20971 2 1.80875 135.296 40.1856
14989 1 0.900476 133.697 41.4597
15344 1 3.62906 135.29 41.4689
14941 1 6.35671 133.697 41.4597
20603 2 4.53644 133.705 40.1764
20962 2 7.26499 135.296 40.1856
15313 1 9.08529 135.29 41.4689
20555 2 9.99268 133.705 40.1764
20972 2 1.80947 138.48 40.2015
15338 1 0.901347 136.883 41.4773
15336 1 3.62983 138.476 41.4848
20960 2 4.53725 136.888 40.194
15314 1 6.35759 136.883 41.4773
20958 2 7.26571 138.48 40.2015
15315 1 9.08607 138.476 41.4848
20922 2 9.99349 136.888 40.194
20968 2 1.81002 141.665 40.2141
15337 1 0.902021 140.068 41.4915
15339 1 3.63041 141.661 41.4973
20959 2 4.53789 140.073 40.2082
15308 1 6.35826 140.068 41.4915
20961 2 7.26626 141.665 40.2141
15306 1 9.08665 141.661 41.4973
20921 2 9.99412 140.073 40.2082
20969 2 1.81039 144.849 40.2231
15328 1 0.902511 143.254 41.5023
15326 1 3.63081 144.847 41.5064
15307 1 6.35875 143.254 41.5023
20952 2 4.53834 143.257 40.219
20950 2 7.26663 144.849 40.2231
15309 1 9.08705 144.847 41.5064
20920 2 9.99458 143.257 40.219
20965 2 1.81061 148.033 40.2287
15327 1 0.902824 146.44 41.5096
15329 1 3.63104 148.033 41.5119
15296 1 6.35906 146.44 41.5096
20951 2 4.53864 146.441 40.2263
20953 2 7.26685 148.033 40.2287
15294 1 9.08727 148.033 41.5119
20913 2 9.99488 146.441 40.2263
15321 1 0.902968 149.626 41.5133
15295 1 6.35921 149.626 41.5133
20938 2 4.53877 149.626 40.2301
20912 2 9.99501 149.626 40.2301
20589 2 2.72169 133.69 42.7395
15334 1 1.81467 135.277 44.0315
20587 2 0.907643 133.675 45.3015
20954 2 3.63624 135.27 45.3108
20955 2 5.45028 135.283 42.7488
14939 1 4.54231 133.682 44.0223
20534 2 6.36388 133.675 45.3015
15312 1 7.27091 135.277 44.0315
20553 2 8.17793 133.69 42.7395
20915 2 9.09248 135.27 45.3108
14891 1 9.99855 133.682 44.0223
23790 2 10.9065 135.283 42.7488
20956 2 2.72257 136.877 42.7572
15335 1 1.81548 138.466 44.0475
20944 2 0.908548 136.865 45.3193
20942 2 3.63705 138.46 45.3268
20957 2 5.45106 138.471 42.7647
15304 1 4.54322 136.871 44.0399
20916 2 6.36479 136.865 45.3193
15302 1 7.27172 138.466 44.0475
23786 2 10.9073 138.471 42.7647
20919 2 8.17881 136.877 42.7572
15262 1 9.99946 136.871 44.0399
20917 2 9.09328 138.46 45.3268
20948 2 2.72326 140.064 42.7714
15324 1 1.8161 141.655 44.06
20943 2 0.909255 140.056 45.3336
20946 2 5.45165 141.658 42.7772
15303 1 4.54393 140.06 44.0542
20908 2 6.36549 140.056 45.3336
20945 2 3.63766 141.651 45.3394
15305 1 7.27233 141.655 44.06
23787 2 10.9079 141.658 42.7772
20918 2 8.17949 140.064 42.7714
15261 1 10.0002 140.06 44.0542
20906 2 9.0939 141.651 45.3394
20947 2 2.72375 143.252 42.7822
15325 1 1.81652 144.844 44.0691
20933 2 0.909773 143.246 45.3444
20949 2 5.45206 144.845 42.7863
15292 1 4.54445 143.249 44.065
20907 2 6.36601 143.246 45.3444
20931 2 3.63808 144.842 45.3485
15290 1 7.27276 144.844 44.0691
23783 2 10.9083 144.845 42.7863
20911 2 8.17999 143.252 42.7822
15260 1 10.0007 143.249 44.065
20909 2 9.09432 144.842 45.3485
20937 2 2.72407 146.439 42.7895
15320 1 1.81676 148.033 44.0746
20932 2 0.910107 146.437 45.3517
20935 2 5.45229 148.033 42.7918
15291 1 4.54478 146.438 44.0723
20896 2 6.36635 146.437 45.3517
20934 2 3.63833 148.032 45.354
15293 1 7.273 148.033 44.0746
23784 2 10.9085 148.033 42.7918
20910 2 8.18031 146.439 42.7895
15253 1 10.001 146.438 44.0723
20894 2 9.09456 148.032 45.354
20936 2 2.72422 149.627 42.7932
20926 2 0.910263 149.628 45.3554
15278 1 4.54494 149.627 44.076
20895 2 6.3665 149.628 45.3554
20897 2 8.18046 149.627 42.7932
15252 1 10.0012 149.627 44.076
15333 1 0.000961437 135.263 46.5931
20940 2 1.82287 135.257 47.8718
14923 1 0.915562 133.652 49.1441
14925 1 2.72859 133.667 46.5837
15298 1 3.64416 135.25 49.1535
15299 1 5.4572 135.263 46.5931
14872 1 6.3718 133.652 49.1441
20532 2 4.55052 133.66 47.8625
15255 1 9.10039 135.25 49.1535
20914 2 7.27911 135.257 47.8718
14889 1 8.18483 133.667 46.5837
20493 2 10.0068 133.66 47.8625
15284 1 0.916462 136.848 49.1621
15300 1 2.72952 136.859 46.6015
15322 1 0.00178144 138.455 46.6091
20941 2 1.82367 138.45 47.888
15256 1 6.3727 136.848 49.1621
15282 1 3.64496 138.445 49.1697
15301 1 5.45802 138.455 46.6091
20904 2 4.55142 136.853 47.8803
15257 1 9.1012 138.445 49.1697
15259 1 8.18575 136.859 46.6015
20867 2 10.0077 136.853 47.8803
20902 2 7.27991 138.45 47.888
15283 1 0.917172 140.043 49.1765
15288 1 2.73024 140.052 46.6159
15323 1 0.00240516 141.648 46.6217
20929 2 1.82429 141.644 47.9006
15248 1 6.37341 140.043 49.1765
15285 1 3.64558 141.641 49.1824
15286 1 5.45864 141.648 46.6217
20903 2 4.55212 140.047 47.8947
15246 1 9.10182 141.641 49.1824
15258 1 8.18648 140.052 46.6159
20866 2 10.0084 140.047 47.8947
20905 2 7.28053 141.644 47.9006
15273 1 0.917697 143.238 49.1874
15287 1 2.73076 143.244 46.6267
15318 1 0.00283905 144.84 46.6308
20930 2 1.82472 144.838 47.9097
15247 1 6.37394 143.238 49.1874
15271 1 3.64601 144.836 49.1915
15289 1 5.45908 144.84 46.6308
20892 2 4.55265 143.241 47.9056
15249 1 9.10225 144.836 49.1915
15251 1 8.187 143.244 46.6267
20865 2 10.0089 143.241 47.9056
20890 2 7.28096 144.838 47.9097
15272 1 0.918037 146.434 49.1948
15277 1 2.73111 146.436 46.634
15319 1 0.00308827 148.032 46.6363
20925 2 1.82497 148.032 47.9152
15236 1 6.37428 146.434 49.1948
15274 1 3.64626 148.031 49.1971
15275 1 5.45933 148.032 46.6363
20891 2 4.55298 146.435 47.9129
15234 1 9.1025 148.031 49.1971
15250 1 8.18734 146.436 46.634
20858 2 10.0092 146.435 47.9129
20893 2 7.28121 148.032 47.9152
15266 1 0.918197 149.629 49.1985
15276 1 2.73126 149.628 46.6377
15235 1 6.37444 149.629 49.1985
20879 2 4.55314 149.629 47.9167
15237 1 8.1875 149.628 46.6377
20857 2 10.0094 149.629 47.9167
15280 1 1.83176 135.236 51.713
20939 2 0.0101593 135.243 50.4318
20520 2 2.73782 133.644 50.4223
20899 2 5.4664 135.243 50.4318
14870 1 4.55943 133.637 51.7034
15254 1 7.288 135.236 51.713
14840 1 10.0157 133.637 51.7034
20491 2 8.19406 133.644 50.4223
15281 1 1.83253 138.435 51.7294
20900 2 2.73869 136.841 50.4404
20927 2 0.0109409 138.44 50.4481
15244 1 4.56029 136.836 51.7216
20901 2 5.46718 138.44 50.4481
15212 1 10.0165 136.836 51.7216
15242 1 7.28877 138.435 51.7294
20864 2 8.19493 136.841 50.4404
15269 1 1.83313 141.634 51.7421
20888 2 2.73938 140.038 50.4549
20928 2 0.011544 141.637 50.4608
15243 1 4.56097 140.034 51.7362
20886 2 5.46778 141.637 50.4608
15211 1 10.0172 140.034 51.7362
15245 1 7.28937 141.634 51.7421
20863 2 8.19562 140.038 50.4549
15270 1 1.83355 144.832 51.7513
20887 2 2.7399 143.236 50.4658
20923 2 0.0119688 144.834 50.47
15232 1 4.56148 143.233 51.7472
20889 2 5.46821 144.834 50.47
15210 1 10.0177 143.233 51.7472
15230 1 7.28979 144.832 51.7513
20856 2 8.19614 143.236 50.4658
15265 1 1.8338 148.031 51.7569
20878 2 2.74023 146.433 50.4732
20924 2 0.0122158 148.031 50.4755
15231 1 4.56182 146.431 51.7546
20876 2 5.46845 148.031 50.4755
15204 1 10.0181 146.431 51.7546
15233 1 7.29004 148.031 51.7569
20855 2 8.19647 146.433 50.4732
20877 2 2.74039 149.63 50.477
15221 1 4.56198 149.63 51.7583
15203 1 10.0182 149.63 51.7583
20846 2 8.19663 149.63 50.477
15279 1 0.0199941 135.222 54.2714
20880 2 1.84287 135.215 55.5486
14860 1 2.74769 133.621 54.2617
20518 2 0.925772 133.629 52.9811
15239 1 5.47623 135.222 54.2714
20898 2 3.65432 135.229 52.9907
20480 2 4.57058 133.613 55.5388
20482 2 6.38201 133.629 52.9811
20859 2 7.29911 135.215 55.5486
20860 2 9.11056 135.229 52.9907
14838 1 8.20393 133.621 54.2617
20473 2 10.0268 133.613 55.5388
15240 1 2.7485 136.823 54.2801
15267 1 0.020726 138.424 54.288
20881 2 1.84358 138.419 55.5653
20884 2 0.926599 136.829 52.9994
15241 1 5.47696 138.424 54.288
20849 2 4.57136 136.817 55.5574
20861 2 6.38284 136.829 52.9994
20882 2 3.65507 138.43 53.0072
15209 1 8.20474 136.823 54.2801
20837 2 10.0276 136.817 55.5574
20847 2 7.29982 138.419 55.5653
20862 2 9.11131 138.43 53.0072
15228 1 2.74915 140.025 54.2949
15268 1 0.0213003 141.626 54.3009
20870 2 1.84414 141.623 55.5783
20883 2 0.927265 140.03 53.0141
15226 1 5.47754 141.626 54.3009
20848 2 4.572 140.021 55.5722
20853 2 6.3835 140.03 53.0141
20885 2 3.65565 141.63 53.02
15208 1 8.20539 140.025 54.2949
20836 2 10.0282 140.021 55.5722
20850 2 7.30038 141.623 55.5783
20851 2 9.11189 141.63 53.02
15227 1 2.74965 143.227 54.306
15263 1 0.0217102 144.828 54.3101
20871 2 1.84454 144.826 55.5876
20874 2 0.927764 143.23 53.0251
15229 1 5.47795 144.828 54.3101
20841 2 4.57248 143.224 55.5834
20852 2 6.384 143.23 53.0251
20872 2 3.65607 144.83 53.0293
15202 1 8.20588 143.227 54.306
20835 2 10.0287 143.224 55.5834
20839 2 7.30078 144.826 55.5876
20854 2 9.11231 144.83 53.0293
15220 1 2.74997 146.429 54.3134
15264 1 0.0219513 148.03 54.3157
20868 2 1.84478 148.03 55.5932
20873 2 0.928093 146.43 53.0325
15218 1 5.47819 148.03 54.3157
20840 2 4.5728 146.428 55.5908
20845 2 6.38433 146.43 53.0325
20875 2 3.65631 148.03 53.0348
20843 2 9.11255 148.03 53.0348
20842 2 7.30102 148.03 55.5932
20834 2 10.029 146.428 55.5908
15201 1 8.20621 146.429 54.3134
20869 2 0.928249 149.631 53.0363
15219 1 2.75013 149.631 54.3172
20844 2 6.38449 149.631 53.0363
20838 2 4.57295 149.631 55.5946
20833 2 10.0292 149.631 55.5946
15196 1 8.20637 149.631 54.3172
21132 2 0.0320025 135.201 58.1055
14858 1 0.936556 133.606 56.819
20799 2 2.75974 133.598 58.0956
21125 2 5.48824 135.201 58.1055
15238 1 3.66507 135.208 56.8288
14833 1 6.39279 133.606 56.819
15205 1 9.12131 135.208 56.8288
20769 2 8.21598 133.598 58.0956
21126 2 2.76048 136.805 58.1144
21130 2 0.0326778 138.408 58.1224
15224 1 0.937314 136.811 56.8377
21127 2 5.48892 138.408 58.1224
15206 1 6.39355 136.811 56.8377
15222 1 3.66576 138.414 56.8456
21097 2 8.21671 136.805 58.1144
15207 1 9.122 138.414 56.8456
21122 2 2.76108 140.012 58.1294
21131 2 0.0332181 141.615 58.1355
15223 1 0.937937 140.016 56.8526
21120 2 5.48946 141.615 58.1355
15199 1 6.39418 140.016 56.8526
15225 1 3.66631 141.619 56.8587
21096 2 8.21732 140.012 58.1294
15197 1 9.12255 141.619 56.8587
21121 2 2.76155 143.219 58.1407
21128 2 0.0336101 144.822 58.1449
15216 1 0.938412 143.222 56.8638
21123 2 5.48985 144.822 58.1449
15198 1 6.39465 143.222 56.8638
15214 1 3.66671 144.824 56.868
21091 2 8.21779 143.219 58.1407
15200 1 9.12295 144.824 56.868
21112 2 2.76187 146.426 58.1482
21129 2 0.0338446 148.029 58.1506
15215 1 0.93873 146.427 56.8713
21110 2 5.49008 148.029 58.1506
15195 1 6.39497 146.427 56.8713
15217 1 3.66695 148.029 56.8736
21090 2 8.21811 146.426 58.1482
15193 1 9.12318 148.029 56.8736
21111 2 2.76202 149.632 58.152
15213 1 0.938883 149.632 56.8751
15194 1 6.39512 149.632 56.8751
21077 2 8.21826 149.632 58.152
15491 1 1.85448 135.194 59.3853
15490 1 0.0444436 135.18 61.9409
15141 1 2.7722 133.574 61.9308
20797 2 0.949456 133.582 60.6514
15155 1 4.58223 133.59 59.3753
15475 1 5.50068 135.18 61.9409
21124 2 3.67794 135.187 60.6614
20749 2 6.40569 133.582 60.6514
15482 1 7.31072 135.194 59.3853
15107 1 10.0385 133.59 59.3753
21093 2 9.13418 135.187 60.6614
15105 1 8.22844 133.574 61.9308
15492 1 1.85515 138.403 59.4023
15476 1 2.7729 136.786 61.95
15486 1 0.0450903 138.392 61.9582
21118 2 0.950164 136.793 60.6705
15480 1 4.58295 136.799 59.3943
15477 1 5.50133 138.392 61.9582
21094 2 6.4064 136.793 60.6705
21116 2 3.6786 138.398 60.6785
15442 1 10.0392 136.799 59.3943
15478 1 7.31138 138.403 59.4023
15439 1 8.22914 136.786 61.95
21095 2 9.13483 138.398 60.6785
15488 1 1.85568 141.612 59.4155
15468 1 2.77349 139.998 61.9653
15487 1 0.0456171 141.604 61.9715
21117 2 0.950758 140.003 60.6856
15479 1 4.58355 140.007 59.4094
15466 1 5.50186 141.604 61.9715
21088 2 6.407 140.003 60.6856
21119 2 3.67912 141.608 60.6918
15441 1 10.0398 140.007 59.4094
15481 1 7.31192 141.612 59.4155
15438 1 8.22973 139.998 61.9653
21086 2 9.13536 141.608 60.6918
15489 1 1.85607 144.82 59.4249
15467 1 2.77395 143.21 61.9767
15483 1 0.0460048 144.816 61.981
21108 2 0.951218 143.213 60.697
15472 1 4.58401 143.216 59.4207
15469 1 5.50224 144.816 61.981
21087 2 6.40746 143.213 60.697
21106 2 3.67951 144.818 60.7012
15440 1 10.0403 143.216 59.4207
15470 1 7.31231 144.82 59.4249
15431 1 8.23019 143.21 61.9767
21089 2 9.13575 144.818 60.7012
15485 1 1.8563 148.029 59.4306
15457 1 2.77426 146.422 61.9843
15484 1 0.04624 148.028 61.9866
21107 2 0.95153 146.423 60.7045
15471 1 4.58432 146.424 59.4282
15455 1 5.50248 148.028 61.9866
21076 2 6.40777 146.423 60.7045
21109 2 3.67975 148.028 60.7069
15433 1 10.0406 146.424 59.4282
15473 1 7.31254 148.029 59.4306
15430 1 8.2305 146.422 61.9843
21074 2 9.13598 148.028 60.7069
15456 1 2.77442 149.634 61.9881
21101 2 0.951684 149.633 60.7084
15458 1 4.58448 149.633 59.432
21075 2 6.40792 149.633 60.7084
15432 1 10.0407 149.633 59.432
15417 1 8.23066 149.634 61.9881
21113 2 0.058921 135.159 65.77
21114 2 1.86818 135.173 63.2163
15139 1 0.962645 133.559 64.4858
20733 2 2.78667 133.551 65.7597
15474 1 3.69113 135.166 64.4961
21079 2 5.51516 135.159 65.77
15086 1 6.41888 133.559 64.4858
20747 2 4.59594 133.566 63.2061
15435 1 9.14737 135.166 64.4961
21092 2 7.32442 135.173 63.2163
20697 2 8.24291 133.551 65.7597
20699 2 10.0522 133.566 63.2061
15464 1 0.963348 136.774 64.5053
21080 2 2.78739 136.768 65.7792
21102 2 0.0595875 138.376 65.7874
21115 2 1.86883 138.387 63.2336
15436 1 6.41959 136.774 64.5053
15462 1 3.69178 138.382 64.5135
21081 2 5.51583 138.376 65.7874
21084 2 4.59664 136.78 63.2255
15437 1 9.14802 138.382 64.5135
21039 2 8.24363 136.768 65.7792
21042 2 10.0529 136.78 63.2255
21082 2 7.32507 138.387 63.2336
15463 1 0.963945 139.989 64.5207
21068 2 2.788 139.985 65.7947
21103 2 0.0601319 141.593 65.8009
21104 2 1.86936 141.6 63.247
15428 1 6.42018 139.989 64.5207
15465 1 3.69231 141.597 64.5269
21066 2 5.51637 141.593 65.8009
21083 2 4.59723 139.994 63.2408
15426 1 9.14855 141.597 64.5269
21038 2 8.24423 139.985 65.7947
21041 2 10.0535 139.994 63.2408
21085 2 7.3256 141.6 63.247
15453 1 0.964412 143.204 64.5321
21067 2 2.78847 143.201 65.8062
21098 2 0.0605341 144.81 65.8105
21105 2 1.86975 144.814 63.2565
15427 1 6.42065 143.204 64.5321
15451 1 3.69271 144.812 64.5364
21069 2 5.51677 144.81 65.8105
21072 2 4.5977 143.207 63.2522
15429 1 9.14895 144.812 64.5364
21031 2 8.24471 143.201 65.8062
21040 2 10.0539 143.207 63.2522
21070 2 7.32599 144.814 63.2565
15452 1 0.964732 146.419 64.5398
21057 2 2.7888 146.418 65.8139
21099 2 0.06078 148.026 65.8163
21100 2 1.86999 148.027 63.2622
15416 1 6.42097 146.419 64.5398
15454 1 3.69295 148.027 64.5421
21055 2 5.51702 148.026 65.8163
21071 2 4.59801 146.421 63.2598
15414 1 9.14919 148.027 64.5421
21030 2 8.24503 146.418 65.8139
21033 2 10.0542 146.421 63.2598
21073 2 7.32623 148.027 63.2622
15446 1 0.964893 149.635 64.5436
21056 2 2.78896 149.635 65.8177
15415 1 6.42113 149.635 64.5436
21058 2 4.59817 149.634 63.2637
21017 2 8.2452 149.635 65.8177
21032 2 10.0544 149.634 63.2637
15460 1 1.88189 135.153 67.0516
20731 2 0.977771 133.535 68.3112
21078 2 3.70628 135.145 68.3216
15084 1 4.60963 133.543 67.0413
20680 2 6.43401 133.535 68.3112
15434 1 7.33812 135.153 67.0516
21035 2 9.16252 135.145 68.3216
15045 1 10.0659 133.543 67.0413
15461 1 1.88257 138.371 67.0692
21064 2 0.978533 136.755 68.3309
15424 1 4.61036 136.762 67.0609
21036 2 6.43477 136.755 68.3309
21062 2 3.70699 138.365 68.3392
15387 1 10.0666 136.762 67.0609
15422 1 7.33881 138.371 67.0692
21037 2 9.16323 138.365 68.3392
15449 1 1.88313 141.59 67.0827
21063 2 0.979175 139.975 68.3465
15423 1 4.61098 139.981 67.0764
21028 2 6.43541 139.975 68.3465
21065 2 3.70756 141.585 68.3528
15386 1 10.0672 139.981 67.0764
15425 1 7.33937 141.59 67.0827
21026 2 9.1638 141.585 68.3528
15450 1 1.88354 144.808 67.0923
21053 2 0.979675 143.195 68.3581
15412 1 4.61147 143.199 67.088
21027 2 6.43591 143.195 68.3581
21051 2 3.70799 144.805 68.3624
15385 1 10.0677 143.199 67.088
15410 1 7.33978 144.808 67.0923
21029 2 9.16422 144.805 68.3624
15445 1 1.88379 148.027 67.098
21052 2 0.980017 146.415 68.3658
15411 1 4.61181 146.417 67.0956
21016 2 6.43626 146.415 68.3658
21054 2 3.70824 148.025 68.3682
15378 1 10.068 146.417 67.0956
15413 1 7.34003 148.027 67.098
21014 2 9.16448 148.025 68.3682
21046 2 0.98019 149.635 68.3696
15399 1 4.61198 149.636 67.0995
21015 2 6.43643 149.635 68.3696
15377 1 10.0682 149.636 67.0995
15459 1 0.0721948 135.138 69.6109
21060 2 1.89744 135.131 70.8682
15070 1 0.985444 133.511 72.1763
15072 1 2.79989 133.527 69.6005
15418 1 3.71405 135.124 72.1867
15419 1 5.52843 135.138 69.6109
15034 1 6.44168 133.511 72.1763
20678 2 4.62512 133.519 70.8577
15380 1 9.17029 135.124 72.1867
21034 2 7.35368 135.131 70.8682
15043 1 8.25613 133.527 69.6005
20648 2 10.0814 133.519 70.8577
15404 1 0.986387 136.736 72.1961
15420 1 2.80071 136.749 69.6202
15447 1 0.0729456 138.36 69.6286
21061 2 1.89821 138.354 70.8859
15381 1 6.44263 136.736 72.1961
15402 1 3.71492 138.349 72.2045
15421 1 5.52918 138.36 69.6286
21024 2 4.62596 136.742 70.8775
15382 1 9.17116 138.349 72.2045
15384 1 8.25694 136.749 69.6202
20992 2 10.0822 136.742 70.8775
21022 2 7.35445 138.354 70.8859
15403 1 0.987168 139.962 72.2119
15408 1 2.80139 139.971 69.6359
15448 1 0.0735538 141.582 69.6422
21049 2 1.89883 141.577 70.8996
15373 1 6.44341 139.962 72.2119
15405 1 3.71561 141.574 72.2182
15406 1 5.52979 141.582 69.6422
21023 2 4.62666 139.966 70.8932
15371 1 9.17185 141.574 72.2182
15383 1 8.25763 139.971 69.6359
20991 2 10.0829 139.966 70.8932
21025 2 7.35507 141.577 70.8996
15394 1 0.987767 143.187 72.2236
15407 1 2.80192 143.193 69.6475
15443 1 0.0740003 144.804 69.6519
21050 2 1.89928 144.801 70.9093
15372 1 6.44401 143.187 72.2236
15392 1 3.71611 144.799 72.2279
15409 1 5.53024 144.804 69.6519
21012 2 4.6272 143.189 70.9049
15374 1 9.17235 144.799 72.2279
15376 1 8.25816 143.193 69.6475
20990 2 10.0834 143.189 70.9049
21010 2 7.35552 144.801 70.9093
15393 1 0.988171 146.412 72.2313
15398 1 2.80228 146.415 69.6552
15444 1 0.0742729 148.026 69.6576
21045 2 1.89956 148.024 70.9151
15365 1 6.44441 146.412 72.2313
15395 1 3.71642 148.025 72.2338
15396 1 5.53051 148.026 69.6576
21011 2 4.62756 146.412 70.9126
15363 1 9.17266 148.025 72.2338
15375 1 8.25852 146.415 69.6552
20984 2 10.0838 146.412 70.9126
21013 2 7.3558 148.024 70.9151
15389 1 0.988375 149.637 72.2352
15397 1 2.80246 149.636 69.6591
15364 1 6.44461 149.637 72.2352
21001 2 4.62775 149.635 70.9165
15366 1 8.2587 149.636 69.6591
20983 2 10.084 149.635 70.9165
15400 1 1.84076 135.109 74.8379
21059 2 0.086902 135.116 73.4001
20666 2 0.976618 133.487 75.864
20668 2 2.81453 133.502 73.3896
21018 2 3.70534 135.102 75.8745
21019 2 5.54314 135.116 73.4001
15032 1 4.56824 133.494 74.8274
20641 2 6.43286 133.487 75.864
15379 1 7.297 135.109 74.8379
20985 2 9.16158 135.102 75.8745
15025 1 10.0245 133.494 74.8274
20646 2 8.27077 133.502 73.3896
15401 1 1.84188 138.338 74.8558
21004 2 0.977769 136.717 75.8839
21020 2 2.81547 136.729 73.4095
21047 2 0.0877641 138.343 73.4179
15369 1 4.56947 136.724 74.8474
20986 2 6.43401 136.717 75.8839
21002 2 3.70639 138.332 75.8924
21021 2 5.544 138.343 73.4179
15357 1 10.0257 136.724 74.8474
15367 1 7.29812 138.338 74.8558
20987 2 9.16262 138.332 75.8924
20989 2 8.27171 136.729 73.4095
15390 1 1.84278 141.567 74.8695
21003 2 0.978709 139.947 75.8998
21008 2 2.81625 139.956 73.4253
21048 2 0.0884495 141.569 73.4317
15368 1 4.57048 139.953 74.8631
20979 2 6.43495 139.947 75.8998
21005 2 3.70721 141.562 75.9062
21006 2 5.54469 141.569 73.4317
15356 1 10.0267 139.953 74.8631
15370 1 7.29902 141.567 74.8695
20977 2 9.16345 141.562 75.9062
20988 2 8.27249 139.956 73.4253
15391 1 1.84343 144.797 74.8793
20996 2 0.979421 143.177 75.9116
21007 2 2.81684 143.182 73.437
21043 2 0.0889456 144.796 73.4414
15361 1 4.57126 143.182 74.8749
20978 2 6.43566 143.177 75.9116
20994 2 3.70781 144.792 75.916
21009 2 5.54518 144.796 73.4414
15355 1 10.0275 143.182 74.8749
15359 1 7.29967 144.797 74.8793
20980 2 9.16405 144.792 75.916
20982 2 8.27308 143.182 73.437
15388 1 1.84382 148.026 74.8851
20995 2 0.979898 146.407 75.9194
21000 2 2.81724 146.409 73.4448
21044 2 0.0892454 148.022 73.4473
15360 1 4.57178 146.412 74.8827
20975 2 6.43614 146.407 75.9194
20997 2 3.70817 148.022 75.9219
20998 2 5.54548 148.022 73.4473
15354 1 10.028 146.412 74.8827
15362 1 7.30006 148.026 74.8851
20973 2 9.1644 148.022 75.9219
20981 2 8.27348 146.409 73.4448
20993 2 0.980136 149.637 75.9233
20999 2 2.81744 149.635 73.4487
15358 1 4.57204 149.641 74.8866
20974 2 6.43637 149.637 75.9233
15353 1 10.0283 149.641 74.8866
20976 2 8.27368 149.635 73.4487
9585 2 11.8092 1.54087 -0.859994
9593 2 13.6201 1.53808 -3.36767
3264 1 12.6961 3.10459 -2.30538
9583 2 14.5374 3.10804 -0.86157
3250 1 15.4241 1.53812 -2.30381
9555 2 17.2654 1.54087 -0.859994
9594 2 16.3484 3.10369 -3.36924
3248 1 18.1524 3.10459 -2.30538
3204 1 20.8804 1.53812 -2.30381
9558 2 19.0764 1.53808 -3.36767
9556 2 19.9936 3.10804 -0.86157
6334 2 21.8046 3.10369 -3.36924
9584 2 11.8095 4.67522 -0.864196
9589 2 13.6204 4.66931 -3.37185
3260 1 12.6966 6.23755 -2.31165
9586 2 14.5378 6.2424 -0.867873
3249 1 15.4244 4.67106 -2.30799
9549 2 17.2657 4.67522 -0.864196
9587 2 16.3488 6.23494 -3.37551
3251 1 18.1528 6.23755 -2.31165
3203 1 20.8807 4.67106 -2.30799
9557 2 19.0767 4.66931 -3.37185
9547 2 19.994 6.2424 -0.867873
6335 2 21.805 6.23494 -3.37551
9574 2 11.81 7.8096 -0.8726
9588 2 13.621 7.80059 -3.38022
3261 1 12.6973 9.3706 -2.3221
9572 2 14.5385 9.37681 -0.878376
3242 1 15.425 7.80406 -2.31636
9548 2 17.2662 7.8096 -0.8726
9590 2 16.3495 9.36627 -3.38597
3240 1 18.1535 9.3706 -2.3221
3202 1 20.8812 7.80406 -2.31636
9552 2 19.0772 7.80059 -3.38022
9550 2 19.9947 9.37681 -0.878376
6332 2 21.8057 9.36627 -3.38597
9573 2 11.8108 10.9441 -0.885202
9578 2 13.6218 10.932 -3.39276
3256 1 12.6983 12.5038 -2.33672
9575 2 14.5394 12.5113 -0.893077
3241 1 15.4259 10.9372 -2.32889
9535 2 17.267 10.9441 -0.885202
9576 2 16.3504 12.4977 -3.40059
3243 1 18.1546 12.5038 -2.33672
3195 1 20.8821 10.9372 -2.32889
9551 2 19.078 10.932 -3.39276
9533 2 19.9956 12.5113 -0.893077
6333 2 21.8067 12.4977 -3.40059
9566 2 11.8118 14.0787 -0.902
9577 2 13.6229 14.0636 -3.40947
3257 1 12.6997 15.6373 -2.35548
9564 2 14.5405 15.6461 -0.911974
3228 1 15.4271 14.0705 -2.34559
9534 2 17.2681 14.0787 -0.902
9579 2 16.3517 15.6294 -3.41938
3226 1 18.1559 15.6373 -2.35548
3194 1 20.8833 14.0705 -2.34559
9538 2 19.0791 14.0636 -3.40947
9536 2 19.9968 15.6461 -0.911974
6331 2 21.8079 15.6294 -3.41938
9565 2 11.8131 17.2136 -0.92301
9567 2 13.6243 17.1954 -3.43033
3647 1 12.7017 18.7713 -2.37854
9999 2 14.5419 18.7812 -0.935108
3227 1 15.4287 17.2042 -2.36644
9517 2 17.2693 17.2136 -0.92301
10000 2 16.3533 18.7614 -3.44232
3636 1 18.158 18.7713 -2.37854
3179 1 20.885 17.2042 -2.36644
9537 2 19.0805 17.1954 -3.43033
9962 2 19.9982 18.7812 -0.935108
6744 2 21.8095 18.7614 -3.44232
3246 1 13.624 1.54152 0.363042
9582 2 12.7165 3.11245 1.69364
9545 2 15.4445 1.54362 1.69522
3247 1 16.3523 3.10954 0.361465
9543 2 18.1727 3.11245 1.69364
3201 1 19.0803 1.54152 0.363042
9492 2 20.9007 1.54362 1.69522
186 1 21.8085 3.10954 0.361465
3238 1 13.6243 4.67756 0.358837
9570 2 12.7169 6.25012 1.68731
9544 2 15.4448 4.68128 1.691
3236 1 16.3527 6.24559 0.355159
9546 2 18.1731 6.25012 1.68731
3200 1 19.0806 4.67756 0.358837
9491 2 20.901 4.68128 1.691
187 1 21.8089 6.24559 0.355159
3237 1 13.6249 7.81363 0.350429
9571 2 12.7176 9.38781 1.67677
9531 2 15.4453 7.81896 1.68257
3239 1 16.3534 9.3817 0.344648
9529 2 18.1738 9.38781 1.67677
3193 1 19.0811 7.81363 0.350429
9490 2 20.9016 7.81896 1.68257
182 1 21.8096 9.3817 0.344648
3224 1 13.6257 10.9498 0.337817
9562 2 12.7185 12.5256 1.66201
9530 2 15.4461 10.9567 1.66992
3222 1 16.3543 12.5179 0.329937
9532 2 18.1748 12.5256 1.66201
3192 1 19.0819 10.9498 0.337817
9483 2 20.9024 10.9567 1.66992
183 1 21.8106 12.5179 0.329937
3223 1 13.6268 14.0861 0.321006
9563 2 12.7197 15.6636 1.64301
9516 2 15.4472 14.0945 1.65304
3225 1 16.3556 15.6544 0.311018
9514 2 18.176 15.6636 1.64301
3178 1 19.083 14.0861 0.321006
9482 2 20.9035 14.0945 1.65304
181 1 21.8118 15.6544 0.311018
3213 1 13.6282 17.2227 0.29996
9989 2 12.7212 18.8018 1.61976
9515 2 15.4486 17.2326 1.63192
3629 1 16.3571 18.7912 0.28783
9961 2 18.1775 18.8018 1.61976
3177 1 19.0844 17.2227 0.29996
9467 2 20.9048 17.2326 1.63192
574 1 21.8133 18.7912 0.28783
3234 1 11.8053 1.54472 2.96193
3232 1 14.5335 3.11439 2.96035
9541 2 13.6237 1.54683 4.263
3231 1 12.7132 3.11984 5.54279
3198 1 17.2615 1.54472 2.96193
3186 1 15.4412 1.54854 5.54437
9542 2 16.3519 3.11731 4.26142
3184 1 18.1695 3.11984 5.54279
3199 1 19.9898 3.11439 2.96035
3132 1 20.8975 1.54854 5.54437
9489 2 19.0799 1.54683 4.263
6304 2 21.8081 3.11731 4.26142
3233 1 11.8056 4.68406 2.95771
3235 1 14.5339 6.25373 2.95402
9527 2 13.6239 4.68778 4.25878
3216 1 12.7136 6.26243 5.53647
3190 1 17.2618 4.68406 2.95771
3185 1 15.4415 4.69114 5.54016
9525 2 16.3523 6.25825 4.25509
3187 1 18.1699 6.26243 5.53647
3188 1 19.9902 6.25373 2.95402
3131 1 20.8978 4.69114 5.54016
9488 2 19.0802 4.68778 4.25878
6305 2 21.8085 6.25825 4.25509
3220 1 11.8061 7.8234 2.94927
3218 1 14.5346 9.39309 2.94347
9526 2 13.6245 7.82872 4.25034
3217 1 12.7144 9.405 5.52591
3189 1 17.2624 7.8234 2.94927
3171 1 15.4421 7.83371 5.53172
9528 2 16.353 9.39919 4.24453
3169 1 18.1706 9.405 5.52591
3191 1 19.9909 9.39309 2.94347
3130 1 20.8983 7.83371 5.53172
9481 2 19.0807 7.82872 4.25034
6296 2 21.8092 9.39919 4.24453
3219 1 11.807 10.9628 2.93661
3221 1 14.5356 12.5325 2.92869
9512 2 13.6253 10.9697 4.23766
3208 1 12.7154 12.5476 5.51111
3175 1 17.2632 10.9628 2.93661
3170 1 15.4429 10.9763 5.51904
9510 2 16.354 12.5402 4.22974
3172 1 18.1716 12.5476 5.51111
3173 1 19.9919 12.5325 2.92869
3123 1 20.8992 10.9763 5.51904
9480 2 19.0816 10.9697 4.23766
6297 2 21.8102 12.5402 4.22974
3212 1 11.8081 14.1023 2.9197
3210 1 14.5369 15.6721 2.90965
9511 2 13.6265 14.1107 4.22074
3209 1 12.7167 15.6902 5.49205
3174 1 17.2643 14.1023 2.9197
3156 1 15.4441 14.1189 5.50211
9513 2 16.3553 15.6813 4.21069
3154 1 18.1729 15.6902 5.49205
6295 2 21.8115 15.6813 4.21069
9466 2 19.0827 14.1107 4.22074
3122 1 20.9003 14.1189 5.50211
3176 1 19.9931 15.6721 2.90965
3614 1 12.7183 18.833 5.46871
3628 1 14.5384 18.812 2.88635
9501 2 13.6279 17.2518 4.19957
3211 1 11.8095 17.242 2.89853
3580 1 18.1745 18.833 5.46871
9948 2 16.3568 18.8225 4.18738
3155 1 15.4455 17.2616 5.48091
3157 1 17.2657 17.242 2.89853
6724 2 21.8131 18.8225 4.18738
3581 1 19.9947 18.812 2.88635
9465 2 19.0841 17.2518 4.19957
3108 1 20.9018 17.2616 5.48091
3182 1 13.6209 1.55229 8.12094
9523 2 11.8032 1.55047 6.83482
9521 2 14.5314 3.12257 6.83325
9486 2 17.2594 1.55047 6.83482
3183 1 16.3492 3.12521 8.11937
3129 1 19.0772 1.55229 8.12094
9487 2 19.9876 3.12257 6.83325
142 1 21.8054 3.12521 8.11937
3167 1 13.6212 4.69811 8.11675
9522 2 11.8034 4.69466 6.83062
9524 2 14.5318 6.26673 6.82694
9478 2 17.2597 4.69466 6.83062
3165 1 16.3496 6.27099 8.11307
3128 1 19.0775 4.69811 8.11675
9476 2 19.988 6.26673 6.82694
143 1 21.8058 6.27099 8.11307
3166 1 13.6218 7.84386 8.10834
9508 2 11.804 7.8388 6.8222
9506 2 14.5325 9.41087 6.81641
9477 2 17.2602 7.8388 6.8222
3168 1 16.3503 9.41672 8.10255
3121 1 19.078 7.84386 8.10834
9479 2 19.9888 9.41087 6.81641
134 1 21.8065 9.41672 8.10255
3152 1 13.6226 10.9896 8.0957
9507 2 11.8049 10.9829 6.80955
9509 2 14.5335 12.555 6.80164
9463 2 17.2611 10.9829 6.80955
3150 1 16.3513 12.5624 8.0878
3120 1 19.0789 10.9896 8.0957
9461 2 19.9898 12.555 6.80164
135 1 21.8075 12.5624 8.0878
3151 1 13.6238 14.1352 8.07882
9500 2 11.806 14.127 6.79266
9498 2 14.5348 15.6991 6.78262
9462 2 17.2622 14.127 6.79266
3153 1 16.3526 15.708 8.06879
3107 1 19.08 14.1352 8.07882
9464 2 19.991 15.6991 6.78262
133 1 21.8088 15.708 8.06879
3141 1 13.6252 17.2808 8.05768
9499 2 11.8074 17.2711 6.77151
9947 2 14.5364 18.8432 6.75935
9448 2 17.2637 17.2711 6.77151
3565 1 16.3542 18.8536 8.04552
3106 1 19.0815 17.2808 8.05768
541 1 21.8104 18.8536 8.04552
9893 2 19.9926 18.8432 6.75935
3163 1 11.8009 1.55605 10.695
9470 2 13.6193 1.55793 11.9801
9520 2 12.7112 3.12787 9.40601
3161 1 14.5291 3.13055 10.6935
9474 2 15.4392 1.55417 9.40757
3126 1 17.2571 1.55605 10.695
9472 2 18.1674 3.12787 9.40601
9471 2 16.3476 3.1332 11.9786
9432 2 20.8954 1.55417 9.40757
9429 2 19.0756 1.55793 11.9801
3127 1 19.9854 3.13055 10.6935
6238 2 21.8038 3.1332 11.9786
3162 1 11.8012 4.70504 10.6909
9455 2 13.6196 4.70846 11.976
9504 2 12.7116 6.27521 9.39974
3164 1 14.5295 6.2795 10.6872
9473 2 15.4395 4.70155 9.4034
3118 1 17.2574 4.70504 10.6909
9475 2 18.1678 6.27521 9.39974
9453 2 16.3479 6.28369 11.9724
9431 2 20.8957 4.70155 9.4034
9428 2 19.0758 4.70846 11.976
3116 1 19.9858 6.2795 10.6872
6239 2 21.8042 6.28369 11.9724
9505 2 12.7123 9.42248 9.38927
3148 1 11.8017 7.85393 10.6825
9454 2 13.6201 7.85889 11.9677
3146 1 14.5302 9.42834 10.6768
9459 2 15.44 7.84886 9.39504
9457 2 18.1685 9.42248 9.38927
3117 1 17.258 7.85393 10.6825
9456 2 16.3486 9.43405 11.962
9430 2 20.8963 7.84886 9.39504
9422 2 19.0764 7.85889 11.9677
3119 1 19.9865 9.42834 10.6768
6230 2 21.8048 9.43405 11.962
9496 2 12.7133 12.5697 9.37458
3147 1 11.8025 11.0027 10.67
9443 2 13.6209 11.0092 11.9553
3149 1 14.5312 12.5771 10.6621
9458 2 15.4409 10.9961 9.38246
9460 2 18.1695 12.5697 9.37458
3104 1 17.2588 11.0027 10.67
9441 2 16.3495 12.5843 11.9475
9424 2 20.8971 10.9961 9.38246
9421 2 19.0771 11.0092 11.9553
3102 1 19.9874 12.5771 10.6621
6231 2 21.8058 12.5843 11.9475
9497 2 12.7146 15.7167 9.35567
3140 1 11.8037 14.1514 10.6532
9442 2 13.622 14.1593 11.9386
3138 1 14.5324 15.7256 10.6433
9447 2 15.442 14.1432 9.36566
9445 2 18.1708 15.7167 9.35567
3103 1 17.2599 14.1514 10.6532
9444 2 16.3507 15.7343 11.9287
9423 2 20.8982 14.1432 9.36566
9415 2 19.0782 14.1593 11.9386
3105 1 19.9887 15.7256 10.6433
6229 2 21.807 15.7343 11.9287
3139 1 11.8051 17.2998 10.6322
9436 2 13.6233 17.3092 11.9178
9927 2 12.7161 18.8637 9.33253
3564 1 14.534 18.874 10.6202
9446 2 15.4434 17.2902 9.34463
3093 1 17.2613 17.2998 10.6322
9892 2 18.1724 18.8637 9.33253
9877 2 16.3522 18.884 11.9058
9416 2 20.8997 17.2902 9.34463
9414 2 19.0796 17.3092 11.9178
3509 1 19.9902 18.874 10.6202
6662 2 21.8085 18.884 11.9058
3110 1 13.618 1.56369 15.8395
9451 2 11.7998 1.56174 14.5521
3160 1 12.7094 3.13592 13.2662
9449 2 14.528 3.13858 14.5506
3114 1 15.4374 1.55985 13.2677
9426 2 17.256 1.56174 14.5521
3111 1 16.3462 3.14132 15.838
3112 1 18.1656 3.13592 13.2662
3081 1 19.0743 1.56369 15.8395
3084 1 20.8937 1.55985 13.2677
9427 2 19.9842 3.13858 14.5506
70 1 21.8025 3.14132 15.838
3096 1 13.6182 4.71891 15.8355
9450 2 11.8 4.71539 14.5481
3144 1 12.7098 6.28798 13.2601
9452 2 14.5283 6.29216 14.5445
3113 1 15.4377 4.71197 13.2637
9419 2 17.2563 4.71539 14.5481
3094 1 16.3466 6.29647 15.832
3115 1 18.166 6.28798 13.2601
3080 1 19.0745 4.71891 15.8355
3083 1 20.8939 4.71197 13.2637
9417 2 19.9846 6.29216 14.5445
71 1 21.8028 6.29647 15.832
3095 1 13.6187 7.87399 15.8274
9439 2 11.8005 7.8689 14.5399
9437 2 14.5289 9.4456 14.5343
3145 1 12.7104 9.43991 13.2497
3100 1 15.4382 7.86397 13.2554
9418 2 17.2567 7.8689 14.5399
3098 1 18.1666 9.43991 13.2497
3077 1 19.0749 7.87399 15.8274
3082 1 20.8944 7.86397 13.2554
9420 2 19.9852 9.4456 14.5343
9438 2 11.8012 11.0222 14.5276
3088 1 13.6194 11.0289 15.8152
9440 2 14.5298 12.5988 14.5199
3136 1 12.7113 12.5916 13.2353
9412 2 17.2574 11.0222 14.5276
3099 1 15.4389 11.0158 13.243
3097 1 16.3471 9.45145 15.8218
3101 1 18.1675 12.5916 13.2353
9410 2 19.986 12.5988 14.5199
3079 1 20.8952 11.0158 13.243
3076 1 19.0756 11.0289 15.8152
62 1 21.8034 9.45145 15.8218
3137 1 12.7125 15.7431 13.2166
9435 2 11.8022 14.1753 14.5112
3087 1 13.6203 14.1834 15.7989
3090 1 18.1687 15.7431 13.2166
9411 2 17.2584 14.1753 14.5112
3092 1 15.44 14.1674 13.2265
3086 1 16.3479 12.6062 15.8076
63 1 21.8041 12.6062 15.8076
3074 1 19.0765 14.1834 15.7989
3078 1 20.8962 14.1674 13.2265
3085 1 13.6214 17.3377 15.7785
9434 2 11.8034 17.3281 14.4907
9433 2 14.5309 15.7518 14.5014
3543 1 12.7139 18.8943 13.1938
3089 1 16.3489 15.7606 15.7892
3091 1 15.4413 17.3188 13.2057
9409 2 17.2596 17.3281 14.4907
3508 1 18.1702 18.8943 13.1938
61 1 21.8052 15.7606 15.7892
3073 1 19.0777 17.3377 15.7785
3075 1 20.8975 17.3188 13.2057
9413 2 19.9871 15.7518 14.5014
3454 1 11.799 1.56759 18.4105
9792 2 12.7088 3.14398 17.122
3452 1 14.5271 3.14675 18.4091
9778 2 15.4368 1.5656 17.1235
3431 1 17.2552 1.56759 18.4105
9776 2 18.165 3.14398 17.122
9732 2 20.893 1.5656 17.1235
3432 1 19.9834 3.14675 18.4091
3453 1 11.7991 4.72588 18.4066
9777 2 15.437 4.72234 17.1195
3427 1 17.2554 4.72588 18.4066
9731 2 20.8932 4.72234 17.1195
9788 2 12.7091 6.30065 17.116
3447 1 11.7995 7.88402 18.3986
3455 1 14.5274 6.30498 18.4031
9770 2 15.4374 7.87892 17.1115
3426 1 17.2557 7.88402 18.3986
9779 2 18.1653 6.30065 17.116
3425 1 19.9837 6.30498 18.4031
9730 2 20.8936 7.87892 17.1115
9789 2 12.7096 9.45714 17.1059
3446 1 11.8001 11.0419 18.3866
3445 1 14.5279 9.463 18.3931
9769 2 15.438 11.0353 17.0994
3415 1 17.2563 11.0419 18.3866
9768 2 18.1658 9.45714 17.1059
3428 1 19.9841 9.463 18.3931
9723 2 20.8943 11.0353 17.0994
9784 2 12.7103 12.6134 17.0918
3440 1 11.8008 14.1995 18.3706
3448 1 14.5285 12.6207 18.3791
3414 1 17.2571 14.1995 18.3706
9756 2 15.4388 14.1913 17.0832
9771 2 18.1665 12.6134 17.0918
3413 1 19.9848 12.6207 18.3791
9722 2 20.8951 14.1913 17.0832
9785 2 12.7112 15.7692 17.0736
3439 1 11.8018 17.3566 18.3506
3438 1 14.5294 15.7781 18.3611
3397 1 17.258 17.3566 18.3506
9755 2 15.4399 17.347 17.063
9754 2 18.1675 15.7692 17.0736
3416 1 19.9856 15.7781 18.3611
9707 2 20.8962 17.347 17.063
9774 2 13.6179 1.56951 19.6941
9762 2 11.7994 1.57347 22.2639
3423 1 15.4365 1.57152 20.9808
9726 2 17.2556 1.57347 22.2639
9775 2 16.3461 3.14943 19.6926
9729 2 19.0742 1.56951 19.6941
3372 1 20.8927 1.57152 20.9808
6522 2 21.8023 3.14943 19.6926
9766 2 13.6181 4.72932 19.6902
3451 1 12.7084 3.15222 20.9793
9761 2 11.7995 4.73634 22.2601
9760 2 14.5276 3.15492 22.2625
3422 1 15.4366 4.73288 20.9769
9718 2 17.2558 4.73634 22.2601
3421 1 18.1647 3.15222 20.9793
9728 2 19.0743 4.72932 19.6902
3371 1 20.8929 4.73288 20.9769
9727 2 19.9838 3.15492 22.2625
9765 2 13.6184 7.88896 19.6823
3443 1 12.7086 6.31351 20.9735
9748 2 11.7997 7.89903 22.2524
9763 2 14.5277 6.31771 22.2568
9764 2 16.3463 6.30917 19.6867
3411 1 15.4369 7.89407 20.9691
9717 2 17.256 7.89903 22.2524
3424 1 18.1649 6.31351 20.9735
9721 2 19.0746 7.88896 19.6823
3370 1 20.8931 7.89407 20.9691
9716 2 19.984 6.31771 22.2568
6523 2 21.8026 6.30917 19.6867
9752 2 13.6189 11.0484 19.6704
3444 1 12.709 9.47458 20.9637
9747 2 11.8001 11.0615 22.2408
9746 2 14.528 9.48029 22.2471
9767 2 16.3467 9.4687 19.6769
3410 1 15.4373 11.055 20.9573
9703 2 17.2563 11.0615 22.2408
3409 1 18.1652 9.47458 20.9637
9720 2 19.0751 11.0484 19.6704
3363 1 20.8936 11.055 20.9573
9719 2 19.9843 9.48029 22.2471
6518 2 21.803 9.4687 19.6769
9751 2 13.6196 14.2074 19.6546
3436 1 12.7095 12.6353 20.95
9740 2 11.8006 14.2235 22.2253
9749 2 14.5284 12.6425 22.2335
9750 2 16.3473 12.6279 19.663
3396 1 15.4379 14.2156 20.9417
9702 2 17.2568 14.2235 22.2253
3412 1 18.1657 12.6353 20.95
9706 2 19.0758 14.2074 19.6546
3362 1 20.8941 14.2156 20.9417
9701 2 19.9847 12.6425 22.2335
6519 2 21.8036 12.6279 19.663
9741 2 13.6204 17.366 19.6348
3437 1 12.7101 15.7957 20.9324
9739 2 11.8012 17.3851 22.2059
9738 2 14.529 15.8044 22.2161
9753 2 16.3481 15.7868 19.6452
3395 1 15.4387 17.3756 20.9221
9685 2 17.2574 17.3851 22.2059
3394 1 18.1664 15.7957 20.9324
9705 2 19.0767 17.366 19.6348
3347 1 20.8949 17.3756 20.9221
9704 2 19.9852 15.8044 22.2161
6517 2 21.8043 15.7868 19.6452
3419 1 13.6182 1.57551 23.5502
9714 2 15.4375 1.57748 24.833
3369 1 19.0744 1.57551 23.5502
9660 2 20.8938 1.57748 24.833
3407 1 13.6182 4.73992 23.5465
9759 2 12.7094 3.16045 24.8316
3420 1 16.3463 3.15773 23.5488
9713 2 15.4376 4.7434 24.8293
9712 2 18.1657 3.16045 24.8316
3368 1 19.0745 4.73992 23.5465
9659 2 20.8938 4.7434 24.8293
369 1 21.8025 3.15773 23.5488
3406 1 13.6184 7.90416 23.5388
9744 2 12.7095 6.3263 24.826
3405 1 16.3464 6.32207 23.5431
9699 2 15.4377 7.90914 24.8217
9715 2 18.1658 6.3263 24.826
3361 1 19.0747 7.90416 23.5388
9658 2 20.894 7.90914 24.8217
370 1 21.8027 6.32207 23.5431
3392 1 13.6187 11.0681 23.5273
9745 2 12.7097 9.49192 24.8165
3408 1 16.3467 9.48619 23.5335
9698 2 15.4379 11.0746 24.8104
9697 2 18.1659 9.49192 24.8165
3360 1 19.0749 11.0681 23.5273
9651 2 20.8942 11.0746 24.8104
362 1 21.8029 9.48619 23.5335
3391 1 13.6191 14.2317 23.512
9736 2 12.7099 12.6572 24.8033
9700 2 18.1662 12.6572 24.8033
9684 2 15.4382 14.2397 24.7952
3390 1 16.347 12.65 23.5201
363 1 21.8032 12.65 23.5201
9650 2 20.8944 14.2397 24.7952
3346 1 19.0753 14.2317 23.512
9737 2 12.7103 15.8221 24.7862
3381 1 13.6196 17.3948 23.4928
9682 2 18.1665 15.8221 24.7862
9683 2 15.4386 17.4043 24.7763
3393 1 16.3474 15.8133 23.5029
361 1 21.8037 15.8133 23.5029
9636 2 20.8948 17.4043 24.7763
3345 1 19.0758 17.3948 23.4928
3403 1 11.8002 1.57954 26.1189
9710 2 13.6198 1.58153 27.4013
3366 1 17.2565 1.57954 26.1189
3354 1 15.439 1.5836 28.6868
3306 1 20.8952 1.5836 28.6868
9657 2 19.0761 1.58153 27.4013
3402 1 11.8003 4.747 26.1152
3401 1 14.5284 3.16328 26.1175
3400 1 12.7109 3.16887 28.6855
9695 2 13.6198 4.75049 27.3977
3358 1 17.2565 4.747 26.1152
3353 1 15.439 4.75411 28.6832
9711 2 16.3479 3.16602 27.4
3352 1 18.1671 3.16887 28.6855
3367 1 19.9846 3.16328 26.1175
3305 1 20.8952 4.75411 28.6832
9656 2 19.0761 4.75049 27.3977
6478 2 21.8042 3.16602 27.4
3388 1 11.8004 7.91429 26.1077
3404 1 14.5284 6.33067 26.112
3384 1 12.7108 6.33932 28.68
9694 2 13.6199 7.9193 27.3903
3357 1 17.2566 7.91429 26.1077
3339 1 15.439 7.92447 28.6759
9693 2 16.348 6.33492 27.3945
3355 1 18.1671 6.33932 28.68
3356 1 19.9847 6.33067 26.112
3304 1 20.8952 7.92447 28.6759
9649 2 19.0761 7.9193 27.3903
6479 2 21.8042 6.33492 27.3945
3387 1 11.8005 11.0813 26.0965
3386 1 14.5285 9.49784 26.1026
3385 1 12.7108 9.50956 28.6708
9680 2 13.6199 11.0878 27.3792
3343 1 17.2567 11.0813 26.0965
3338 1 15.4389 11.0946 28.6648
9696 2 16.348 9.50361 27.3852
3337 1 18.1671 9.50956 28.6708
3359 1 19.9848 9.49784 26.1026
3297 1 20.8952 11.0946 28.6648
9648 2 19.0762 11.0878 27.3792
6470 2 21.8043 9.50361 27.3852
3380 1 11.8007 14.248 26.0815
3389 1 14.5287 12.6647 26.0894
3376 1 12.7108 12.6795 28.6579
9679 2 13.62 14.256 27.3643
3342 1 17.2569 14.248 26.0815
3325 1 15.4389 14.2643 28.6501
9678 2 16.3481 12.672 27.3722
3340 1 18.167 12.6795 28.6579
3341 1 19.9849 12.6647 26.0894
3296 1 20.8952 14.2643 28.6501
9635 2 19.0763 14.256 27.3643
6471 2 21.8043 12.672 27.3722
3379 1 11.8009 17.4141 26.0628
3378 1 14.5289 15.8311 26.0726
3377 1 12.7108 15.849 28.6414
9669 2 13.6201 17.4237 27.3458
3326 1 17.2571 17.4141 26.0628
3324 1 15.4389 17.4336 28.6318
9681 2 16.3482 15.84 27.3555
3323 1 18.167 15.849 28.6414
3344 1 19.9851 15.8311 26.0726
3285 1 20.8951 17.4336 28.6318
9634 2 19.0764 17.4237 27.3458
6469 2 21.8044 15.84 27.3555
3350 1 13.622 1.5877 31.2539
9687 2 12.714 0.00215133 32.5359
9691 2 11.8026 1.58561 29.9688
3349 1 16.3501 0.000889283 31.2542
9642 2 15.4421 1.58972 32.5355
9654 2 17.2588 1.58561 29.9688
9652 2 18.1702 0.00215133 32.5359
3303 1 19.0782 1.5877 31.2539
9612 2 20.8983 1.58972 32.5355
326 1 21.8063 0.000889283 31.2542
3335 1 13.6219 4.76127 31.2503
9688 2 12.7139 3.17728 32.5342
9690 2 11.8026 4.75763 29.9653
9689 2 14.5307 3.17164 29.9675
3351 1 16.3501 3.1745 31.2526
9641 2 15.442 4.76482 32.532
9646 2 17.2588 4.75763 29.9653
9640 2 18.1702 3.17728 32.5342
3302 1 19.0782 4.76127 31.2503
9611 2 20.8982 4.76482 32.532
9655 2 19.9869 3.17164 29.9675
310 1 21.8063 3.1745 31.2526
3334 1 13.6218 7.9347 31.2432
9672 2 12.7138 6.35232 32.5289
9676 2 11.8025 7.92951 29.958
9692 2 14.5306 6.3436 29.9621
3333 1 16.35 6.34801 31.2472
9628 2 15.4418 7.93978 32.5249
9645 2 17.2587 7.92951 29.958
9643 2 18.17 6.35232 32.5289
3295 1 19.078 7.9347 31.2432
9610 2 20.8981 7.93978 32.5249
9644 2 19.9869 6.3436 29.9621
311 1 21.8062 6.34801 31.2472
3321 1 13.6216 11.1079 31.2323
9673 2 12.7136 9.52719 32.5199
9675 2 11.8024 11.1011 29.9471
9674 2 14.5306 9.51536 29.953
3336 1 16.3499 9.52134 31.2382
9627 2 15.4416 11.1145 32.5141
9632 2 17.2586 11.1011 29.9471
9626 2 18.1699 9.52719 32.5199
3294 1 19.0779 11.1079 31.2323
9607 2 20.8979 11.1145 32.5141
9647 2 19.9868 9.51536 29.953
302 1 21.8061 9.52134 31.2382
3320 1 13.6214 14.2808 31.2179
9664 2 12.7134 12.7018 32.5074
9668 2 11.8023 14.2725 29.9325
9677 2 14.5305 12.6869 29.9403
3319 1 16.3497 12.6944 31.2256
9620 2 15.4414 14.289 32.4998
9631 2 17.2585 14.2725 29.9325
9629 2 18.1696 12.7018 32.5074
3284 1 19.0777 14.2808 31.2179
9606 2 20.8976 14.289 32.4998
9630 2 19.9867 12.6869 29.9403
303 1 21.8059 12.6944 31.2256
3312 1 13.6212 17.4533 31.1999
9665 2 12.7131 15.8761 32.4913
9667 2 11.8022 17.4433 29.9144
9666 2 14.5304 15.8579 29.9239
3322 1 16.3494 15.8671 31.2094
9619 2 15.441 17.4631 32.482
9621 2 17.2584 17.4433 29.9144
9618 2 18.1693 15.8761 32.4913
3283 1 19.0774 17.4533 31.1999
9603 2 20.8972 17.4631 32.482
9633 2 19.9866 15.8579 29.9239
301 1 21.8057 15.8671 31.2094
3331 1 11.8055 1.59183 33.8201
9638 2 13.6258 1.59387 35.1013
3348 1 14.5336 0.00349037 33.8204
3300 1 17.2617 1.59183 33.8201
9637 2 16.354 0.00475922 35.1017
3299 1 19.9898 0.00349037 33.8204
9609 2 19.0821 1.59387 35.1013
6422 2 21.8102 0.00475922 35.1017
3330 1 11.8054 4.76847 33.8166
9624 2 13.6257 4.77204 35.0979
3329 1 14.5335 3.18016 33.8188
3292 1 17.2616 4.76847 33.8166
9639 2 16.3539 3.18296 35.1
3301 1 19.9898 3.18016 33.8188
9608 2 19.082 4.77204 35.0979
6406 2 21.8101 3.18296 35.1
3332 1 14.5334 6.35675 33.8135
3317 1 11.8052 7.94499 33.8096
9623 2 13.6255 7.95011 35.0908
9622 2 16.3537 6.36109 35.0948
3291 1 17.2614 7.94499 33.8096
9605 2 19.0817 7.95011 35.0908
3290 1 19.9896 6.35675 33.8135
6407 2 21.81 6.36109 35.0948
3315 1 14.5332 9.53318 33.8047
9616 2 13.6252 11.128 35.0802
3316 1 11.8049 11.1213 33.7989
9625 2 16.3535 9.53908 35.086
3281 1 17.2611 11.1213 33.7989
9604 2 19.0814 11.128 35.0802
3293 1 19.9894 9.53318 33.8047
6398 2 21.8097 9.53908 35.086
3318 1 14.5328 12.7094 33.7922
9615 2 13.6247 14.3056 35.0661
3311 1 11.8045 14.2974 33.7847
9614 2 16.3531 12.7169 35.0736
3280 1 17.2608 14.2974 33.7847
9602 2 19.081 14.3056 35.0661
3279 1 19.9891 12.7094 33.7922
6399 2 21.8093 12.7169 35.0736
3310 1 11.804 17.4731 33.767
9613 2 13.6242 17.483 35.0485
3309 1 14.5324 15.8853 33.7763
3274 1 17.2603 17.4731 33.767
9617 2 16.3526 15.8944 35.0577
6397 2 21.8088 15.8944 35.0577
3282 1 19.9887 15.8853 33.7763
9601 2 19.0804 17.483 35.0485
9814 2 11.8101 1.59803 37.6662
15677 1 13.6303 1.60017 38.95
3327 1 12.7176 0.00610916 36.3858
9816 2 14.5383 0.00738107 37.6666
9803 2 17.2664 1.59803 37.6662
15676 1 16.3584 0.00873855 38.9503
3288 1 15.4457 1.59599 36.3855
3298 1 18.1739 0.00610916 36.3858
9802 2 19.9945 0.00738107 37.6666
15642 1 19.0865 1.60017 38.95
3270 1 20.902 1.59599 36.3855
12864 1 21.8147 0.00873855 38.9503
9813 2 11.81 4.77931 37.6628
15673 1 13.6301 4.783 38.9466
3328 1 12.7175 3.18586 36.3842
9812 2 14.5382 3.18868 37.665
9800 2 17.2662 4.77931 37.6628
15678 1 16.3583 3.19159 38.9487
3287 1 15.4456 4.77571 36.3821
3286 1 18.1738 3.18586 36.3842
9804 2 19.9944 3.18868 37.665
15641 1 19.0864 4.783 38.9466
3269 1 20.9018 4.77571 36.3821
12862 1 21.8146 3.19159 38.9487
9810 2 11.8097 7.9605 37.6559
15672 1 13.6298 7.96576 38.9396
3313 1 12.7173 6.36554 36.379
9815 2 14.538 6.36992 37.6598
9799 2 17.2659 7.9605 37.6559
15671 1 16.3581 6.37439 38.9435
3277 1 15.4453 7.95534 36.3751
3289 1 18.1736 6.36554 36.379
9798 2 19.9942 6.36992 37.6598
15636 1 19.086 7.96576 38.9396
3268 1 20.9016 7.95534 36.3751
12863 1 21.8143 6.37439 38.9435
9809 2 11.8093 11.1415 37.6454
15662 1 13.6294 11.1484 38.9292
3314 1 12.717 9.5451 36.3702
9808 2 14.5376 9.55104 37.6511
9796 2 17.2655 11.1415 37.6454
15674 1 16.3577 9.5571 38.9348
3276 1 15.4449 11.1348 36.3645
3275 1 18.1733 9.5451 36.3702
9801 2 19.9939 9.55104 37.6511
15635 1 19.0856 11.1484 38.9292
3267 1 20.9012 11.1348 36.3645
12860 1 21.814 9.5571 38.9348
9807 2 11.8087 14.3224 37.6314
15661 1 13.6287 14.3309 38.9152
3307 1 12.7166 12.7245 36.3579
9811 2 14.5372 12.732 37.6388
9795 2 17.265 14.3224 37.6314
15660 1 16.3572 12.7397 38.9226
3273 1 15.4444 14.3141 36.3505
3278 1 18.1728 12.7245 36.3579
9794 2 19.9934 12.732 37.6388
15622 1 19.085 14.3309 38.9152
3266 1 20.9007 14.3141 36.3505
12861 1 21.8134 12.7397 38.9226
9806 2 11.808 17.503 37.614
15651 1 13.6279 17.5132 38.8979
3308 1 12.716 15.9036 36.3422
9805 2 14.5365 15.9128 37.6231
9793 2 17.2643 17.503 37.614
15663 1 16.3565 15.9221 38.907
3272 1 15.4438 17.4931 36.333
3271 1 18.1722 15.9036 36.3422
9797 2 19.9928 15.9128 37.6231
15621 1 19.0842 17.5132 38.8979
3265 1 20.9 17.4931 36.333
12859 1 21.8127 15.9221 38.907
21299 2 12.7231 0.0100099 40.2306
15669 1 11.8154 1.60436 41.5135
15675 1 14.5436 0.0113717 41.5139
21286 2 15.4512 1.60222 40.2303
15639 1 17.2717 1.60436 41.5135
21288 2 18.1794 0.0100099 40.2306
15638 1 19.9998 0.0113717 41.5139
21240 2 20.9075 1.60222 40.2303
21300 2 12.723 3.19442 40.229
15668 1 11.8152 4.79032 41.5102
15667 1 14.5435 3.19734 41.5123
21285 2 15.4511 4.78661 40.2269
15633 1 17.2715 4.79032 41.5102
21284 2 18.1793 3.19442 40.229
15640 1 19.9997 3.19734 41.5123
21239 2 20.9073 4.78661 40.2269
21296 2 12.7228 6.37879 40.2239
15658 1 11.8149 7.97624 41.5033
15670 1 14.5432 6.38329 41.5072
21278 2 15.4507 7.97095 40.22
15632 1 17.2711 7.97624 41.5033
21287 2 18.179 6.37879 40.2239
15631 1 19.9994 6.38329 41.5072
21238 2 20.907 7.97095 40.22
21297 2 12.7224 9.56308 40.2152
15657 1 11.8144 11.1621 41.4928
15656 1 14.5428 9.56917 41.4985
21277 2 15.4503 11.1552 40.2095
15619 1 17.2706 11.1621 41.4928
21276 2 18.1786 9.56308 40.2152
15634 1 19.999 9.56917 41.4985
21231 2 20.9065 11.1552 40.2095
21292 2 12.7218 12.7473 40.203
15650 1 11.8137 14.3478 41.4789
15659 1 14.5422 12.755 41.4863
15618 1 17.2699 14.3478 41.4789
21264 2 15.4496 14.3393 40.1956
21279 2 18.1781 12.7473 40.203
15617 1 19.9984 12.755 41.4863
21230 2 20.9059 14.3393 40.1956
21293 2 12.7211 15.9313 40.1873
15649 1 11.8128 17.5335 41.4616
15648 1 14.5414 15.9407 41.4707
15601 1 17.2691 17.5335 41.4616
21263 2 15.4488 17.5233 40.1782
21262 2 18.1774 15.9313 40.1873
15620 1 19.9976 15.9407 41.4707
21215 2 20.905 17.5233 40.1782
21282 2 13.6367 1.60641 42.7934
15665 1 12.7293 0.014002 44.0765
21270 2 11.8227 1.61062 45.3556
21281 2 16.3648 0.012639 42.7938
21280 2 14.5509 0.0152619 45.356
15629 1 15.4574 1.60856 44.0762
21234 2 17.279 1.61062 45.3556
15637 1 18.1855 0.014002 44.0765
21237 2 19.0929 1.60641 42.7934
15576 1 20.9136 1.60856 44.0762
21233 2 20.0071 0.0152619 45.356
18478 2 21.8211 0.012639 42.7938
21274 2 13.6365 4.79396 42.79
15666 1 12.7292 3.20312 44.075
21269 2 11.8225 4.80133 45.3522
21283 2 16.3647 3.20019 42.7922
15628 1 15.4572 4.79768 44.0728
21226 2 17.2788 4.80133 45.3522
21268 2 14.5508 3.20598 45.3543
15627 1 18.1854 3.20312 44.075
21236 2 19.0927 4.79396 42.79
15575 1 20.9134 4.79768 44.0728
21235 2 20.007 3.20598 45.3543
18474 2 21.821 3.20019 42.7922
21273 2 13.6361 7.98147 42.7831
15654 1 12.7289 6.39223 44.0698
21256 2 11.8222 7.99204 45.3453
21272 2 16.3645 6.38772 42.787
15615 1 15.4568 7.98678 44.0659
21225 2 17.2784 7.99204 45.3453
21271 2 14.5505 6.39669 45.3492
15630 1 18.1852 6.39223 44.0698
21229 2 19.0924 7.98147 42.7831
15574 1 20.9131 7.98678 44.0659
21224 2 20.0067 6.39669 45.3492
18475 2 21.8207 6.38772 42.787
21260 2 13.6356 11.1689 42.7727
15655 1 12.7285 9.58132 44.0611
21255 2 11.8216 11.1827 45.3348
21275 2 16.364 9.5752 42.7783
15614 1 15.4563 11.1758 44.0554
21211 2 17.2779 11.1827 45.3348
21254 2 14.55 9.58739 45.3405
15613 1 18.1847 9.58132 44.0611
21228 2 19.0919 11.1689 42.7727
15567 1 20.9125 11.1758 44.0554
21227 2 20.0063 9.58739 45.3405
18470 2 21.8203 9.5752 42.7783
21259 2 13.6349 14.3563 42.7587
15646 1 12.7278 12.7704 44.0489
21248 2 11.8209 14.3734 45.3208
21257 2 14.5494 12.7781 45.3282
21258 2 16.3634 12.7626 42.7661
15600 1 15.4556 14.3649 44.0415
21210 2 17.2771 14.3734 45.3208
15616 1 18.1841 12.7704 44.0489
21214 2 19.0912 14.3563 42.7587
15566 1 20.9118 14.3649 44.0415
21209 2 20.0056 12.7781 45.3282
18471 2 21.8196 12.7626 42.7661
21249 2 13.634 17.5436 42.7414
15647 1 12.727 15.9594 44.0332
21247 2 11.82 17.5641 45.3033
21246 2 14.5486 15.9687 45.3125
21261 2 16.3626 15.95 42.7505
15599 1 15.4546 17.5539 44.0241
21194 2 17.2762 17.5641 45.3033
15598 1 18.1832 15.9594 44.0332
21213 2 19.0903 17.5436 42.7414
15551 1 20.9109 17.5539 44.0241
21212 2 20.0048 15.9687 45.3125
18469 2 21.8189 15.95 42.7505
15607 1 11.8307 1.61698 49.1987
15625 1 13.6437 1.61277 46.6379
15664 1 10.9156 0.0166232 46.6383
21266 2 12.7375 0.0178727 47.9172
15570 1 17.2869 1.61698 49.1987
15623 1 14.5588 0.0192295 49.199
15624 1 16.3719 0.0166232 46.6383
21222 2 15.4656 1.61482 47.9168
15569 1 20.015 0.0192295 49.199
15573 1 19.1 1.61277 46.6379
21174 2 20.9218 1.61482 47.9168
21232 2 18.1938 0.0178727 47.9172
15606 1 11.8305 4.8125 49.1953
15611 1 13.6435 4.80508 46.6345
15652 1 10.9155 3.20892 46.6367
21267 2 12.7374 3.21178 47.9156
15562 1 17.2867 4.8125 49.1953
15605 1 14.5587 3.21474 49.1974
15626 1 16.3718 3.20892 46.6367
21221 2 15.4654 4.80874 47.9134
15571 1 20.0149 3.21474 49.1974
15572 1 19.0998 4.80508 46.6345
21173 2 20.9216 4.80874 47.9134
21220 2 18.1936 3.21178 47.9156
15592 1 11.8301 8.00805 49.1882
15610 1 13.6431 7.99739 46.6276
15653 1 10.9152 6.40123 46.6315
21252 2 12.7371 6.40571 47.9104
15561 1 17.2863 8.00805 49.1882
15608 1 14.5584 6.41027 49.1922
15609 1 16.3715 6.40123 46.6315
21207 2 15.465 8.00268 47.9064
15560 1 20.0146 6.41027 49.1922
15565 1 19.0994 7.99739 46.6276
21172 2 20.9213 8.00268 47.9064
21223 2 18.1934 6.40571 47.9104
15591 1 11.8295 11.2036 49.1776
15596 1 13.6426 11.1897 46.6171
15644 1 10.9148 9.59354 46.6228
21253 2 12.7367 9.59965 47.9016
15547 1 17.2858 11.2036 49.1776
15590 1 14.5579 9.60584 49.1834
15612 1 16.371 9.59354 46.6228
21206 2 15.4645 11.1966 47.8959
15563 1 20.0142 9.60584 49.1834
15564 1 19.0988 11.1897 46.6171
21165 2 20.9207 11.1966 47.8959
21205 2 18.1929 9.59965 47.9016
15584 1 11.8288 14.3993 49.1635
15595 1 13.6418 14.382 46.603
15645 1 10.9141 12.7859 46.6105
21244 2 12.736 12.7936 47.8893
15546 1 17.285 14.3993 49.1635
15593 1 14.5573 12.8014 49.171
15594 1 16.3704 12.7859 46.6105
21193 2 15.4638 14.3906 47.8818
15545 1 20.0135 12.8014 49.171
15550 1 19.0981 14.382 46.603
21164 2 20.92 14.3906 47.8818
21208 2 18.1923 12.7936 47.8893
15583 1 11.8279 17.595 49.1457
15585 1 13.6409 17.5744 46.5855
15643 1 10.9133 15.9782 46.5947
21245 2 12.7352 15.9876 47.8734
15532 1 17.2841 17.595 49.1457
15582 1 14.5565 15.9971 49.1551
15597 1 16.3695 15.9782 46.5947
21192 2 15.4629 17.5847 47.8641
15548 1 20.0127 15.9971 49.1551
15549 1 19.0972 17.5744 46.5855
21153 2 20.9191 17.5847 47.8641
21191 2 18.1915 15.9876 47.8734
15603 1 12.7463 0.0218156 51.7589
21218 2 13.6529 1.61903 50.4771
21265 2 10.9248 0.0204657 50.4775
15558 1 15.4744 1.62118 51.7585
21217 2 16.381 0.0204657 50.4775
15516 1 20.9307 1.62118 51.7585
15568 1 18.2026 0.0218156 51.7589
21171 2 19.1091 1.61903 50.4771
15604 1 12.7462 3.22056 51.7572
21203 2 13.6527 4.81617 50.4737
21250 2 10.9247 3.2176 50.4758
15557 1 15.4742 4.81995 51.755
21219 2 16.3809 3.2176 50.4758
15515 1 20.9305 4.81995 51.755
15556 1 18.2025 3.22056 51.7572
21170 2 19.1089 4.81617 50.4737
15588 1 12.746 6.41934 51.7519
21202 2 13.6523 8.01336 50.4666
21251 2 10.9244 6.41476 50.4706
15543 1 15.4739 8.01876 51.7479
21201 2 16.3806 6.41476 50.4706
15514 1 20.9301 8.01876 51.7479
15559 1 18.2022 6.41934 51.7519
21163 2 19.1085 8.01336 50.4666
15589 1 12.7455 9.61819 51.743
21189 2 13.6518 11.2106 50.4559
21242 2 10.9239 9.61197 50.4617
15542 1 15.4733 11.2176 51.7372
21204 2 16.3802 9.61197 50.4617
15508 1 20.9296 11.2176 51.7372
15541 1 18.2017 9.61819 51.743
21162 2 19.108 11.2106 50.4559
15580 1 12.7449 12.8171 51.7305
21188 2 13.651 14.4079 50.4417
21243 2 10.9233 12.8092 50.4493
15531 1 15.4726 14.4166 51.7229
21187 2 16.3795 12.8092 50.4493
15507 1 20.9289 14.4166 51.7229
15544 1 18.2011 12.8171 51.7305
21152 2 19.1073 14.4079 50.4417
15581 1 12.7441 16.0162 51.7143
21180 2 13.6502 17.6053 50.4238
21241 2 10.9225 16.0066 50.4332
15530 1 15.4718 17.6158 51.7049
21190 2 16.3788 16.0066 50.4332
15500 1 20.928 17.6158 51.7049
15529 1 18.2004 16.0162 51.7143
21151 2 19.1064 17.6053 50.4238
15554 1 13.6626 1.62537 54.3173
15602 1 10.9345 0.0243768 54.3177
21195 2 12.7573 0.025579 55.5951
21199 2 11.8407 1.62322 53.0364
15553 1 16.3907 0.0243768 54.3177
21156 2 15.4854 1.62739 55.5947
21168 2 17.2969 1.62322 53.0364
21216 2 14.5689 0.023036 53.0368
15513 1 19.1188 1.62537 54.3173
21138 2 20.9417 1.62739 55.5947
21166 2 18.2136 0.025579 55.5951
21167 2 20.0251 0.023036 53.0368
15539 1 13.6624 4.8274 54.3138
15586 1 10.9344 3.22638 54.316
21196 2 12.7572 3.22922 55.5934
21198 2 11.8405 4.82362 53.0329
15555 1 16.3906 3.22638 54.316
21155 2 15.4852 4.83107 55.5912
21160 2 17.2968 4.82362 53.0329
21197 2 14.5688 3.22341 53.0351
15512 1 19.1186 4.8274 54.3138
21137 2 20.9415 4.83107 55.5912
21154 2 18.2135 3.22922 55.5934
21169 2 20.025 3.22341 53.0351
15538 1 13.6621 8.0295 54.3066
15587 1 10.9341 6.42844 54.3107
21181 2 12.757 6.43293 55.588
21185 2 11.8402 8.02408 53.0258
15537 1 16.3904 6.42844 54.3107
21145 2 15.4849 8.03482 55.584
21159 2 17.2964 8.02408 53.0258
21200 2 14.5685 6.42384 53.0298
15506 1 19.1183 8.0295 54.3066
21136 2 20.9411 8.03482 55.584
21157 2 18.2132 6.43293 55.588
21158 2 20.0247 6.42384 53.0298
15527 1 13.6615 11.2317 54.2958
15578 1 10.9337 9.63058 54.3017
21182 2 12.7565 9.63673 55.579
21184 2 11.8397 11.2246 53.015
15540 1 16.3899 9.63058 54.3017
21144 2 15.4844 11.2387 55.573
21149 2 17.2959 11.2246 53.015
21183 2 14.568 9.62433 53.0208
15505 1 19.1178 11.2317 54.2958
21135 2 20.9406 11.2387 55.573
21143 2 18.2128 9.63673 55.579
21161 2 20.0243 9.62433 53.0208
15526 1 13.6609 14.434 54.2812
15579 1 10.9331 12.8328 54.289
21175 2 12.756 12.8406 55.5662
21179 2 11.839 14.4253 53.0005
15525 1 16.3893 12.8328 54.289
21141 2 15.4838 14.4427 55.5584
21148 2 17.2952 14.4253 53.0005
21186 2 14.5675 12.8249 53.0082
15499 1 19.1171 14.434 54.2812
21134 2 20.94 14.4427 55.5584
21146 2 18.2122 12.8406 55.5662
21147 2 20.0237 12.8249 53.0082
21178 2 11.8382 17.6261 52.9824
21176 2 12.7553 16.0447 55.5496
15577 1 10.9324 16.0352 54.2726
15520 1 13.6601 17.6365 54.2629
21177 2 14.5667 16.0256 52.9919
21142 2 17.2944 17.6261 52.9824
21140 2 15.483 17.6469 55.5399
15528 1 16.3886 16.0352 54.2726
21150 2 20.0229 16.0256 52.9919
21139 2 18.2115 16.0447 55.5496
21133 2 20.9392 17.6469 55.5399
15498 1 19.1163 17.6365 54.2629
21485 2 13.6745 1.63155 58.1521
21492 2 10.9464 0.0280908 58.1525
15535 1 11.8513 1.62954 56.8752
21484 2 16.4026 0.0280908 58.1525
15510 1 17.3076 1.62954 56.8752
15552 1 14.5795 0.0269096 56.8756
21450 2 19.1307 1.63155 58.1521
15509 1 20.0357 0.0269096 56.8756
21481 2 13.6743 4.83851 58.1485
21490 2 10.9463 3.23502 58.1507
15534 1 11.8512 4.83486 56.8716
21486 2 16.4025 3.23502 58.1507
15503 1 17.3074 4.83486 56.8716
15533 1 14.5794 3.23219 56.8738
21449 2 19.1306 4.83851 58.1485
15511 1 20.0356 3.23219 56.8738
21480 2 13.674 8.04556 58.1411
21491 2 10.946 6.44202 58.1453
15523 1 11.8508 8.04026 56.8643
21479 2 16.4023 6.44202 58.1453
15502 1 17.3071 8.04026 56.8643
15536 1 14.5791 6.43755 56.8684
21444 2 19.1302 8.04556 58.1411
15501 1 20.0354 6.43755 56.8684
21470 2 13.6735 11.2527 58.1301
21488 2 10.9456 9.64913 58.1361
15522 1 11.8503 11.2458 56.8533
21482 2 16.4019 9.64913 58.1361
15496 1 17.3066 11.2458 56.8533
15521 1 14.5787 9.643 56.8593
21443 2 19.1297 11.2527 58.1301
15504 1 20.035 9.643 56.8593
21469 2 13.6729 14.4601 58.1152
21489 2 10.9451 12.8564 58.1231
15519 1 11.8497 14.4514 56.8386
21468 2 16.4013 12.8564 58.1231
15495 1 17.306 14.4514 56.8386
15524 1 14.5782 12.8486 56.8464
21430 2 19.1291 14.4601 58.1152
15494 1 20.0344 12.8486 56.8464
21459 2 13.6722 17.6676 58.0964
21487 2 10.9444 16.0638 58.1063
15518 1 11.849 17.6573 56.82
21471 2 16.4007 16.0638 58.1063
15493 1 17.3052 17.6573 56.82
15517 1 14.5775 16.0544 56.8298
21429 2 19.1284 17.6676 58.0964
15497 1 20.0337 16.0544 56.8298
15851 1 12.7689 0.0294131 59.4325
15834 1 13.6869 1.63783 61.9881
15850 1 10.9588 0.0318967 61.9886
21477 2 11.8642 1.63567 60.7084
15838 1 15.4969 1.63369 59.4321
15833 1 16.415 0.0318967 61.9886
21447 2 17.3204 1.63567 60.7084
21483 2 14.5923 0.0305671 60.7089
15792 1 20.9532 1.63369 59.4321
15840 1 18.2251 0.0294131 59.4325
15789 1 19.1431 1.63783 61.9881
21446 2 20.0485 0.0305671 60.7089
15852 1 12.7688 3.23799 59.4307
15826 1 13.6867 4.84974 61.9844
15846 1 10.9587 3.24377 61.9868
21476 2 11.864 4.84592 60.7048
15837 1 15.4968 4.84231 59.4284
15835 1 16.4149 3.24377 61.9868
21441 2 17.3202 4.84592 60.7048
21475 2 14.5922 3.24078 60.7071
15791 1 20.953 4.84231 59.4284
15836 1 18.225 3.23799 59.4307
15788 1 19.143 4.84974 61.9844
21448 2 20.0484 3.24078 60.7071
15848 1 12.7685 6.44665 59.4252
15825 1 13.6864 8.06176 61.977
15847 1 10.9585 6.45574 61.9812
21466 2 11.8637 8.05628 60.6973
15830 1 15.4964 8.05102 59.4211
15824 1 16.4147 6.45574 61.9812
21440 2 17.3199 8.05628 60.6973
21478 2 14.592 6.45108 60.7015
15790 1 20.9527 8.05102 59.4211
15839 1 18.2247 6.44665 59.4252
15781 1 19.1426 8.06176 61.977
21439 2 20.0482 6.45108 60.7015
15849 1 12.7681 9.65542 59.416
15812 1 13.6859 11.2739 61.9657
15842 1 10.9581 9.66782 61.9718
21465 2 11.8632 11.2668 60.6861
15829 1 15.496 11.2599 59.4099
15827 1 16.4143 9.66782 61.9718
21427 2 17.3194 11.2668 60.6861
21464 2 14.5916 9.6615 60.6922
15783 1 20.9522 11.2599 59.4099
15828 1 18.2243 9.65542 59.416
15780 1 19.1422 11.2739 61.9657
21442 2 20.0478 9.6615 60.6922
15844 1 12.7676 12.8643 59.4029
15811 1 13.6854 14.4863 61.9505
15843 1 10.9575 12.8801 61.9586
21458 2 11.8626 14.4774 60.671
15816 1 15.4954 14.4689 59.395
15810 1 16.4138 12.8801 61.9586
21426 2 17.3188 14.4774 60.671
21467 2 14.591 12.8721 60.679
15782 1 20.9516 14.4689 59.395
15831 1 18.2238 12.8643 59.4029
15766 1 19.1416 14.4863 61.9505
21425 2 20.0473 12.8721 60.679
15845 1 12.7669 16.0735 59.386
15801 1 13.6847 17.6989 61.9314
15841 1 10.9569 16.0926 61.9414
21457 2 11.8619 17.6884 60.652
15815 1 15.4947 17.6781 59.3761
15813 1 16.4131 16.0926 61.9414
21409 2 17.3182 17.6884 60.652
21456 2 14.5904 16.0829 60.662
15767 1 20.9509 17.6781 59.3761
15814 1 18.2232 16.0735 59.386
15765 1 19.1409 17.6989 61.9314
21428 2 20.0466 16.0829 60.662
15822 1 11.8774 1.64199 64.5436
21433 2 13.7014 1.64374 65.8177
21472 2 10.9733 0.035369 65.8182
21473 2 12.7825 0.0330011 63.2642
15786 1 17.3336 1.64199 64.5436
15832 1 14.6055 0.0344144 64.5441
21432 2 16.4296 0.035369 65.8182
21437 2 15.5106 1.63974 63.2637
15785 1 20.0617 0.0344144 64.5441
21381 2 19.1577 1.64374 65.8177
21384 2 20.9669 1.63974 63.2637
21445 2 18.2388 0.0330011 63.2642
15821 1 11.8772 4.8572 64.5398
21419 2 13.7013 4.86055 65.8139
21460 2 10.9733 3.25213 65.8163
21474 2 12.7825 3.2465 63.2623
15778 1 17.3334 4.8572 64.5398
15820 1 14.6054 3.24958 64.5422
21434 2 16.4295 3.25213 65.8163
21436 2 15.5105 4.85328 63.26
15787 1 20.0617 3.24958 64.5422
21380 2 19.1575 4.86055 65.8139
21383 2 20.9667 4.85328 63.26
21435 2 18.2387 3.2465 63.2623
15808 1 11.8769 8.07252 64.5323
21418 2 13.7009 8.07748 65.8063
21461 2 10.973 6.46899 65.8106
21462 2 12.7822 6.46009 63.2567
15777 1 17.3331 8.07252 64.5323
15823 1 14.6052 6.46484 64.5365
21417 2 16.4292 6.46899 65.8106
21423 2 15.5102 8.06693 63.2525
15776 1 20.0614 6.46484 64.5365
21373 2 19.1572 8.07748 65.8063
21382 2 20.9664 8.06693 63.2525
21438 2 18.2385 6.46009 63.2567
15807 1 11.8764 11.288 64.5209
21404 2 13.7005 11.2946 65.7948
21452 2 10.9726 9.686 65.8011
21463 2 12.7818 9.67381 63.2473
15763 1 17.3326 11.288 64.5209
15806 1 14.6048 9.68024 64.5271
21420 2 16.4288 9.686 65.8011
21422 2 15.5097 11.2807 63.2411
15779 1 20.061 9.68024 64.5271
21372 2 19.1567 11.2946 65.7948
21375 2 20.9659 11.2807 63.2411
21421 2 18.2381 9.67381 63.2473
15800 1 11.8758 14.5037 64.5055
21403 2 13.6999 14.5119 65.7794
21453 2 10.9721 12.9032 65.7876
21454 2 12.7813 12.8877 63.2339
15762 1 17.3321 14.5037 64.5055
15809 1 14.6042 12.8958 64.5137
21402 2 16.4283 12.9032 65.7876
21408 2 15.5091 14.4947 63.2258
15761 1 20.0605 12.8958 64.5137
21358 2 19.1561 14.5119 65.7794
21374 2 20.9653 14.4947 63.2258
21424 2 18.2375 12.8877 63.2339
15799 1 11.8751 17.7196 64.4861
21393 2 13.6992 17.7295 65.7599
21451 2 10.9714 16.1206 65.7701
21455 2 12.7807 16.1018 63.2167
15746 1 17.3314 17.7196 64.4861
15798 1 14.6036 16.1116 64.4963
21405 2 16.4276 16.1206 65.7701
21407 2 15.5084 17.709 63.2065
15764 1 20.0598 16.1116 64.4963
21357 2 19.1554 17.7295 65.7599
21359 2 20.9647 17.709 63.2065
21406 2 18.2369 16.1018 63.2167
15818 1 12.7964 0.0372301 67.0999
21415 2 11.8927 1.64755 68.3696
15774 1 15.5245 1.64644 67.0995
21378 2 17.3489 1.64755 68.3696
21431 2 14.6208 0.0375676 68.3701
15726 1 20.9807 1.64644 67.0995
15784 1 18.2526 0.0372301 67.0999
21377 2 20.077 0.0375676 68.3701
15819 1 12.7963 3.25567 67.098
21414 2 11.8925 4.86759 68.3658
15773 1 15.5243 4.86493 67.0956
21370 2 17.3487 4.86759 68.3658
21413 2 14.6207 3.25756 68.3682
15725 1 20.9805 4.86493 67.0956
15772 1 18.2525 3.25567 67.098
21379 2 20.077 3.25756 68.3682
15804 1 12.796 6.47422 67.0923
21400 2 11.8922 8.08776 68.3581
15759 1 15.5239 8.08354 67.088
21369 2 17.3484 8.08776 68.3581
21416 2 14.6205 6.47766 68.3624
15724 1 20.9802 8.08354 67.088
15775 1 18.2523 6.47422 67.0923
21368 2 20.0767 6.47766 68.3624
15805 1 12.7956 9.69291 67.0827
21399 2 11.8917 11.3081 68.3465
15758 1 15.5235 11.3023 67.0764
21355 2 17.3479 11.3081 68.3465
21398 2 14.62 9.69792 68.3528
15717 1 20.9797 11.3023 67.0764
15757 1 18.2518 9.69291 67.0827
21371 2 20.0763 9.69792 68.3528
15796 1 12.795 12.9118 67.0692
21392 2 11.891 14.5287 68.3309
15745 1 15.5228 14.5213 67.0609
21354 2 17.3472 14.5287 68.3309
21401 2 14.6195 12.9184 68.3392
15716 1 20.9791 14.5213 67.0609
15760 1 18.2513 12.9118 67.0692
21353 2 20.0757 12.9184 68.3392
15797 1 12.7944 16.1309 67.0516
21391 2 11.8902 17.7496 68.3112
15744 1 15.5221 17.7406 67.0413
21340 2 17.3465 17.7496 68.3112
21390 2 14.6188 16.1391 68.3216
15705 1 20.9783 17.7406 67.0413
15743 1 18.2506 16.1309 67.0516
21356 2 20.075 16.1391 68.3216
15751 1 11.9009 1.65436 72.2352
15770 1 13.7149 1.65036 69.6591
15817 1 10.9868 0.0395154 69.6596
21411 2 12.8121 0.039176 70.917
15720 1 17.3571 1.65436 72.2352
15768 1 14.629 0.0418256 72.2357
15769 1 16.4431 0.0395154 69.6596
21366 2 15.5402 1.65075 70.9165
15719 1 20.0852 0.0418256 72.2357
15723 1 19.1712 1.65036 69.6591
21324 2 20.9965 1.65075 70.9165
21376 2 18.2684 0.039176 70.917
15750 1 11.9006 4.87949 72.2313
15755 1 13.7148 4.87213 69.6552
15802 1 10.9867 3.26123 69.6576
21412 2 12.812 3.26234 70.9151
15712 1 17.3569 4.87949 72.2313
15749 1 14.6289 3.26691 72.2338
15771 1 16.443 3.26123 69.6576
21365 2 15.54 4.87396 70.9126
15721 1 20.0851 3.26691 72.2338
15722 1 19.171 4.87213 69.6552
21323 2 20.9963 4.87396 70.9126
21364 2 18.2683 3.26234 70.9151
15737 1 11.9002 8.10475 72.2236
15754 1 13.7144 8.09403 69.6475
15803 1 10.9865 6.48306 69.6519
21396 2 12.8118 6.48562 70.9093
15711 1 17.3565 8.10475 72.2236
15752 1 14.6286 6.4921 72.2279
15753 1 16.4427 6.48306 69.6519
21351 2 15.5397 8.09733 70.9049
15710 1 20.0848 6.4921 72.2279
15715 1 19.1706 8.09403 69.6475
21322 2 20.9959 8.09733 70.9049
21367 2 18.268 6.48562 70.9093
15736 1 11.8996 11.3302 72.2119
15741 1 13.7139 11.3161 69.6359
15794 1 10.986 9.70504 69.6422
21397 2 12.8113 9.70908 70.8996
15701 1 17.3559 11.3302 72.2119
15735 1 14.6281 9.71745 72.2182
15756 1 16.4423 9.70504 69.6422
21350 2 15.5391 11.3209 70.8932
15713 1 20.0843 9.71745 72.2182
15714 1 19.1701 11.3161 69.6359
21316 2 20.9954 11.3209 70.8932
21349 2 18.2675 9.70908 70.8996
15731 1 11.8989 14.5558 72.1961
15740 1 13.7132 14.5384 69.6202
15795 1 10.9854 12.9272 69.6286
21388 2 12.8107 12.9328 70.8859
15700 1 17.3551 14.5558 72.1961
15738 1 14.6274 12.943 72.2045
15739 1 16.4417 12.9272 69.6286
21339 2 15.5384 14.5447 70.8775
15699 1 20.0836 12.943 72.2045
15704 1 19.1694 14.5384 69.6202
21315 2 20.9947 14.5447 70.8775
21352 2 18.2669 12.9328 70.8859
15730 1 11.8979 17.7817 72.1763
15732 1 13.7124 17.761 69.6005
15793 1 10.9847 16.1496 69.6109
21389 2 12.8099 16.1568 70.8682
15694 1 17.3542 17.7817 72.1763
15729 1 14.6265 16.1687 72.1867
15742 1 16.4409 16.1496 69.6109
21338 2 15.5376 17.7689 70.8577
15702 1 20.0828 16.1687 72.1867
15703 1 19.1686 17.761 69.6005
21308 2 20.9938 17.7689 70.8577
21337 2 18.2662 16.1568 70.8682
15747 1 12.7564 0.0478925 74.8871
21343 2 11.8926 1.65947 75.9233
21362 2 13.7299 1.65351 73.4487
21410 2 11.0018 0.0403813 73.4492
15708 1 15.4845 1.66261 74.8866
21318 2 17.3489 1.65947 75.9233
21360 2 14.6208 0.0444942 75.9238
21361 2 16.4581 0.0403813 73.4492
15690 1 20.9408 1.66261 74.8866
15718 1 18.2127 0.0478925 74.8871
21317 2 20.077 0.0444942 75.9238
21321 2 19.1862 1.65351 73.4487
15748 1 12.7563 3.27733 74.8851
21342 2 11.8924 4.88949 75.9194
21347 2 13.7297 4.87985 73.4448
21394 2 11.0017 3.26666 73.4473
15707 1 15.4843 4.89207 74.8827
21311 2 17.3486 4.88949 75.9194
21341 2 14.6206 3.27447 75.9219
21363 2 16.458 3.26666 73.4473
15689 1 20.9405 4.89207 74.8827
15706 1 18.2125 3.27733 74.8851
21319 2 20.0769 3.27447 75.9219
21320 2 19.186 4.87985 73.4448
15733 1 12.7559 6.50682 74.8793
21331 2 11.8919 8.11962 75.9116
21346 2 13.7293 8.10635 73.437
21395 2 11.0014 6.49307 73.4414
15697 1 15.4837 8.12158 74.8749
21310 2 17.3481 8.11962 75.9116
21344 2 14.6203 6.50454 75.916
21345 2 16.4577 6.49307 73.4414
15688 1 20.94 8.12158 74.8749
15709 1 18.2121 6.50682 74.8793
21309 2 20.0765 6.50454 75.916
21314 2 19.1856 8.10635 73.437
15734 1 12.7553 9.73635 74.8695
21330 2 11.8912 11.3499 75.8998
21335 2 13.7287 11.3331 73.4253
21386 2 11.0009 9.71968 73.4317
15696 1 15.483 11.3511 74.8631
21304 2 17.3474 11.3499 75.8998
21329 2 14.6197 9.73474 75.9062
21348 2 16.4572 9.71968 73.4317
15687 1 20.9392 11.3511 74.8631
15695 1 18.2115 9.73635 74.8695
21312 2 20.0759 9.73474 75.9062
21313 2 19.185 11.3331 73.4253
15727 1 12.7544 12.9659 74.8558
21327 2 11.8902 14.5804 75.8839
21334 2 13.728 14.5601 73.4095
21387 2 11.0002 12.9466 73.4179
15693 1 15.4819 14.5807 74.8474
21303 2 17.3465 14.5804 75.8839
21332 2 14.6189 12.9651 75.8924
21333 2 16.4565 12.9466 73.4179
15686 1 20.9382 14.5807 74.8474
15698 1 18.2106 12.9659 74.8558
21302 2 20.0751 12.9651 75.8924
21307 2 19.1842 14.5601 73.4095
15728 1 12.7532 16.1954 74.8379
21326 2 11.8891 17.811 75.864
21328 2 13.727 17.7875 73.3896
21385 2 10.9994 16.1738 73.4001
15692 1 15.4807 17.8102 74.8274
21301 2 17.3453 17.811 75.864
21325 2 14.6178 16.1957 75.8745
21336 2 16.4556 16.1738 73.4001
15685 1 20.937 17.8102 74.8274
15691 1 18.2095 16.1954 74.8379
21305 2 20.0741 16.1957 75.8745
21306 2 19.1832 17.7875 73.3896
9993 2 11.8146 20.3489 -0.948255
10001 2 13.6261 20.3277 -3.45534
3648 1 12.7045 21.9059 -2.40582
9991 2 14.5435 21.9168 -0.962428
3634 1 15.4312 20.3385 -2.39168
9963 2 17.2708 20.3489 -0.948255
10002 2 16.3552 21.8942 -3.46936
3632 1 18.1607 21.9059 -2.40582
3588 1 20.8874 20.3385 -2.39168
9966 2 19.0823 20.3277 -3.45534
9964 2 19.9997 21.9168 -0.962428
6742 2 21.8114 21.8942 -3.46936
9992 2 11.8163 23.4849 -0.977614
9997 2 13.6282 23.4609 -3.48438
3644 1 12.7077 25.0416 -2.43711
9994 2 14.5453 25.0531 -0.993795
3633 1 15.4341 23.4736 -2.42097
9957 2 17.2725 23.4849 -0.977614
9995 2 16.3575 25.028 -3.50037
3635 1 18.164 25.0416 -2.43711
3587 1 20.8904 23.4736 -2.42097
9965 2 19.0844 23.4609 -3.48438
9955 2 20.0015 25.0531 -0.993795
6743 2 21.8137 25.028 -3.50037
9982 2 11.8181 26.6217 -1.01095
9996 2 13.6306 26.5953 -3.51731
3645 1 12.7116 28.1786 -2.47228
9980 2 14.5472 28.1905 -1.02905
3626 1 15.4377 26.6099 -2.45423
9956 2 17.2744 26.6217 -1.01095
9998 2 16.36 28.163 -3.53517
3624 1 18.1678 28.1786 -2.47228
3586 1 20.8939 26.6099 -2.45423
9960 2 19.0868 26.5953 -3.51731
9958 2 20.0035 28.1905 -1.02905
6740 2 21.8163 28.163 -3.53517
9981 2 11.8201 29.7597 -1.04807
9986 2 13.6333 29.7312 -3.55392
3640 1 12.716 31.3173 -2.5111
9983 2 14.5493 31.3293 -1.06797
3625 1 15.4418 29.7477 -2.49126
9943 2 17.2764 29.7597 -1.04807
9984 2 16.3629 31.2998 -3.57352
3627 1 18.1723 31.3173 -2.5111
3579 1 20.8981 29.7477 -2.49126
9959 2 19.0895 29.7312 -3.55392
9941 2 20.0055 31.3293 -1.06797
6741 2 21.8191 31.2998 -3.57352
9974 2 11.8222 32.8992 -1.08869
9985 2 13.6363 32.8689 -3.59392
3641 1 12.7211 34.458 -2.55323
3612 1 15.4466 32.8874 -2.53178
9942 2 17.2785 32.8992 -1.08869
9972 2 14.5514 34.4696 -1.1102
9987 2 16.366 34.4387 -3.61506
3610 1 18.1774 34.458 -2.55323
3578 1 20.9029 32.8874 -2.53178
9946 2 19.0925 32.8689 -3.59392
9944 2 20.0077 34.4696 -1.1102
6739 2 21.8222 34.4387 -3.61506
9973 2 11.8244 36.0406 -1.13241
9975 2 13.6395 36.0091 -3.63688
4031 1 12.7268 37.6013 -2.5982
10416 2 10.9131 37.5802 -3.65931
3611 1 15.452 36.0293 -2.57539
9925 2 17.2806 36.0406 -1.13241
10407 2 14.5536 37.6121 -1.15527
10408 2 16.3694 37.5802 -3.65931
4020 1 18.1831 37.6013 -2.5982
3563 1 20.9083 36.0293 -2.57539
9945 2 19.0958 36.0091 -3.63688
10370 2 20.0098 37.6121 -1.15527
3630 1 13.6298 20.3598 0.274643
9990 2 12.7229 21.9404 1.5923
9953 2 15.4502 20.371 1.60655
3631 1 16.3589 21.9285 0.260421
9951 2 18.1792 21.9404 1.5923
3585 1 19.0861 20.3598 0.274643
9900 2 20.9064 20.371 1.60655
570 1 21.8151 21.9285 0.260421
3622 1 13.6317 23.4974 0.24518
9978 2 12.7249 25.0796 1.56072
9952 2 15.452 23.5099 1.57701
3620 1 16.3609 25.0665 0.228935
9954 2 18.1811 25.0796 1.56072
3584 1 19.088 23.4974 0.24518
9899 2 20.9082 23.5099 1.57701
571 1 21.8172 25.0665 0.228935
3621 1 13.6339 26.6359 0.211708
9979 2 12.7271 28.2195 1.5252
9939 2 15.4541 26.6494 1.54344
3623 1 16.3632 28.2055 0.193524
9937 2 18.1833 28.2195 1.5252
3577 1 19.0902 26.6359 0.211708
9898 2 20.9103 26.6494 1.54344
566 1 21.8194 28.2055 0.193524
3608 1 13.6363 29.7754 0.174413
9970 2 12.7294 31.3604 1.48595
9938 2 15.4563 29.7898 1.50602
3606 1 16.3657 31.3457 0.154414
9940 2 18.1856 31.3604 1.48595
3576 1 19.0926 29.7754 0.174413
9891 2 20.9126 29.7898 1.50602
567 1 21.8219 31.3457 0.154414
3607 1 13.6389 32.9163 0.133574
9971 2 12.7319 34.5026 1.44331
9924 2 15.4587 32.9313 1.46503
3609 1 16.3684 34.4874 0.111946
3562 1 19.0951 32.9163 0.133574
9890 2 20.915 32.9313 1.46503
9922 2 18.1881 34.5026 1.44331
565 1 21.8246 34.4874 0.111946
3597 1 13.6416 36.0589 0.0895941
4030 1 10.9149 37.631 0.0665913
10397 2 12.7344 37.6463 1.39774
9923 2 15.4613 36.0742 1.42086
4013 1 16.3712 37.631 0.0665913
3561 1 19.0979 36.0589 0.0895941
9875 2 20.9175 36.0742 1.42086
10369 2 18.1907 37.6463 1.39774
3618 1 11.8112 20.382 2.8731
3616 1 14.5402 21.9521 2.8588
9949 2 13.6296 20.3932 4.17415
3615 1 12.7201 21.9758 5.44112
3582 1 17.2674 20.382 2.8731
3570 1 15.4473 20.4044 5.45544
9950 2 16.3586 21.9639 4.15986
3568 1 18.1764 21.9758 5.44112
3583 1 19.9965 21.9521 2.8588
3516 1 20.9035 20.4044 5.45544
9897 2 19.0858 20.3932 4.17415
6712 2 21.8149 21.9639 4.15986
3617 1 11.8131 23.5224 2.84346
3619 1 14.5423 25.0927 2.82711
9935 2 13.6315 23.5348 4.14454
3600 1 12.7223 25.1189 5.40935
3574 1 17.2694 23.5224 2.84346
3569 1 15.4493 23.5474 5.42575
9933 2 16.3607 25.1057 4.12819
3571 1 18.1786 25.1189 5.40935
3572 1 19.9986 25.0927 2.82711
3515 1 20.9056 23.5474 5.42575
9896 2 19.0878 23.5348 4.14454
6713 2 21.817 25.1057 4.12819
3604 1 11.8153 26.6633 2.80976
3602 1 14.5447 28.234 2.79143
9934 2 13.6338 26.6768 4.11085
3601 1 12.7248 28.2624 5.37353
3573 1 17.2716 26.6633 2.80976
3555 1 15.4517 26.6906 5.39194
9936 2 16.3631 28.248 4.09253
3553 1 18.181 28.2624 5.37353
3575 1 20.0009 28.234 2.79143
3514 1 20.9079 26.6906 5.39194
9889 2 19.09 26.6768 4.11085
6704 2 21.8193 28.248 4.09253
3603 1 11.8178 29.8049 2.77215
3605 1 14.5472 31.3761 2.75196
9920 2 13.6362 29.8193 4.07326
3592 1 12.7275 31.4062 5.33387
3559 1 17.274 29.8049 2.77215
3554 1 15.4543 29.8342 5.35416
9918 2 16.3657 31.3909 4.05308
3556 1 18.1838 31.4062 5.33387
3557 1 20.0034 31.3761 2.75196
3507 1 20.9105 29.8342 5.35416
9888 2 19.0925 29.8193 4.07326
6705 2 21.8219 31.3909 4.05308
3596 1 11.8204 32.9475 2.73091
3594 1 14.5499 34.5193 2.70905
9919 2 13.6389 32.9626 4.03203
3593 1 12.7305 34.5507 5.29065
3558 1 17.2767 32.9475 2.73091
3540 1 15.4571 32.9784 5.31268
9921 2 16.3685 34.5346 4.01017
3538 1 18.1867 34.5507 5.29065
3560 1 20.0062 34.5193 2.70905
3506 1 20.9133 32.9784 5.31268
9874 2 19.0952 32.9626 4.03203
6703 2 21.8247 34.5346 4.01017
3595 1 11.8232 36.0914 2.68643
9909 2 13.6418 36.1068 3.98755
3998 1 12.7336 37.696 5.24432
10396 2 10.9151 37.6794 3.96424
3541 1 17.2794 36.0914 2.68643
3539 1 15.4601 36.1232 5.26784
4012 1 14.5528 37.6638 2.66314
10356 2 16.3714 37.6794 3.96424
3492 1 20.9164 36.1232 5.26784
9873 2 19.098 36.1068 3.98755
3965 1 20.009 37.6638 2.66314
3964 1 18.1899 37.696 5.24432
3566 1 13.627 20.4264 8.03229
9931 2 11.8092 20.4153 6.74613
9929 2 14.5383 21.9874 6.73185
9894 2 17.2654 20.4153 6.74613
3567 1 16.3561 21.9991 8.01801
526 1 21.8124 21.9991 8.01801
3513 1 19.0833 20.4264 8.03229
9895 2 19.9945 21.9874 6.73185
3551 1 13.6291 23.5719 8.00268
9930 2 11.8112 23.5595 6.71654
9932 2 14.5405 25.1317 6.7002
9886 2 17.2675 23.5595 6.71654
3549 1 16.3584 25.1446 7.98632
527 1 21.8146 25.1446 7.98632
3512 1 19.0853 23.5719 8.00268
9884 2 19.9967 25.1317 6.7002
3550 1 13.6315 26.7173 7.96894
9916 2 11.8136 26.7038 6.68285
9913 2 12.7228 28.3037 9.23814
9914 2 14.543 28.2761 6.66452
9885 2 17.2698 26.7038 6.68285
3552 1 16.3609 28.2901 7.95055
9865 2 18.179 28.3037 9.23814
518 1 21.8172 28.2901 7.95055
3505 1 19.0877 26.7173 7.96894
9887 2 19.9992 28.2761 6.66452
3536 1 13.6342 29.8628 7.93119
9915 2 11.8162 29.8484 6.64522
9904 2 12.7257 31.4501 9.19871
9917 2 14.5457 31.4207 6.62499
9866 2 15.4523 29.8769 9.2189
9871 2 17.2724 29.8484 6.64522
3534 1 16.3638 31.4356 7.91088
9868 2 18.1819 31.4501 9.19871
519 1 21.8201 31.4356 7.91088
3504 1 19.0905 29.8628 7.93119
9832 2 20.9085 29.8769 9.2189
9869 2 20.002 31.4207 6.62499
3535 1 13.6372 33.0084 7.88966
9908 2 11.8191 32.9932 6.60387
9905 2 12.7288 34.5964 9.15565
9906 2 14.5488 34.5658 6.58191
9855 2 15.4553 33.0232 9.17761
9870 2 17.2753 32.9932 6.60387
3537 1 16.367 34.5813 7.86757
9853 2 18.1851 34.5964 9.15565
517 1 21.8232 34.5813 7.86757
3491 1 19.0935 33.0084 7.88966
9831 2 20.9116 33.0232 9.17761
9872 2 20.005 34.5658 6.58191
3525 1 13.6405 36.1542 7.84467
9907 2 11.8222 36.1385 6.55916
3997 1 10.9141 37.7272 7.82102
10335 2 12.7323 37.7427 9.10933
9854 2 15.4587 36.1695 9.13287
9856 2 17.2785 36.1385 6.55916
3949 1 16.3704 37.7272 7.82102
10355 2 14.552 37.7114 6.5357
3490 1 19.0968 36.1542 7.84467
9824 2 20.9149 36.1695 9.13287
10300 2 18.1885 37.7427 9.10933
10301 2 20.0082 37.7114 6.5357
9928 2 12.718 22.0105 9.30518
3547 1 11.8068 20.4481 10.607
9878 2 13.625 20.4588 11.8928
3545 1 14.5359 22.0221 10.5929
9882 2 15.4452 20.4371 9.31938
9880 2 18.1743 22.0105 9.30518
3510 1 17.263 20.4481 10.607
9879 2 16.3541 22.0335 11.8787
9840 2 20.9014 20.4371 9.31938
9837 2 19.0812 20.4588 11.8928
3511 1 19.9921 22.0221 10.5929
6646 2 21.8103 22.0335 11.8787
9912 2 12.7202 25.1572 9.27368
3546 1 11.8089 23.5961 10.5777
9863 2 13.627 23.608 11.8637
3548 1 14.5381 25.17 10.5614
9881 2 15.4472 23.5839 9.28995
9883 2 18.1765 25.1572 9.27368
3502 1 17.2651 23.5961 10.5777
9861 2 16.3562 25.1825 11.8475
9839 2 20.9034 23.5839 9.28995
9836 2 19.0832 23.608 11.8637
3500 1 19.9944 25.17 10.5614
6647 2 21.8125 25.1825 11.8475
3532 1 11.8113 26.7438 10.5442
9862 2 13.6293 26.7569 11.8304
3530 1 14.5407 28.3175 10.5259
9867 2 15.4496 26.7305 9.25641
3501 1 17.2675 26.7438 10.5442
9864 2 16.3587 28.3311 11.8123
9838 2 20.9058 26.7305 9.25641
9830 2 19.0856 26.7569 11.8304
3503 1 19.997 28.3175 10.5259
6638 2 21.815 28.3311 11.8123
3531 1 11.814 29.8911 10.5066
9851 2 13.632 29.9052 11.7932
3533 1 14.5437 31.4647 10.4864
3488 1 17.2703 29.8911 10.5066
9849 2 16.3616 31.4792 11.7732
9829 2 19.0883 29.9052 11.7932
3486 1 19.9999 31.4647 10.4864
6639 2 21.8179 31.4792 11.7732
3524 1 11.8171 33.0382 10.4653
9850 2 13.6351 33.0531 11.7522
3522 1 14.5469 34.6116 10.4432
3487 1 17.2734 33.0382 10.4653
9852 2 16.3649 34.6268 11.7303
9823 2 19.0913 33.0531 11.7522
3489 1 20.0032 34.6116 10.4432
6637 2 21.8211 34.6268 11.7303
3523 1 11.8206 36.1849 10.4203
9844 2 13.6385 36.2003 11.7076
3477 1 17.2768 36.1849 10.4203
3948 1 14.5505 37.7582 10.3967
10285 2 16.3685 37.7738 11.6841
9822 2 19.0948 36.2003 11.7076
7070 2 21.8247 37.7738 11.6841
3893 1 20.0067 37.7582 10.3967
3494 1 13.6229 20.4914 15.754
9859 2 11.8049 20.4804 14.466
9876 2 14.5322 18.9043 14.4788
3544 1 12.7157 22.045 13.1668
3493 1 16.3502 18.9146 15.7668
3498 1 15.4429 20.4697 13.1808
9834 2 17.2612 20.4804 14.466
3496 1 18.172 22.045 13.1668
470 1 21.8065 18.9146 15.7668
3465 1 19.0791 20.4914 15.754
3468 1 20.8991 20.4697 13.1808
9833 2 19.9885 18.9043 14.4788
3480 1 13.6247 23.6445 15.7255
9858 2 11.8068 23.6322 14.4373
9857 2 14.5339 22.0564 14.4521
3528 1 12.7179 25.1953 13.1358
3495 1 16.3519 22.068 15.7402
3497 1 15.4449 23.6202 13.1518
9827 2 17.263 23.6322 14.4373
3499 1 18.1741 25.1953 13.1358
454 1 21.8081 22.068 15.7402
3464 1 19.0809 23.6445 15.7255
3467 1 20.9011 23.6202 13.1518
9835 2 19.9902 22.0564 14.4521
3479 1 13.6268 26.7968 15.6929
9847 2 11.809 26.7834 14.4045
9860 2 14.536 25.2079 14.4214
3529 1 12.7204 28.3449 13.1006
3478 1 16.3538 25.2207 15.7097
3484 1 15.4472 26.7702 13.1187
9826 2 17.2652 26.7834 14.4045
3482 1 18.1766 28.3449 13.1006
455 1 21.8101 25.2207 15.7097
3461 1 19.083 26.7968 15.6929
3466 1 20.9034 26.7702 13.1187
9825 2 19.9922 25.2079 14.4214
9845 2 14.5384 28.3586 14.3866
9846 2 11.8116 29.9337 14.3678
3472 1 13.6293 29.9481 15.6564
3520 1 12.7233 31.4938 13.0616
9820 2 17.2678 29.9337 14.3678
3483 1 15.4499 29.9195 13.0816
3481 1 16.3561 28.3726 15.6751
3485 1 18.1795 31.4938 13.0616
446 1 21.8124 28.3726 15.6751
9828 2 19.9946 28.3586 14.3866
3463 1 20.9061 29.9195 13.0816
3460 1 19.0856 29.9481 15.6564
9848 2 14.5412 31.5086 14.348
9843 2 11.8146 33.0832 14.3273
3471 1 13.6323 33.0984 15.616
3521 1 12.7266 34.642 13.0188
9819 2 17.2708 33.0832 14.3273
3476 1 15.453 33.068 13.0406
3470 1 16.3589 31.5234 15.6367
3474 1 18.1828 34.642 13.0188
9818 2 19.9974 31.5086 14.348
447 1 21.8151 31.5234 15.6367
3462 1 20.9092 33.068 13.0406
3458 1 19.0885 33.0984 15.616
9841 2 14.5444 34.6575 14.3056
9842 2 11.818 36.2316 14.2831
3469 1 13.6357 36.2473 15.572
3927 1 12.7302 37.7893 12.9724
9817 2 17.2743 36.2316 14.2831
3475 1 15.4565 36.2158 12.996
3473 1 16.3621 34.673 15.5945
3892 1 18.1865 37.7893 12.9724
445 1 21.8183 34.673 15.5945
3457 1 19.092 36.2473 15.572
3459 1 20.9127 36.2158 12.996
9821 2 20.0006 34.6575 14.3056
10199 2 12.7124 18.9246 17.0514
3838 1 11.803 20.5131 18.3266
3840 1 14.5305 18.9349 18.3391
10186 2 15.4413 20.5021 17.0388
3815 1 17.2593 20.5131 18.3266
10188 2 18.1687 18.9246 17.0514
3814 1 19.9867 18.9349 18.3391
10140 2 20.8975 20.5021 17.0388
10200 2 12.7139 22.0794 17.0252
3837 1 11.8046 23.6689 18.2987
3836 1 14.5319 22.0911 18.3131
10185 2 15.4429 23.6565 17.0106
3811 1 17.2608 23.6689 18.2987
10184 2 18.1702 22.0794 17.0252
3816 1 19.9881 22.0911 18.3131
10139 2 20.8991 23.6565 17.0106
10196 2 12.7157 25.2334 16.995
3831 1 11.8064 26.8237 18.2668
3839 1 14.5336 25.2464 18.2832
10178 2 15.4449 26.8101 16.9784
3810 1 17.2627 26.8237 18.2668
10187 2 18.172 25.2334 16.995
3809 1 19.9898 25.2464 18.2832
10138 2 20.9011 26.8101 16.9784
10197 2 12.7179 28.3865 16.9609
3830 1 11.8087 29.9773 18.231
3829 1 14.5356 28.4007 18.2494
10177 2 15.4473 29.9626 16.9424
3799 1 17.2649 29.9773 18.231
10176 2 18.1741 28.3865 16.9609
3812 1 19.9919 28.4007 18.2494
10131 2 20.9035 29.9626 16.9424
10192 2 12.7205 31.5384 16.9229
3824 1 11.8114 33.1295 18.1915
3832 1 14.5381 31.5536 18.2117
3798 1 17.2676 33.1295 18.1915
10164 2 15.4501 33.1139 16.9025
10179 2 18.1767 31.5384 16.9229
3797 1 19.9943 31.5536 18.2117
10130 2 20.9063 33.1139 16.9025
10193 2 12.7235 34.689 16.8812
3823 1 11.8146 36.2801 18.1482
3822 1 14.5411 34.705 18.1703
3781 1 17.2709 36.2801 18.1482
10163 2 15.4534 36.2637 16.859
10162 2 18.1798 34.689 16.8812
3800 1 19.9973 34.705 18.1703
10115 2 20.9096 36.2637 16.859
10182 2 13.6215 20.5239 19.6111
3834 1 12.711 18.9554 20.9108
10170 2 11.802 20.546 22.1828
10180 2 14.5297 18.9656 22.1948
10181 2 16.3491 18.945 19.6234
3807 1 15.4396 20.5351 20.8986
10134 2 17.2583 20.546 22.1828
3813 1 18.1672 18.9554 20.9108
10137 2 19.0778 20.5239 19.6111
3756 1 20.8959 20.5351 20.8986
10133 2 19.9859 18.9656 22.1948
6934 2 21.8053 18.945 19.6234
10174 2 13.6229 23.6811 19.5835
3835 1 12.7121 22.1145 20.8854
10169 2 11.803 23.706 22.1558
10168 2 14.5306 22.1261 22.1698
10183 2 16.3503 22.1026 19.5978
3806 1 15.4408 23.6936 20.8713
10126 2 17.2593 23.706 22.1558
3805 1 18.1683 22.1145 20.8854
10136 2 19.0791 23.6811 19.5835
3755 1 20.8971 23.6936 20.8713
10135 2 19.9869 22.1261 22.1698
6930 2 21.8065 22.1026 19.5978
10173 2 13.6246 26.8373 19.552
3827 1 12.7134 25.2725 20.8562
10156 2 11.8043 26.865 22.1252
10171 2 14.5318 25.2857 22.1409
10172 2 16.3518 25.2593 19.5683
3795 1 15.4423 26.8511 20.8402
10125 2 17.2606 26.865 22.1252
3808 1 18.1697 25.2725 20.8562
10129 2 19.0808 26.8373 19.552
3754 1 20.8986 26.8511 20.8402
10124 2 19.988 25.2857 22.1409
6931 2 21.808 25.2593 19.5683
10160 2 13.6266 29.9922 19.5168
3828 1 12.7151 28.4294 20.8233
10155 2 11.806 30.0226 22.0908
10154 2 14.5332 28.444 22.1084
10175 2 16.3536 28.4149 19.5349
3794 1 15.4442 30.0073 20.8054
10111 2 17.2622 30.0226 22.0908
3793 1 18.1713 28.4294 20.8233
10128 2 19.0828 29.9922 19.5168
3747 1 20.9005 30.0073 20.8054
10127 2 19.9895 28.444 22.1084
6926 2 21.8099 28.4149 19.5349
10159 2 13.6291 33.1456 19.4778
3820 1 12.7172 31.5848 20.7866
10148 2 11.8081 33.1785 22.0528
10157 2 14.5351 31.6008 22.0723
10158 2 16.3559 31.5691 19.4978
3780 1 15.4465 33.1618 20.7668
10110 2 17.2643 33.1785 22.0528
3796 1 18.1734 31.5848 20.7866
10114 2 19.0854 33.1456 19.4778
3746 1 20.9028 33.1618 20.7668
10109 2 19.9913 31.6008 22.0723
6927 2 21.8122 31.5691 19.4978
10149 2 13.6322 36.2972 19.4351
3821 1 12.7198 34.7383 20.7462
10147 2 11.8107 36.3323 22.0113
10146 2 14.5374 34.7557 22.0325
10161 2 16.3587 34.7216 19.4569
3779 1 15.4494 36.3143 20.7246
10093 2 17.2669 36.3323 22.0113
3778 1 18.176 34.7383 20.7462
10113 2 19.0884 36.2972 19.4351
3731 1 20.9057 36.3143 20.7246
10112 2 19.9936 34.7557 22.0325
6925 2 21.8149 34.7216 19.4569
3803 1 13.6202 20.5572 23.4699
10166 2 12.7107 18.9864 24.7654
3802 1 16.348 18.9761 23.4818
10122 2 15.4391 20.5683 24.7537
10132 2 18.1669 18.9864 24.7654
3753 1 19.0765 20.5572 23.4699
10068 2 20.8953 20.5683 24.7537
761 1 21.8043 18.9761 23.4818
3791 1 13.6211 23.7187 23.4433
10167 2 12.7113 22.1499 24.741
3804 1 16.3488 22.1381 23.4571
10121 2 15.4397 23.7313 24.7274
10120 2 18.1675 22.1499 24.741
3752 1 19.0773 23.7187 23.4433
10067 2 20.896 23.7313 24.7274
753 1 21.805 22.1381 23.4571
3790 1 13.6222 26.8792 23.413
10152 2 12.712 25.3125 24.7129
3789 1 16.3497 25.2991 23.4286
10107 2 15.4406 26.8933 24.6976
10123 2 18.1683 25.3125 24.7129
3745 1 19.0784 26.8792 23.413
10066 2 20.8969 26.8933 24.6976
754 1 21.806 25.2991 23.4286
3776 1 13.6236 30.0381 23.3792
10153 2 12.713 28.4738 24.6813
3792 1 16.351 28.4589 23.3966
10106 2 15.4418 30.0538 24.6642
10105 2 18.1693 28.4738 24.6813
3744 1 19.0798 30.0381 23.3792
10059 2 20.898 30.0538 24.6642
746 1 21.8072 28.4589 23.3966
3764 1 11.8044 33.2302 25.9159
3775 1 13.6254 33.1954 23.3417
10144 2 12.7143 31.6335 24.6462
3726 1 17.2606 33.2302 25.9159
3774 1 16.3526 31.617 23.3609
10092 2 15.4433 33.2126 24.6273
10108 2 18.1706 31.6335 24.6462
3730 1 19.0817 33.1954 23.3417
10058 2 20.8995 33.2126 24.6273
747 1 21.8088 31.617 23.3609
3763 1 11.8061 36.3883 25.8763
3765 1 13.6278 36.3504 23.3007
10145 2 12.7161 34.7912 24.6076
3762 1 14.5333 34.8096 25.8965
3710 1 17.2623 36.3883 25.8763
3777 1 16.3546 34.7732 23.3217
10091 2 15.4453 36.3692 24.587
10090 2 18.1723 34.7912 24.6076
3728 1 19.9895 34.8096 25.8965
3729 1 19.084 36.3504 23.3007
10044 2 20.9016 36.3692 24.587
745 1 21.8109 34.7732 23.3217
3787 1 11.8012 20.5796 26.0404
3801 1 14.5292 18.997 26.052
3783 1 12.7108 19.018 28.6214
10118 2 13.6203 20.5908 27.3237
3750 1 17.2575 20.5796 26.0404
3738 1 15.4389 20.6023 28.61
10117 2 16.3483 19.0074 27.3352
3748 1 18.167 19.018 28.6214
3749 1 19.9854 18.997 26.052
3690 1 20.8952 20.6023 28.61
10065 2 19.0766 20.5908 27.3237
6901 2 21.8046 19.0074 27.3352
3786 1 11.8017 23.7442 26.0145
3785 1 14.5296 22.1621 26.0279
3784 1 12.7108 22.1863 28.5978
10103 2 13.6206 23.757 27.2981
3742 1 17.2579 23.7442 26.0145
3737 1 15.439 23.7701 28.5847
10119 2 16.3486 22.174 27.3113
3736 1 18.1671 22.1863 28.5978
3751 1 19.9858 22.1621 26.0279
3689 1 20.8952 23.7701 28.5847
10064 2 19.0768 23.757 27.2981
6886 2 21.8048 22.174 27.3113
3772 1 11.8023 26.9078 25.9851
3788 1 14.5301 25.3262 26.0002
3768 1 12.7109 25.3537 28.5708
10102 2 13.621 26.9222 27.2691
3741 1 17.2586 26.9078 25.9851
3723 1 15.4391 26.937 28.5561
10101 2 16.3489 25.3398 27.284
3739 1 18.1672 25.3537 28.5708
3740 1 19.9863 25.3262 26.0002
3688 1 20.8954 26.937 28.5561
10057 2 19.0772 26.9222 27.2691
6887 2 21.8051 25.3398 27.284
3771 1 11.8032 30.0699 25.9522
3770 1 14.5308 28.489 25.9691
3769 1 12.7111 28.5199 28.5405
10088 2 13.6216 30.086 27.2367
3727 1 17.2594 30.0699 25.9522
3722 1 15.4394 30.1025 28.5242
10104 2 16.3494 28.5043 27.2533
3721 1 18.1674 28.5199 28.5405
3743 1 19.9871 28.489 25.9691
3681 1 20.8957 30.1025 28.5242
10056 2 19.0778 30.086 27.2367
6878 2 21.8056 28.5043 27.2533
3773 1 14.5319 31.6503 25.9345
3760 1 12.7115 31.6847 28.507
10087 2 13.6225 33.2481 27.2009
3709 1 15.44 33.2664 28.4891
10086 2 16.3501 31.6673 27.2192
3724 1 18.1678 31.6847 28.507
3725 1 19.9881 31.6503 25.9345
3680 1 20.8962 33.2664 28.4891
10043 2 19.0787 33.2481 27.2009
6879 2 21.8064 31.6673 27.2192
3761 1 12.7123 34.8476 28.4703
10077 2 13.6238 36.408 27.1619
3708 1 15.4409 36.4281 28.4508
10089 2 16.3512 34.8284 27.1818
3707 1 18.1685 34.8476 28.4703
3669 1 20.8971 36.4281 28.4508
10042 2 19.0801 36.408 27.1619
6877 2 21.8075 34.8284 27.1818
3734 1 13.6209 20.6252 31.1786
10095 2 12.7127 19.0499 32.4718
10099 2 11.8021 20.6136 29.8928
10116 2 14.5302 19.0285 29.904
3733 1 16.3492 19.0393 31.1897
10050 2 15.4406 20.6366 32.4608
10062 2 17.2583 20.6136 29.8928
10060 2 18.1689 19.0499 32.4718
3687 1 19.0771 20.6252 31.1786
10020 2 20.8968 20.6366 32.4608
10061 2 19.9865 19.0285 29.904
710 1 21.8054 19.0393 31.1897
3719 1 13.6206 23.7964 31.1538
10096 2 12.7122 22.2232 32.4489
10098 2 11.8019 23.7831 29.8678
10097 2 14.5301 22.1985 29.8807
3735 1 16.3489 22.2109 31.1666
10049 2 15.4401 23.8096 32.4363
10054 2 17.2582 23.7831 29.8678
10048 2 18.1685 22.2232 32.4489
3686 1 19.0768 23.7964 31.1538
10019 2 20.8964 23.8096 32.4363
10063 2 19.9864 22.1985 29.8807
694 1 21.8051 22.2109 31.1666
3718 1 13.6203 26.9668 31.1259
10080 2 12.7118 25.3958 32.4228
10084 2 11.8019 26.9517 29.8395
10100 2 14.53 25.3675 29.854
3717 1 16.3485 25.3817 31.1402
10036 2 15.4396 26.9817 32.4085
10053 2 17.2581 26.9517 29.8395
10051 2 18.168 25.3958 32.4228
3679 1 19.0765 26.9668 31.1259
10018 2 20.8959 26.9817 32.4085
10052 2 19.9863 25.3675 29.854
695 1 21.8048 25.3817 31.1402
3705 1 13.62 30.136 31.0948
10081 2 12.7113 28.5674 32.3935
10083 2 11.8019 30.1191 29.8079
10082 2 14.53 28.5355 29.8241
3720 1 16.3482 28.5515 31.1107
10035 2 15.4392 30.1528 32.3778
10040 2 17.2582 30.1191 29.8079
10034 2 18.1675 28.5674 32.3935
3678 1 19.0762 30.136 31.0948
10015 2 20.8954 30.1528 32.3778
10055 2 19.9863 28.5355 29.8241
686 1 21.8045 28.5515 31.1107
3704 1 13.6199 33.3037 31.0607
10072 2 12.7108 31.738 32.3613
10076 2 11.8022 33.2849 29.7733
10085 2 14.5301 31.7022 29.791
3703 1 16.348 31.7201 31.0781
10028 2 15.4388 33.3227 32.344
10039 2 17.2584 33.2849 29.7733
10037 2 18.1671 31.738 32.3613
3668 1 19.0761 33.3037 31.0607
10014 2 20.895 33.3227 32.344
10038 2 19.9864 31.7022 29.791
687 1 21.8043 31.7201 31.0781
3696 1 13.62 36.4697 31.0237
10073 2 12.7105 34.907 32.3261
10075 2 11.8027 36.4487 29.7355
10074 2 14.5305 34.867 29.7548
3706 1 16.348 34.887 31.0426
10027 2 15.4385 36.4909 32.3074
10029 2 17.2589 36.4487 29.7355
10026 2 18.1667 34.907 32.3261
3667 1 19.0762 36.4697 31.0237
10011 2 20.8947 36.4909 32.3074
10041 2 19.9868 34.867 29.7548
685 1 21.8042 34.887 31.0426
3715 1 11.8035 20.6483 33.746
10046 2 13.6235 20.6599 35.0276
3732 1 14.5319 19.0608 33.7569
3684 1 17.2597 20.6483 33.746
10045 2 16.352 19.0715 35.0385
3683 1 19.9881 19.0608 33.7569
10017 2 19.0798 20.6599 35.0276
6830 2 21.8082 19.0715 35.0385
3714 1 11.8028 23.823 33.7217
10032 2 13.6228 23.8364 35.0035
3713 1 14.5313 22.2358 33.7342
3676 1 17.2591 23.823 33.7217
10047 2 16.3513 22.2482 35.0159
3685 1 19.9875 22.2358 33.7342
10016 2 19.079 23.8364 35.0035
6814 2 21.8075 22.2482 35.0159
3716 1 14.5306 25.4101 33.7084
3701 1 11.8021 26.997 33.6943
10031 2 13.6219 27.0122 34.9762
10030 2 16.3505 25.4244 34.9902
3675 1 17.2583 26.997 33.6943
10013 2 19.0782 27.0122 34.9762
3674 1 19.9868 25.4101 33.7084
6815 2 21.8067 25.4244 34.9902
3699 1 14.5298 28.5837 33.6795
10024 2 13.621 30.1873 34.946
3700 1 11.8013 30.1701 33.6639
10033 2 16.3496 28.5998 34.9614
3665 1 17.2576 30.1701 33.6639
10012 2 19.0772 30.1873 34.946
3677 1 19.9861 28.5837 33.6795
6806 2 21.8058 28.5998 34.9614
3702 1 14.5291 31.7563 33.6476
10023 2 13.62 33.3614 34.9129
3695 1 11.8006 33.3421 33.6306
10022 2 16.3486 31.7745 34.9298
3664 1 17.2568 33.3421 33.6306
10010 2 19.0762 33.3614 34.9129
3663 1 19.9853 31.7563 33.6476
6807 2 21.8048 31.7745 34.9298
3693 1 14.5283 34.9276 33.613
10021 2 13.619 36.5344 34.8771
3694 1 11.7998 36.5126 33.5946
10025 2 16.3476 34.9481 34.8953
3658 1 17.2561 36.5126 33.5946
10009 2 19.0752 36.5344 34.8771
3666 1 19.9845 34.9276 33.613
6805 2 21.8038 34.9481 34.8953
10222 2 11.8072 20.6834 37.5932
16037 1 13.627 20.6953 38.8772
3711 1 12.7153 19.0824 36.323
10224 2 14.5358 19.0933 37.604
10211 2 17.2634 20.6834 37.5932
16036 1 16.3556 19.1043 38.888
3672 1 15.443 20.6717 36.3122
3682 1 18.1715 19.0824 36.323
10210 2 19.992 19.0933 37.604
16002 1 19.0832 20.6953 38.8772
3654 1 20.8992 20.6717 36.3122
13224 1 21.8119 19.1043 38.888
10221 2 11.8062 23.8634 37.5693
16033 1 13.6259 23.8771 38.8534
3712 1 12.7144 22.2609 36.3006
10220 2 14.5348 22.2734 37.5817
10208 2 17.2624 23.8634 37.5693
16038 1 16.3546 22.2862 38.8657
3671 1 15.4421 23.8499 36.2882
3670 1 18.1707 22.2609 36.3006
10212 2 19.9911 22.2734 37.5817
16001 1 19.0821 23.8771 38.8534
3653 1 20.8983 23.8499 36.2882
13222 1 21.8108 22.2862 38.8657
10218 2 11.805 27.043 37.5423
16032 1 13.6245 27.0586 38.8265
3697 1 12.7134 25.4389 36.2751
10223 2 14.5337 25.4533 37.5562
10207 2 17.2613 27.043 37.5423
16031 1 16.3533 25.4679 38.8403
3661 1 15.441 27.0277 36.2612
3673 1 18.1697 25.4389 36.2751
10206 2 19.99 25.4533 37.5562
15996 1 19.0808 27.0586 38.8265
3652 1 20.8972 27.0277 36.2612
13223 1 21.8096 25.4679 38.8403
10217 2 11.8037 30.2222 37.5123
16022 1 13.623 30.2399 38.7967
3698 1 12.7123 28.6163 36.2466
10216 2 14.5325 28.6327 37.5277
10204 2 17.2599 30.2222 37.5123
16034 1 16.3519 28.6493 38.8119
3660 1 15.4398 30.2048 36.2312
3659 1 18.1685 28.6163 36.2466
10209 2 19.9887 28.6327 37.5277
15995 1 19.0792 30.2399 38.7967
3651 1 20.896 30.2048 36.2312
13220 1 21.8081 28.6493 38.8119
10215 2 11.8023 33.4008 37.4796
16021 1 13.6213 33.4208 38.7642
3691 1 12.711 31.7931 36.2152
10219 2 14.5311 31.8116 37.4963
10203 2 17.2585 33.4008 37.4796
16020 1 16.3503 31.8304 38.7808
3657 1 15.4385 33.3812 36.1985
3662 1 18.1673 31.7931 36.2152
10202 2 19.9874 31.8116 37.4963
15982 1 19.0775 33.4208 38.7642
3650 1 20.8947 33.3812 36.1985
13221 1 21.8065 31.8304 38.7808
10214 2 11.8007 36.5788 37.4443
16011 1 13.6194 36.6015 38.7291
3692 1 12.7096 34.9691 36.1812
10213 2 14.5296 34.9899 37.4623
10201 2 17.2569 36.5788 37.4443
16023 1 16.3485 35.0112 38.7469
3656 1 15.4371 36.5567 36.1632
3655 1 18.1659 34.9691 36.1812
10205 2 19.9858 34.9899 37.4623
15981 1 19.0756 36.6015 38.7291
3649 1 20.8933 36.5567 36.1632
13219 1 21.8047 35.0112 38.7469
21659 2 12.7202 19.1152 40.1683
16029 1 11.8117 20.719 41.4409
16035 1 14.5404 19.1262 41.4517
21646 2 15.4478 20.7071 40.1576
15999 1 17.268 20.719 41.4409
21648 2 18.1765 19.1152 40.1683
15998 1 19.9967 19.1262 41.4517
21600 2 20.9041 20.7071 40.1576
21660 2 12.7191 22.2989 40.146
16028 1 11.8105 23.9044 41.4171
16027 1 14.5393 22.3117 41.4294
21645 2 15.4466 23.8907 40.1337
15993 1 17.2667 23.9044 41.4171
21644 2 18.1754 22.2989 40.146
16000 1 19.9955 22.3117 41.4294
21599 2 20.9029 23.8907 40.1337
21656 2 12.7179 25.4824 40.1206
16018 1 11.809 27.0898 41.3901
16030 1 14.5379 25.4971 41.404
21638 2 15.4453 27.0741 40.1067
15992 1 17.2652 27.0898 41.3901
21647 2 18.1741 25.4824 40.1206
15991 1 19.9941 25.4971 41.404
21598 2 20.9015 27.0741 40.1067
21657 2 12.7164 28.6658 40.0921
16017 1 11.8073 30.2752 41.3602
16016 1 14.5363 28.6825 41.3755
21637 2 15.4437 30.2574 40.0768
15979 1 17.2635 30.2752 41.3602
21636 2 18.1726 28.6658 40.0921
15994 1 19.9925 28.6825 41.3755
21591 2 20.8999 30.2574 40.0768
21652 2 12.7147 31.849 40.0608
16010 1 11.8053 33.4608 41.3275
16019 1 14.5344 31.868 41.3442
15978 1 17.2615 33.4608 41.3275
21624 2 15.4419 33.4406 40.0441
21639 2 18.171 31.849 40.0608
15977 1 19.9907 31.868 41.3442
21590 2 20.8982 33.4406 40.0441
21653 2 12.7129 35.0321 40.0268
16009 1 11.8031 36.6466 41.2922
21609 2 13.6244 36.6688 42.5705
16008 1 14.5323 35.0537 41.3102
15961 1 17.2593 36.6466 41.2922
21621 2 16.3537 35.0746 42.5888
21623 2 15.44 36.6237 40.0087
21622 2 18.1691 35.0321 40.0268
15980 1 19.9886 35.0537 41.3102
21573 2 19.0807 36.6688 42.5705
21575 2 20.8962 36.6237 40.0087
18829 2 21.8099 35.0746 42.5888
21642 2 13.633 20.7309 42.7207
16025 1 12.726 19.1484 44.0142
21630 2 11.8189 20.7548 45.2824
21640 2 14.5476 19.1594 45.2933
21641 2 16.3616 19.1372 42.7314
15989 1 15.4535 20.7429 44.0034
21594 2 17.2751 20.7548 45.2824
15997 1 18.1822 19.1484 44.0142
21597 2 19.0892 20.7309 42.7207
15936 1 20.9097 20.7429 44.0034
21593 2 20.0038 19.1594 45.2933
18838 2 21.8179 19.1372 42.7314
21634 2 13.6317 23.9181 42.6967
16026 1 12.7248 22.3374 43.9918
21629 2 11.8176 23.9457 45.2582
21628 2 14.5464 22.3502 45.2707
21643 2 16.3605 22.3245 42.7091
15988 1 15.4522 23.9319 43.9793
21586 2 17.2738 23.9457 45.2582
15987 1 18.181 22.3374 43.9918
21596 2 19.0879 23.9181 42.6967
15935 1 20.9084 23.9319 43.9793
21595 2 20.0026 22.3502 45.2707
18834 2 21.8167 22.3245 42.7091
21633 2 13.6302 27.1054 42.6696
16014 1 12.7233 25.5265 43.9661
21616 2 11.8161 27.1368 45.2308
21631 2 14.545 25.5412 45.2449
21632 2 16.3591 25.5117 42.6835
15975 1 15.4506 27.1212 43.9521
21585 2 17.2723 27.1368 45.2308
15990 1 18.1795 25.5265 43.9661
21589 2 19.0865 27.1054 42.6696
15934 1 20.9069 27.1212 43.9521
21584 2 20.0012 25.5412 45.2449
18835 2 21.8153 25.5117 42.6835
21620 2 13.6285 30.2928 42.6394
16015 1 12.7216 28.7159 43.9374
21615 2 11.8144 30.3283 45.2001
21614 2 14.5434 28.7325 45.2158
21635 2 16.3575 28.6991 42.6549
15974 1 15.4488 30.3107 43.9219
21571 2 17.2706 30.3283 45.2001
15973 1 18.1779 28.7159 43.9374
21588 2 19.0848 30.2928 42.6394
15927 1 20.9051 30.3107 43.9219
21587 2 19.9996 28.7325 45.2158
18830 2 21.8137 28.6991 42.6549
21619 2 13.6266 33.4805 42.6063
16006 1 12.7197 31.9057 43.9056
21608 2 11.8124 33.5205 45.1664
21617 2 14.5415 31.9243 45.1836
21618 2 16.3557 31.8866 42.6232
15960 1 15.4468 33.5008 43.8886
21570 2 17.2687 33.5205 45.1664
15976 1 18.176 31.9057 43.9056
21574 2 19.0828 33.4805 42.6063
15926 1 20.903 33.5008 43.8886
21569 2 19.9978 31.9243 45.1836
18831 2 21.8119 31.8866 42.6232
16007 1 12.7176 35.0962 43.871
21607 2 11.8103 36.7137 45.1296
21606 2 14.5395 35.1169 45.1484
15959 1 15.4445 36.6918 43.8526
21554 2 17.2665 36.7137 45.1296
15958 1 18.1738 35.0962 43.871
15911 1 20.9007 36.6918 43.8526
21572 2 19.9957 35.1169 45.1484
15967 1 11.8268 20.791 49.1245
15985 1 13.6398 20.7669 46.5645
21626 2 12.7342 19.1818 47.854
15930 1 17.2831 20.791 49.1245
15983 1 14.5555 19.193 49.1356
15984 1 16.3685 19.1706 46.5755
21582 2 15.4618 20.7789 47.843
15929 1 20.0117 19.193 49.1356
15933 1 19.096 20.7669 46.5645
21534 2 20.918 20.7789 47.843
21592 2 18.1905 19.1818 47.854
13204 1 21.8247 19.1706 46.5755
15966 1 11.8256 23.9873 49.0997
15971 1 13.6385 23.9596 46.5402
21627 2 12.733 22.3761 47.8311
15922 1 17.2818 23.9873 49.0997
15965 1 14.5543 22.3891 49.1125
15986 1 16.3673 22.3632 46.5528
21581 2 15.4605 23.9733 47.8184
15931 1 20.0106 22.3891 49.1125
15932 1 19.0947 23.9596 46.5402
21533 2 20.9167 23.9733 47.8184
21580 2 18.1893 22.3761 47.8311
13192 1 21.8235 22.3632 46.5528
15952 1 11.8241 27.184 49.0715
15970 1 13.6369 27.1526 46.5125
21612 2 12.7317 25.5707 47.8048
15921 1 17.2804 27.184 49.0715
15968 1 14.553 25.5856 49.086
15969 1 16.3659 25.556 46.5268
21567 2 15.4591 27.1682 47.7904
15920 1 20.0092 25.5856 49.086
15925 1 19.0932 27.1526 46.5125
21532 2 20.9153 27.1682 47.7904
21583 2 18.1879 25.5707 47.8048
13193 1 21.8221 25.556 46.5268
15951 1 11.8225 30.3816 49.0398
15956 1 13.6352 30.3462 46.4816
21613 2 12.7301 28.7659 47.7752
15907 1 17.2787 30.3816 49.0398
15950 1 14.5515 28.7827 49.056
15972 1 16.3642 28.7493 46.4975
21566 2 15.4574 30.3637 47.7591
21565 2 18.1864 28.7659 47.7752
15923 1 20.0077 28.7827 49.056
15924 1 19.0914 30.3462 46.4816
21525 2 20.9137 30.3637 47.7591
13184 1 21.8205 28.7493 46.4975
15944 1 11.8207 33.5803 49.0046
15955 1 13.6332 33.5407 46.4476
21604 2 12.7284 31.9618 47.7421
15953 1 14.5498 31.9808 49.0226
15906 1 17.277 33.5803 49.0046
15954 1 16.3624 31.9433 46.465
21553 2 15.4556 33.5602 47.7244
21568 2 18.1847 31.9618 47.7421
15905 1 20.006 31.9808 49.0226
15910 1 19.0895 33.5407 46.4476
21524 2 20.9118 33.5602 47.7244
13185 1 21.8186 31.9433 46.465
15943 1 11.8188 36.7808 48.966
15945 1 13.631 36.7366 46.4104
21605 2 12.7265 35.1589 47.7058
15942 1 14.5479 35.1803 48.9858
15892 1 17.275 36.7808 48.966
15957 1 16.3603 35.1385 46.4294
21552 2 15.4536 36.758 47.6864
21551 2 18.1828 35.1589 47.7058
15908 1 20.0041 35.1803 48.9858
15909 1 19.0873 36.7366 46.4104
21513 2 20.9099 36.758 47.6864
13183 1 21.8165 35.1385 46.4294
15963 1 12.7432 19.2154 51.6945
21578 2 13.6491 20.803 50.4023
21625 2 10.9216 19.2041 50.4135
15918 1 15.4708 20.8152 51.6832
21577 2 16.3778 19.2041 50.4135
15876 1 20.927 20.8152 51.6832
15928 1 18.1994 19.2154 51.6945
21531 2 19.1054 20.803 50.4023
15964 1 12.7421 22.415 51.6711
21563 2 13.648 24.001 50.3773
21610 2 10.9205 22.402 50.3903
15917 1 15.4696 24.015 51.658
21579 2 16.3767 22.402 50.3903
15875 1 20.9259 24.015 51.658
15916 1 18.1983 22.415 51.6711
21530 2 19.1042 24.001 50.3773
15948 1 12.7409 25.6151 51.6439
21562 2 13.6466 27.1996 50.3486
21611 2 10.9192 25.6002 50.3634
15903 1 15.4683 27.2154 51.629
21561 2 16.3754 25.6002 50.3634
15874 1 20.9246 27.2154 51.629
15919 1 18.1971 25.6151 51.6439
21523 2 19.1029 27.1996 50.3486
15949 1 12.7395 28.8159 51.6131
21549 2 13.6451 30.3989 50.3164
21602 2 10.9178 28.7991 50.333
15902 1 15.4669 30.4168 51.5964
21564 2 16.374 28.7991 50.333
15868 1 20.9231 30.4168 51.5964
15901 1 18.1957 28.8159 51.6131
21522 2 19.1014 30.3989 50.3164
15940 1 12.738 32.0179 51.5786
21548 2 13.6435 33.5995 50.2806
21603 2 10.9162 31.999 50.299
15891 1 15.4654 33.6195 51.56
21547 2 16.3725 31.999 50.299
15867 1 20.9216 33.6195 51.56
15904 1 18.1943 32.0179 51.5786
21512 2 19.0998 33.5995 50.2806
15941 1 12.7364 35.2215 51.5404
21540 2 13.6418 36.8017 50.2411
21601 2 10.9145 35.2003 50.2613
15890 1 15.4637 36.824 51.5198
21550 2 16.3708 35.2003 50.2613
15860 1 20.9199 36.824 51.5198
15889 1 18.1927 35.2215 51.5404
21511 2 19.098 36.8017 50.2411
15914 1 13.6591 20.8394 54.2409
15962 1 10.9315 19.2379 54.2524
21555 2 12.7544 19.2491 55.5293
21559 2 11.8372 20.8272 52.9605
15913 1 16.3877 19.2379 54.2524
21516 2 15.4821 20.8514 55.5177
21528 2 17.2934 20.8272 52.9605
21576 2 14.5658 19.2266 52.9719
15873 1 19.1154 20.8394 54.2409
21498 2 20.9383 20.8514 55.5177
21526 2 18.2107 19.2491 55.5293
21527 2 20.022 19.2266 52.9719
15899 1 13.6581 24.0427 54.2151
15946 1 10.9305 22.4409 54.2285
21556 2 12.7535 22.4538 55.5051
21558 2 11.8361 24.0287 52.9349
15915 1 16.3868 22.4409 54.2285
21515 2 15.4811 24.0564 55.4915
21520 2 17.2923 24.0287 52.9349
21557 2 14.5648 22.4279 52.9482
15872 1 19.1143 24.0427 54.2151
21497 2 20.9374 24.0564 55.4915
21514 2 18.2097 22.4538 55.5051
21529 2 20.021 22.4279 52.9482
15898 1 13.657 27.2466 54.1853
15947 1 10.9294 25.6446 54.2007
21541 2 12.7525 25.6591 55.477
21545 2 11.8349 27.2309 52.9056
15897 1 16.3857 25.6446 54.2007
21505 2 15.4801 27.262 55.4614
21519 2 17.2911 27.2309 52.9056
21560 2 14.5636 25.6297 52.9207
15866 1 19.1132 27.2466 54.1853
21496 2 20.9363 27.262 55.4614
21517 2 18.2087 25.6591 55.477
21518 2 20.0199 25.6297 52.9207
15887 1 13.6558 30.4516 54.1517
15938 1 10.9283 28.849 54.169
21542 2 12.7514 28.8651 55.4448
21544 2 11.8336 30.4339 52.8724
15900 1 16.3845 28.849 54.169
21504 2 15.479 30.4686 55.4273
21509 2 17.2898 30.4339 52.8724
21543 2 14.5624 28.8322 52.8895
15865 1 19.112 30.4516 54.1517
21495 2 20.9352 30.4686 55.4273
21503 2 18.2076 28.8651 55.4448
21521 2 20.0186 28.8322 52.8895
15886 1 13.6545 33.658 54.114
15939 1 10.927 32.0546 54.1334
21535 2 12.7503 32.0723 55.4086
21539 2 11.8322 33.6383 52.8354
21546 2 14.561 32.0359 52.8544
21508 2 17.2885 33.6383 52.8354
15885 1 16.3832 32.0546 54.1334
21501 2 15.4778 33.6764 55.3889
21507 2 20.0173 32.0359 52.8544
21506 2 18.2065 32.0723 55.4086
21494 2 20.934 33.6764 55.3889
15859 1 19.1107 33.658 54.114
21538 2 11.8308 36.8444 52.7943
21536 2 12.7491 35.281 55.3682
15937 1 10.9257 35.2618 54.0936
15880 1 13.6532 36.8663 54.0722
21537 2 14.5596 35.2411 52.8153
21502 2 17.287 36.8444 52.7943
21500 2 15.4766 36.886 55.3463
15888 1 16.3819 35.2618 54.0936
21510 2 20.0159 35.2411 52.8153
21499 2 18.2053 35.281 55.3682
21493 2 20.9329 36.886 55.3463
15858 1 19.1094 36.8663 54.0722
21845 2 13.6714 20.8755 58.0738
21852 2 10.9437 19.2715 58.0856
15895 1 11.8481 20.8636 56.7975
21844 2 16.3999 19.2715 58.0856
15870 1 17.3044 20.8636 56.7975
15912 1 14.5767 19.2604 56.8093
21810 2 19.1276 20.8755 58.0738
15869 1 20.0329 19.2604 56.8093
21841 2 13.6705 24.0839 58.0471
21850 2 10.9428 22.4797 58.0609
15894 1 11.8472 24.0703 56.7711
21846 2 16.399 22.4797 58.0609
15863 1 17.3034 24.0703 56.7711
15893 1 14.5758 22.4669 56.7848
21809 2 19.1267 24.0839 58.0471
15871 1 20.032 22.4669 56.7848
21840 2 13.6695 27.2929 58.0162
21851 2 10.9419 25.6883 58.0322
15883 1 11.8462 27.2777 56.7406
21839 2 16.3981 25.6883 58.0322
15862 1 17.3025 27.2777 56.7406
15896 1 14.5748 25.6739 56.7564
21804 2 19.1258 27.2929 58.0162
15861 1 20.0311 25.6739 56.7564
21830 2 13.6686 30.5028 57.9812
21848 2 10.941 28.8977 57.9992
15882 1 11.8452 30.4861 56.706
16189 1 15.4913 30.5202 59.2595
21842 2 16.3972 28.8977 57.9992
15856 1 17.3014 30.4861 56.706
15881 1 14.5738 28.8817 56.7238
16143 1 20.9476 30.5202 59.2595
21803 2 19.1248 30.5028 57.9812
15864 1 20.0301 28.8817 56.7238
16204 1 12.7628 32.1264 59.24
21829 2 13.6676 33.7139 57.9417
21849 2 10.94 32.1082 57.962
15879 1 11.8442 33.6958 56.667
16176 1 15.4905 33.733 59.2194
21828 2 16.3962 32.1082 57.962
15855 1 17.3004 33.6958 56.667
15884 1 14.5728 32.0907 56.6871
16142 1 20.9467 33.733 59.2194
16191 1 18.219 32.1264 59.24
21790 2 19.1239 33.7139 57.9417
15854 1 20.029 32.0907 56.6871
16205 1 12.762 35.3399 59.1976
21819 2 13.6667 36.9266 57.8976
21847 2 10.939 35.3201 57.9202
15878 1 11.8431 36.9073 56.6236
16175 1 15.4897 36.9473 59.1746
21831 2 16.3953 35.3201 57.9202
15853 1 17.2994 36.9073 56.6236
15877 1 14.5718 35.3013 56.6459
16127 1 20.9459 36.9473 59.1746
16174 1 18.2182 35.3399 59.1976
21789 2 19.1229 36.9266 57.8976
15857 1 20.028 35.3013 56.6459
16211 1 12.7662 19.2829 59.3652
16194 1 13.6839 20.9118 61.9081
16210 1 10.9562 19.3053 61.9203
21837 2 11.8611 20.8996 60.6289
16198 1 15.4939 20.8877 59.3532
16193 1 16.4124 19.3053 61.9203
21807 2 17.3174 20.8996 60.6289
21843 2 14.5897 19.294 60.641
16152 1 20.9501 20.8877 59.3532
16200 1 18.2224 19.2829 59.3652
16149 1 19.1402 20.9118 61.9081
21806 2 20.0459 19.294 60.641
16212 1 12.7654 22.4927 59.3403
16186 1 13.6831 24.1252 61.8807
16206 1 10.9554 22.5185 61.8949
21836 2 11.8603 24.1113 60.6017
16197 1 15.4931 24.0978 59.3263
16195 1 16.4116 22.5185 61.8949
21801 2 17.3166 24.1113 60.6017
21835 2 14.5889 22.5054 60.6159
16151 1 20.9493 24.0978 59.3263
16196 1 18.2216 22.4927 59.3403
16148 1 19.1394 24.1252 61.8807
21808 2 20.0451 22.5054 60.6159
16208 1 12.7645 25.7031 59.3112
16185 1 13.6823 27.3392 61.8489
16207 1 10.9546 25.7321 61.8653
21826 2 11.8595 27.3236 60.5702
16190 1 15.4922 27.3085 59.2951
16184 1 16.4109 25.7321 61.8653
21800 2 17.3157 27.3236 60.5702
21838 2 14.588 25.7174 60.5865
16150 1 20.9484 27.3085 59.2951
16199 1 18.2207 25.7031 59.3112
16141 1 19.1386 27.3392 61.8489
21799 2 20.0443 25.7174 60.5865
16209 1 12.7636 28.9142 59.2778
16172 1 13.6816 30.5539 61.8125
16202 1 10.9538 28.9464 61.8313
21825 2 11.8586 30.5367 60.5343
16187 1 16.4101 28.9464 61.8313
21787 2 17.3149 30.5367 60.5343
21824 2 14.5872 28.9301 60.5528
16188 1 18.2199 28.9142 59.2778
16140 1 19.1378 30.5539 61.8125
21802 2 20.0434 28.9301 60.5528
16171 1 13.6808 33.7695 61.7715
16203 1 10.9531 32.1615 61.7926
21818 2 11.8578 33.7508 60.4938
16170 1 16.4093 32.1615 61.7926
21786 2 17.3141 33.7508 60.4938
21827 2 14.5863 32.1436 60.5146
16126 1 19.1371 33.7695 61.7715
21785 2 20.0426 32.1436 60.5146
16161 1 13.6801 36.9863 61.7256
16201 1 10.9524 35.3777 61.7492
21817 2 11.857 36.9662 60.4486
16173 1 16.4086 35.3777 61.7492
21769 2 17.3132 36.9662 60.4486
21816 2 14.5855 35.3583 60.4718
16125 1 19.1364 36.9863 61.7256
21788 2 20.0418 35.3583 60.4718
16182 1 11.8744 20.9359 64.4626
21793 2 13.6984 20.9474 65.7362
21832 2 10.9706 19.3384 65.7486
21833 2 12.7799 19.3163 63.1954
16146 1 17.3306 20.9359 64.4626
16192 1 14.6029 19.3277 64.4749
21792 2 16.4269 19.3384 65.7486
21797 2 15.5077 20.9236 63.1831
16145 1 20.0591 19.3277 64.4749
21741 2 19.1546 20.9474 65.7362
21744 2 20.9639 20.9236 63.1831
21805 2 18.2362 19.3163 63.1954
16181 1 11.8736 24.1525 64.4347
21779 2 13.6975 24.1656 65.7082
21820 2 10.9698 22.5565 65.7228
21834 2 12.7791 22.531 63.1699
16138 1 17.3298 24.1525 64.4347
16180 1 14.6021 22.5442 64.4492
21794 2 16.4261 22.5565 65.7228
21796 2 15.5069 24.1386 63.1555
16147 1 20.0583 22.5442 64.4492
21740 2 19.1538 24.1656 65.7082
21743 2 20.9631 24.1386 63.1555
21795 2 18.2354 22.531 63.1699
16168 1 11.8728 27.3696 64.4024
21778 2 13.6967 27.3843 65.6757
21821 2 10.969 25.7749 65.6925
21822 2 12.7783 25.7463 63.14
16137 1 17.329 27.3696 64.4024
16183 1 14.6013 25.761 64.4191
21777 2 16.4252 25.7749 65.6925
21783 2 15.506 27.3541 63.1235
16136 1 20.0575 25.761 64.4191
21733 2 19.1529 27.3843 65.6757
21742 2 20.9623 27.3541 63.1235
21798 2 18.2346 25.7463 63.14
16167 1 11.872 30.5873 64.3654
21764 2 13.6959 30.6035 65.6386
21812 2 10.9682 28.9939 65.6578
21823 2 12.7775 28.9621 63.1057
16123 1 17.3283 30.5873 64.3654
16166 1 14.6005 28.9784 64.3845
21780 2 16.4244 28.9939 65.6578
21782 2 15.5053 30.5703 63.0868
16139 1 20.0568 28.9784 64.3845
21732 2 19.1521 30.6035 65.6386
21735 2 20.9615 30.5703 63.0868
21781 2 18.2338 28.9621 63.1057
16160 1 11.8713 33.8055 64.3237
21763 2 13.6951 33.8231 65.5967
21813 2 10.9673 32.2132 65.6183
21814 2 12.7767 32.1786 63.0668
16122 1 17.3276 33.8055 64.3237
16169 1 14.5998 32.1963 64.3452
21762 2 16.4236 32.2132 65.6183
21768 2 15.5045 33.7872 63.0455
16121 1 20.056 32.1963 64.3452
21718 2 19.1513 33.8231 65.5967
21734 2 20.9607 33.7872 63.0455
21784 2 18.233 32.1786 63.0668
16159 1 11.8706 37.0245 64.277
21753 2 13.6942 37.0433 65.55
21811 2 10.9665 35.4331 65.574
21815 2 12.776 35.396 63.0231
16106 1 17.3268 37.0245 64.277
16158 1 14.5991 35.4149 64.301
21765 2 16.4228 35.4331 65.574
21767 2 15.5037 37.005 62.9994
16124 1 20.0553 35.4149 64.301
21717 2 19.1505 37.0433 65.55
21719 2 20.9599 37.005 62.9994
21766 2 18.2322 35.396 63.0231
16178 1 12.7936 19.3503 67.0299
21775 2 11.8894 20.9708 68.2873
16134 1 15.5213 20.9601 67.0175
21738 2 17.3456 20.9708 68.2873
21791 2 14.618 19.3602 68.2998
16086 1 20.9775 20.9601 67.0175
16144 1 18.2498 19.3503 67.0299
21737 2 20.0742 19.3602 68.2998
16179 1 12.7927 22.57 67.004
21774 2 11.8885 24.1923 68.2591
16133 1 15.5204 24.18 66.9893
21730 2 17.3447 24.1923 68.2591
21773 2 14.6171 22.5815 68.2737
16085 1 20.9767 24.18 66.9893
16132 1 18.249 22.57 67.004
21739 2 20.0733 22.5815 68.2737
16164 1 12.7919 25.7901 66.9736
21760 2 11.8876 27.4142 68.2263
16119 1 15.5196 27.4002 66.9567
21729 2 17.3438 27.4142 68.2263
21776 2 14.6161 25.8032 68.2432
16084 1 20.9758 27.4002 66.9567
16135 1 18.2481 25.7901 66.9736
21728 2 20.0724 25.8032 68.2432
16165 1 12.791 29.0104 66.9386
21759 2 11.8866 30.6364 68.1888
16118 1 15.5187 30.6207 66.9193
21715 2 17.3429 30.6364 68.1888
21758 2 14.6152 29.0253 68.2082
16077 1 20.975 30.6207 66.9193
16117 1 18.2473 29.0104 66.9386
21731 2 20.0714 29.0253 68.2082
16156 1 12.7902 32.2311 66.8988
21752 2 11.8857 33.8588 68.1466
16105 1 15.5179 33.8415 66.8771
21714 2 17.3419 33.8588 68.1466
21761 2 14.6143 32.2476 68.1683
16076 1 20.9742 33.8415 66.8771
16120 1 18.2464 32.2311 66.8988
21713 2 20.0705 32.2476 68.1683
16157 1 12.7894 35.452 66.8542
21751 2 11.8847 37.0813 68.0996
16104 1 15.5171 37.0624 66.83
21700 2 17.341 37.0813 68.0996
21750 2 14.6133 35.47 68.1237
16065 1 20.9734 37.0624 66.83
16103 1 18.2456 35.452 66.8542
21716 2 20.0696 35.47 68.1237
16111 1 11.8968 21.0078 72.1521
16130 1 13.7115 20.9838 69.5765
16177 1 10.9838 19.3723 69.589
21771 2 12.809 19.3811 70.8462
16080 1 17.3531 21.0078 72.1521
16128 1 14.6255 19.3947 72.1647
16129 1 16.44 19.3723 69.589
21726 2 15.5366 20.9934 70.8337
16079 1 20.0818 19.3947 72.1647
16083 1 19.1677 20.9838 69.5765
21684 2 20.9929 20.9934 70.8337
21736 2 18.2653 19.3811 70.8462
16110 1 11.8957 24.2341 72.1236
16115 1 13.7105 24.2068 69.5481
16162 1 10.9829 22.5953 69.5629
21772 2 12.808 22.6057 70.82
16072 1 17.3519 24.2341 72.1236
16109 1 14.6244 22.6209 72.1384
16131 1 16.4391 22.5953 69.5629
21725 2 15.5356 24.2182 70.8053
16081 1 20.0806 22.6209 72.1384
16082 1 19.1667 24.2068 69.5481
21683 2 20.9919 24.2182 70.8053
21724 2 18.2643 22.6057 70.82
16097 1 11.8945 27.4604 72.0906
16114 1 13.7095 27.4301 69.5152
16163 1 10.9819 25.8185 69.5322
21756 2 12.807 25.8307 70.7894
16071 1 17.3507 27.4604 72.0906
16112 1 14.6232 25.8472 72.1077
16113 1 16.4381 25.8185 69.5322
21711 2 15.5345 27.4433 70.7723
16070 1 20.0794 25.8472 72.1077
16075 1 19.1657 27.4301 69.5152
21682 2 20.9908 27.4433 70.7723
21727 2 18.2632 25.8307 70.7894
16096 1 11.8932 30.6866 72.0528
16101 1 13.7085 30.6535 69.4776
16154 1 10.9809 29.0418 69.497
21757 2 12.8059 29.0559 70.7541
16061 1 17.3495 30.6866 72.0528
16095 1 14.622 29.0735 72.0723
16116 1 16.4371 29.0418 69.497
21710 2 15.5335 30.6686 70.7347
16073 1 20.0782 29.0735 72.0723
16074 1 19.1647 30.6535 69.4776
21676 2 20.9897 30.6686 70.7347
21709 2 18.2621 29.0559 70.7541
16091 1 11.8921 33.9125 72.0103
16100 1 13.7075 33.8769 69.4351
16155 1 10.9799 32.2653 69.457
21748 2 12.8048 32.2813 70.7141
16060 1 17.3483 33.9125 72.0103
16098 1 14.6208 32.2996 72.0322
16099 1 16.4361 32.2653 69.457
21699 2 15.5324 33.8939 70.6924
16059 1 20.077 32.2996 72.0322
16064 1 19.1638 33.8769 69.4351
21675 2 20.9886 33.8939 70.6924
21712 2 18.261 32.2813 70.7141
16090 1 11.8909 37.1378 71.9631
16092 1 13.7065 37.1001 69.3879
16153 1 10.9789 35.4886 69.4121
21749 2 12.8037 35.5065 70.6694
16054 1 17.3472 37.1378 71.9631
16089 1 14.6196 35.5252 71.9873
16102 1 16.4352 35.4886 69.4121
21698 2 15.5313 37.119 70.6453
16062 1 20.0759 35.5252 71.9873
16063 1 19.1628 37.1001 69.3879
21668 2 20.9875 37.119 70.6453
21697 2 18.2599 35.5065 70.6694
16107 1 12.7519 19.4248 74.8159
21703 2 11.8878 21.0418 75.8398
21722 2 13.7259 21.0153 73.3655
21770 2 10.9984 19.4013 73.3781
16068 1 15.4793 21.0394 74.8033
21678 2 17.344 21.0418 75.8398
21720 2 14.6166 19.4264 75.8524
21721 2 16.4546 19.4013 73.3781
16050 1 20.9356 21.0394 74.8033
16078 1 18.2082 19.4248 74.8159
21677 2 20.0728 19.4264 75.8524
21681 2 19.1822 21.0153 73.3655
16108 1 12.7505 22.654 74.7896
21702 2 11.8863 24.2727 75.8113
21707 2 13.7247 24.2434 73.337
21754 2 10.9972 22.6293 73.3518
16067 1 15.4778 24.2684 74.7748
21671 2 17.3425 24.2727 75.8113
21701 2 14.6152 22.6573 75.8261
21723 2 16.4535 22.6293 73.3518
16049 1 20.9341 24.2684 74.7748
16066 1 18.2067 22.654 74.7896
21679 2 20.0714 22.6573 75.8261
21680 2 19.181 24.2434 73.337
16093 1 12.749 25.8827 74.7589
21691 2 11.8848 27.5035 75.7784
21706 2 13.7235 27.4718 73.304
21755 2 10.996 25.8575 73.3211
16057 1 15.4763 27.4968 74.7418
21670 2 17.341 27.5035 75.7784
21704 2 14.6137 25.8881 75.7954
21705 2 16.4522 25.8575 73.3211
16048 1 20.9326 27.4968 74.7418
16069 1 18.2052 25.8827 74.7589
21669 2 20.0699 25.8881 75.7954
21674 2 19.1797 27.4718 73.304
16094 1 12.7475 29.1108 74.7236
21690 2 11.8833 30.734 75.7409
21695 2 13.7222 30.7003 73.2663
21746 2 10.9947 29.086 73.2857
16056 1 15.475 30.7245 74.7042
21664 2 17.3395 30.734 75.7409
21689 2 14.6121 29.1188 75.7602
21708 2 16.451 29.086 73.2857
16047 1 20.9312 30.7245 74.7042
16055 1 18.2038 29.1108 74.7236
21672 2 20.0684 29.1188 75.7602
21673 2 19.1784 30.7003 73.2663
16087 1 12.7463 32.338 74.6836
21687 2 11.8819 33.9639 75.6989
21694 2 13.7209 33.9287 73.224
21747 2 10.9934 32.3145 73.2458
16053 1 15.4739 33.9512 74.6619
21663 2 17.3382 33.9639 75.6989
21692 2 14.6107 32.349 75.7204
21693 2 16.4497 32.3145 73.2458
16046 1 20.9301 33.9512 74.6619
16058 1 18.2025 32.338 74.6836
21662 2 20.0669 32.349 75.7204
21667 2 19.1772 33.9287 73.224
16088 1 12.7454 35.5641 74.639
21686 2 11.8807 37.1928 75.6524
21688 2 13.7196 37.1565 73.1771
21745 2 10.9922 35.5427 73.2011
16052 1 15.4732 37.1767 74.615
21661 2 17.3369 37.1928 75.6524
21685 2 14.6094 35.5785 75.6761
21696 2 16.4484 35.5427 73.2011
16045 1 20.9294 37.1767 74.615
16051 1 18.2016 35.5641 74.639
21665 2 20.0656 35.5785 75.6761
21666 2 19.1759 37.1565 73.1771
10401 2 11.8266 39.1843 -1.17868
10409 2 13.643 39.1521 -3.68226
4032 1 12.7331 40.7474 -2.64538
10414 2 10.9167 40.7248 -3.70564
4018 1 15.458 39.1739 -2.62156
10371 2 17.2828 39.1843 -1.17868
10399 2 14.5558 40.7571 -1.20255
10410 2 16.3729 40.7248 -3.70564
3972 1 20.9142 39.1739 -2.62156
10374 2 19.0992 39.1521 -3.68226
4016 1 18.1893 40.7474 -2.64538
10372 2 20.012 40.7571 -1.20255
10400 2 11.8288 42.3307 -1.22678
10405 2 13.6466 42.2985 -3.72935
4028 1 12.7397 43.8968 -2.694
10415 2 10.9204 43.8731 -3.75329
4017 1 15.4645 42.3216 -2.66957
10365 2 17.285 42.3307 -1.22678
10402 2 14.558 43.905 -1.25126
10403 2 16.3766 43.8731 -3.75329
3971 1 20.9207 42.3216 -2.66957
10373 2 19.1029 42.2985 -3.72935
4019 1 18.196 43.8968 -2.694
10363 2 20.0142 43.905 -1.25126
10390 2 11.831 45.4802 -1.27587
10404 2 13.6504 45.4487 -3.77732
4029 1 12.7467 47.0498 -2.7431
10412 2 10.9242 47.0254 -3.80133
4010 1 15.4713 45.4728 -2.71856
10364 2 17.2872 45.4802 -1.27587
10388 2 14.5602 47.0563 -1.30046
10406 2 16.3804 47.0254 -3.80133
3970 1 20.9276 45.4728 -2.71856
10368 2 19.1066 45.4487 -3.77732
4008 1 18.2029 47.0498 -2.7431
10366 2 20.0164 47.0563 -1.30046
10389 2 11.8331 48.6332 -1.32491
10394 2 13.6542 48.6031 -3.82517
4024 1 12.7538 50.2066 -2.79162
10413 2 10.928 50.182 -3.84872
4009 1 15.4784 48.6277 -2.76751
10351 2 17.2894 48.6332 -1.32491
10391 2 14.5623 50.2111 -1.34907
10392 2 16.3843 50.182 -3.84872
3963 1 20.9346 48.6277 -2.76751
10367 2 19.1105 48.6031 -3.82517
4011 1 18.21 50.2066 -2.79162
10349 2 20.0186 50.2111 -1.34907
10382 2 11.8353 51.79 -1.37279
10393 2 13.6581 51.762 -3.87182
4025 1 12.7608 53.3672 -2.83834
10411 2 10.9318 53.3432 -3.89433
3996 1 15.4854 51.7864 -2.81528
10350 2 17.2915 51.79 -1.37279
10380 2 14.5645 53.3699 -1.39591
10395 2 16.3881 53.3432 -3.89433
3962 1 20.9417 51.7864 -2.81528
10354 2 19.1143 51.762 -3.87182
3994 1 18.217 53.3672 -2.83834
10352 2 20.0207 53.3699 -1.39591
10381 2 11.8375 54.9508 -1.41827
10383 2 13.6619 54.9255 -3.91609
4415 1 12.7675 56.5315 -2.88205
10824 2 10.9356 56.5088 -3.93697
3995 1 15.4923 54.9489 -2.86065
10333 2 17.2937 54.9508 -1.41827
10815 2 14.5666 56.5326 -1.43974
10816 2 16.3918 56.5088 -3.93697
3947 1 20.9485 54.9489 -2.86065
10353 2 19.1181 54.9255 -3.91609
4404 1 18.2237 56.5315 -2.88205
10778 2 20.0229 56.5326 -1.43974
4014 1 13.6445 39.2036 0.0430212
4026 1 10.9178 40.7769 0.0189779
10398 2 12.7371 40.792 1.34987
10361 2 15.4639 39.2189 1.37405
4015 1 16.3741 40.7769 0.0189779
3969 1 19.1007 39.2036 0.0430212
10308 2 20.9201 39.2189 1.37405
10359 2 18.1933 40.792 1.34987
4006 1 13.6474 42.3507 -0.00543419
4027 1 10.9208 43.9253 -0.0301001
10386 2 12.7397 43.94 1.30048
10360 2 15.4665 42.3657 1.32531
4003 1 14.5587 43.9582 2.56498
4004 1 16.377 43.9253 -0.0301001
3968 1 19.1037 42.3507 -0.00543419
10307 2 20.9227 42.3657 1.32531
3956 1 20.0149 43.9582 2.56498
10362 2 18.1959 43.94 1.30048
3988 1 11.832 45.5331 2.53975
4005 1 13.6504 45.5007 -0.054895
4022 1 10.9237 47.0768 -0.0796853
10387 2 12.7423 47.0907 1.25052
3957 1 17.2883 45.5331 2.53975
10347 2 15.4691 45.515 1.27551
3986 1 14.5616 47.1087 2.51449
4007 1 16.38 47.0768 -0.0796853
3961 1 19.1066 45.5007 -0.054895
10306 2 20.9253 45.515 1.27551
3959 1 20.0179 47.1087 2.51449
10345 2 18.1985 47.0907 1.25052
3987 1 11.835 48.6849 2.48936
3992 1 13.6533 48.6537 -0.104329
4023 1 10.9267 50.2314 -0.128679
10378 2 12.7448 50.2442 1.2011
3943 1 17.2912 48.6849 2.48936
10346 2 15.4717 48.6671 1.22567
3989 1 14.5645 50.2617 2.46451
3990 1 16.3829 50.2314 -0.128679
3960 1 19.1096 48.6537 -0.104329
10299 2 20.9279 48.6671 1.22567
3941 1 20.0208 50.2617 2.46451
10348 2 18.2011 50.2442 1.2011
3980 1 11.8378 51.8393 2.4401
3991 1 13.6562 51.81 -0.15258
4021 1 10.9295 53.3894 -0.175878
10379 2 12.7473 53.401 1.15342
3942 1 17.2941 51.8393 2.4401
10332 2 15.4742 51.8222 1.17697
3978 1 14.5673 53.4175 2.41627
3993 1 16.3858 53.3894 -0.175878
3946 1 19.1125 51.81 -0.15258
10298 2 20.9305 51.8222 1.17697
3944 1 20.0236 53.4175 2.41627
10330 2 18.2036 53.401 1.15342
3979 1 11.8406 54.9965 2.39321
3981 1 13.6591 54.9696 -0.198414
4414 1 10.9323 56.5508 -0.220032
10805 2 12.7498 56.5609 1.10876
3925 1 17.2968 54.9965 2.39321
10331 2 15.4767 54.9805 1.13064
4396 1 14.5701 56.5761 2.37108
4397 1 16.3886 56.5508 -0.220032
3945 1 19.1153 54.9696 -0.198414
10283 2 20.9329 54.9805 1.13064
4349 1 20.0263 56.5761 2.37108
10777 2 18.206 56.5609 1.10876
4002 1 11.8261 39.2367 2.63925
10357 2 13.6448 39.2523 3.94033
3999 1 12.7369 40.8424 5.19546
10384 2 10.9181 40.8255 3.9159
3966 1 17.2824 39.2367 2.63925
4000 1 14.5557 40.81 2.61485
3954 1 15.4633 39.269 5.22016
10358 2 16.3744 40.8255 3.9159
3967 1 20.0119 40.81 2.61485
3900 1 20.9196 39.269 5.22016
10305 2 19.101 39.2523 3.94033
3952 1 18.1931 40.8424 5.19546
4001 1 11.8291 42.3838 2.59006
10343 2 13.6478 42.3992 3.89106
3984 1 12.7402 43.9901 5.14487
10385 2 10.9212 43.9734 3.86592
3958 1 17.2853 42.3838 2.59006
3953 1 15.4666 42.4161 5.17033
10341 2 16.3774 43.9734 3.86592
3899 1 20.9229 42.4161 5.17033
10304 2 19.104 42.3992 3.89106
3955 1 18.1964 43.9901 5.14487
10342 2 13.6508 45.548 3.84061
3985 1 12.7434 47.1396 5.09349
10376 2 10.9242 47.1232 3.81526
3939 1 15.4699 45.5646 5.11921
10344 2 16.3805 47.1232 3.81526
3898 1 20.9262 45.5646 5.11921
10297 2 19.1071 45.548 3.84061
3937 1 18.1997 47.1396 5.09349
10328 2 13.6538 48.6989 3.79002
3976 1 12.7466 50.2909 5.04248
10377 2 10.9272 50.2753 3.76504
3938 1 15.4732 48.715 5.06786
10326 2 16.3834 50.2753 3.76504
3891 1 20.9294 48.715 5.06786
10296 2 19.1101 48.6989 3.79002
3940 1 18.2029 50.2909 5.04248
10327 2 13.6568 51.8523 3.74048
3977 1 12.7498 53.4444 4.99352
10375 2 10.9301 53.4299 3.7165
3924 1 15.4763 51.8675 5.0175
10329 2 16.3863 53.4299 3.7165
3890 1 20.9326 51.8675 5.0175
10282 2 19.113 51.8523 3.74048
3922 1 18.206 53.4444 4.99352
10317 2 13.6596 55.0082 3.69327
4382 1 12.7527 56.6003 4.94722
10804 2 10.9329 56.5872 3.67095
3923 1 15.4794 55.022 4.9699
10764 2 16.3891 56.5872 3.67095
3876 1 20.9356 55.022 4.9699
10281 2 19.1159 55.0082 3.69327
4348 1 18.209 56.6003 4.94722
3950 1 13.644 39.3004 7.79669
10339 2 11.8255 39.2845 6.51159
3982 1 10.9177 40.8737 7.77177
10336 2 12.736 40.8892 9.06027
10290 2 15.4622 39.3159 9.0851
10302 2 17.2818 39.2845 6.51159
3951 1 16.3739 40.8737 7.77177
10337 2 14.5553 40.8578 6.48692
3897 1 19.1002 39.3004 7.79669
10248 2 20.9185 39.3159 9.0851
10288 2 18.1922 40.8892 9.06027
10303 2 20.0116 40.8578 6.48692
3935 1 13.6476 42.4472 7.74636
10338 2 11.8289 42.4314 6.4618
3983 1 10.9213 44.0209 7.72057
10320 2 12.7397 44.0361 9.00917
10289 2 15.466 42.4626 9.03492
10294 2 17.2852 42.4314 6.4618
3933 1 16.3776 44.0209 7.72057
10340 2 14.5588 44.0052 6.43634
3896 1 19.1039 42.4472 7.74636
10247 2 20.9222 42.4626 9.03492
10291 2 18.196 44.0361 9.00917
10292 2 20.015 44.0052 6.43634
3934 1 13.6513 45.5949 7.69453
10324 2 11.8324 45.5794 6.41066
3974 1 10.925 47.1692 7.66837
10321 2 12.7435 47.1838 8.95697
10275 2 15.4698 45.6098 8.98314
10293 2 17.2886 45.5794 6.41066
3936 1 16.3812 47.1692 7.66837
10322 2 14.5622 47.154 6.3849
3889 1 19.1075 45.5949 7.69453
10246 2 20.926 45.6098 8.98314
10273 2 18.1998 47.1838 8.95697
10295 2 20.0184 47.154 6.3849
3920 1 13.6549 48.7438 7.64225
10323 2 11.8358 48.729 6.35921
3975 1 10.9286 50.3188 7.61635
10312 2 12.7473 50.3325 8.90481
10274 2 15.4736 48.758 8.9308
10279 2 17.292 48.729 6.35921
3918 1 16.3848 50.3188 7.61635
10325 2 14.5655 50.3045 6.33374
3888 1 19.1111 48.7438 7.64225
10240 2 20.9298 48.758 8.9308
10276 2 18.2036 50.3325 8.90481
10277 2 20.0218 50.3045 6.33374
3919 1 13.6584 51.8942 7.59086
10316 2 11.8391 51.8805 6.30869
3973 1 10.932 53.4702 7.56592
10313 2 12.751 53.4828 8.85401
10263 2 15.4773 51.9074 8.87916
10278 2 17.2953 51.8805 6.30869
3921 1 16.3882 53.4702 7.56592
10314 2 14.5688 53.457 6.28419
3875 1 19.1147 51.8942 7.59086
10239 2 20.9335 51.9074 8.87916
10261 2 18.2072 53.4828 8.85401
10280 2 20.025 53.457 6.28419
3909 1 13.6618 55.0466 7.54168
10315 2 11.8423 55.034 6.26041
4381 1 10.9353 56.6236 7.51832
10743 2 12.7545 56.6348 8.80602
10262 2 15.4809 55.0585 8.82957
10264 2 17.2985 55.034 6.26041
4333 1 16.3915 56.6236 7.51832
10763 2 14.5719 56.6116 6.23753
3874 1 19.118 55.0466 7.54168
10232 2 20.9371 55.0585 8.82957
10708 2 18.2107 56.6348 8.80602
10709 2 20.0282 56.6116 6.23753
3931 1 11.8243 39.3314 10.3723
10286 2 13.6423 39.3471 11.6599
10318 2 10.9161 40.9204 11.6349
3894 1 17.2805 39.3314 10.3723
3929 1 14.5543 40.9046 10.3472
10287 2 16.3724 40.9204 11.6349
10245 2 19.0985 39.3471 11.6599
3895 1 20.0106 40.9046 10.3472
3930 1 11.8282 42.4779 10.3216
10271 2 13.6463 42.4936 11.6094
10319 2 10.9202 44.0668 11.5835
3886 1 17.2844 42.4779 10.3216
3932 1 14.5583 44.0512 10.2956
10269 2 16.3765 44.0668 11.5835
10244 2 19.1025 42.4936 11.6094
3884 1 20.0146 44.0512 10.2956
3916 1 11.8322 45.6247 10.2692
10270 2 13.6505 45.64 11.5571
10310 2 10.9245 47.2133 11.5305
3885 1 17.2885 45.6247 10.2692
3914 1 14.5624 47.1982 10.2426
10272 2 16.3807 47.2133 11.5305
10238 2 19.1067 45.64 11.5571
3887 1 20.0186 47.1982 10.2426
3915 1 11.8363 48.772 10.216
10259 2 13.6547 48.7867 11.5039
10311 2 10.9287 50.3602 11.4773
3872 1 17.2925 48.772 10.216
3917 1 14.5664 50.3461 10.1895
10257 2 16.3849 50.3602 11.4773
10237 2 19.1109 48.7867 11.5039
3870 1 20.0226 50.3461 10.1895
3908 1 11.8402 51.9205 10.1633
10258 2 13.6589 51.934 11.451
10309 2 10.9328 53.5081 11.4251
3871 1 17.2964 51.9205 10.1633
3906 1 14.5702 53.4952 10.1376
10260 2 16.3891 53.5081 11.4251
10231 2 19.1151 51.934 11.451
3873 1 20.0265 53.4952 10.1376
3907 1 11.844 55.0703 10.1126
10252 2 13.663 55.0826 11.3999
10742 2 10.9368 56.6574 11.3755
3861 1 17.3002 55.0703 10.1126
4332 1 14.574 56.6459 10.0885
10693 2 16.3931 56.6574 11.3755
10230 2 19.1192 55.0826 11.3999
4277 1 20.0302 56.6459 10.0885
3878 1 13.6396 39.3949 15.5244
10267 2 11.8219 39.379 14.2355
10284 2 14.548 37.8054 14.2597
3928 1 12.7343 40.9359 12.923
3877 1 16.3658 37.8213 15.5486
3882 1 15.4603 39.3627 12.9481
10242 2 17.2781 39.379 14.2355
854 1 21.822 37.8213 15.5486
3849 1 19.0959 39.3949 15.5244
3852 1 20.9166 39.3627 12.9481
10241 2 20.0043 37.8054 14.2597
3880 1 18.1905 40.9359 12.923
3864 1 13.644 42.5411 15.4737
3910 1 10.9136 40.9682 15.4994
10266 2 11.8261 42.5253 14.1851
3912 1 12.7386 44.0819 12.871
3879 1 16.3699 40.9682 15.4994
3881 1 15.4645 42.509 12.8973
10235 2 17.2823 42.5253 14.1851
10265 2 14.5521 40.9523 14.2106
10268 2 14.5564 44.0982 14.1589
3848 1 19.1002 42.5411 15.4737
3851 1 20.9207 42.509 12.8973
10243 2 20.0083 40.9523 14.2106
3883 1 18.1948 44.0819 12.871
10233 2 20.0127 44.0982 14.1589
3863 1 13.6487 45.6862 15.4205
3911 1 10.9182 44.1138 15.4474
10255 2 11.8306 45.6709 14.1323
3913 1 12.743 47.2277 12.8174
3862 1 16.3744 44.1138 15.4474
3868 1 15.4689 45.6548 12.8443
10234 2 17.2869 45.6709 14.1323
10253 2 14.5611 47.2435 14.1054
3845 1 19.1049 45.6862 15.4205
3850 1 20.9251 45.6548 12.8443
10236 2 20.0173 47.2435 14.1054
3866 1 18.1992 47.2277 12.8174
3904 1 12.7475 50.3736 12.7631
3856 1 13.6537 48.8304 15.3655
3902 1 10.923 47.2584 15.3932
10254 2 11.8353 48.8161 14.0782
3903 1 10.928 50.4024 15.3377
3865 1 16.3793 47.2584 15.3932
3867 1 15.4734 48.8006 12.7902
10228 2 17.2915 48.8161 14.0782
10256 2 14.5658 50.3886 14.051
3854 1 16.3843 50.4024 15.3377
3869 1 18.2037 50.3736 12.7631
3844 1 19.1099 48.8304 15.3655
3847 1 20.9296 48.8006 12.7902
10226 2 20.022 50.3886 14.051
3905 1 12.7519 53.5203 12.7097
10251 2 11.84 51.9613 14.0239
3855 1 13.6587 51.9744 15.31
3901 1 10.9331 53.5465 15.2826
10227 2 17.2963 51.9613 14.0239
3860 1 15.4778 51.9468 12.7362
10249 2 14.5705 53.5341 13.9972
3857 1 16.3893 53.5465 15.2826
10229 2 20.0267 53.5341 13.9972
3846 1 20.9341 51.9468 12.7362
3842 1 19.1149 51.9744 15.31
3858 1 18.2081 53.5203 12.7097
10250 2 11.8447 55.1071 13.9711
3853 1 13.6637 55.1188 15.2557
4311 1 12.7561 56.6682 12.6587
4310 1 10.938 56.6914 15.2295
10225 2 17.3009 55.1071 13.9711
3859 1 15.4822 55.0941 12.6838
4261 1 16.3942 56.6914 15.2295
10692 2 14.5751 56.6805 13.9458
4276 1 18.2124 56.6682 12.6587
3843 1 20.9384 55.0941 12.6838
3841 1 19.1199 55.1188 15.2557
10649 2 20.0313 56.6805 13.9458
10607 2 12.7271 37.838 16.8359
4222 1 11.8184 39.4287 18.1013
4224 1 14.5446 37.8546 18.1252
10594 2 15.4572 39.4119 16.8119
4199 1 17.2747 39.4287 18.1013
10596 2 18.1833 37.838 16.8359
4198 1 20.0008 37.8546 18.1252
10548 2 20.9134 39.4119 16.8119
10608 2 12.7312 40.9854 16.7872
4221 1 11.8228 42.5752 18.0511
4220 1 14.5487 41.0022 18.0766
10593 2 15.4615 42.5585 16.7617
4195 1 17.2791 42.5752 18.0511
10592 2 18.1874 40.9854 16.7872
4200 1 20.0049 41.0022 18.0766
10547 2 20.9178 42.5585 16.7617
10604 2 12.7358 44.1312 16.7355
4215 1 11.8278 45.7198 17.9978
10586 2 15.4663 45.7035 16.7088
4194 1 17.284 45.7198 17.9978
4223 1 14.5534 44.1477 18.0248
10595 2 18.192 44.1312 16.7355
4193 1 20.0096 44.1477 18.0248
10546 2 20.9226 45.7035 16.7088
10605 2 12.7408 47.2755 16.6815
4214 1 11.8332 48.8626 17.9421
10568 2 13.6506 48.8813 19.2309
10585 2 15.4715 48.8472 16.6538
4183 1 17.2894 48.8626 17.9421
4213 1 14.5586 47.2914 17.9702
4196 1 20.0148 47.2914 17.9702
10536 2 19.1069 48.8813 19.2309
10539 2 20.9277 48.8472 16.6538
10584 2 18.197 47.2755 16.6815
10600 2 12.746 50.4188 16.626
10599 2 10.9255 50.4519 19.2024
4208 1 11.8389 52.0043 17.8852
10567 2 13.6566 52.0222 19.1738
4182 1 17.2951 52.0043 17.8852
4216 1 14.5641 50.4335 17.9137
10566 2 16.3817 50.4519 19.2024
10572 2 15.4768 51.9902 16.5981
10587 2 18.2023 50.4188 16.626
4181 1 20.0204 50.4335 17.9137
10522 2 19.1128 52.0222 19.1738
10538 2 20.9331 51.9902 16.5981
10601 2 12.7514 53.5617 16.5705
10597 2 10.9316 53.5922 19.1451
4207 1 11.8446 55.1457 17.8286
10557 2 13.6628 55.1622 19.1167
4165 1 17.3009 55.1457 17.8286
4206 1 14.5699 53.5749 17.8567
10569 2 16.3878 53.5922 19.1451
10571 2 15.4822 55.1333 16.5433
4184 1 20.0261 53.5749 17.8567
10521 2 19.1191 55.1622 19.1167
10523 2 20.9384 55.1333 16.5433
10570 2 18.2076 53.5617 16.5705
10590 2 13.6358 39.4467 19.3889
4218 1 12.723 37.8897 20.7021
10578 2 11.8139 39.4836 21.9661
10588 2 14.5403 37.9083 21.9891
10589 2 16.362 37.8722 19.4124
4191 1 15.4529 39.4645 20.6787
10542 2 17.2702 39.4836 21.9661
4197 1 18.1792 37.8897 20.7021
10545 2 19.092 39.4467 19.3889
4140 1 20.9092 39.4645 20.6787
10541 2 19.9966 37.9083 21.9891
7342 2 21.8182 37.8722 19.4124
10582 2 13.6401 42.5938 19.3392
4219 1 12.7269 41.0385 20.6544
10577 2 11.818 42.6321 21.9173
10576 2 14.544 41.0582 21.9421
10591 2 16.366 41.0206 19.3644
4190 1 15.4572 42.6119 20.6292
10534 2 17.2742 42.6321 21.9173
4189 1 18.1831 41.0385 20.6544
10544 2 19.0963 42.5938 19.3392
4139 1 20.9135 42.6119 20.6292
10543 2 20.0002 41.0582 21.9421
7338 2 21.8222 41.0206 19.3644
10603 2 10.9144 44.1665 19.3131
10581 2 13.6451 45.7387 19.2863
4211 1 12.7315 44.1845 20.6032
10564 2 11.8229 45.7773 21.8649
10579 2 14.5485 44.2051 21.8915
10580 2 16.3706 44.1665 19.3131
4179 1 15.4623 45.7565 20.5763
10533 2 17.2792 45.7773 21.8649
10537 2 19.1013 45.7387 19.2863
4138 1 20.9185 45.7565 20.5763
4192 1 18.1878 44.1845 20.6032
10532 2 20.0047 44.2051 21.8915
10598 2 10.9197 47.3102 19.2589
4212 1 12.737 47.3277 20.5486
10563 2 11.8288 48.9193 21.8093
10583 2 16.3759 47.3102 19.2589
4178 1 15.468 48.8983 20.5202
10519 2 17.285 48.9193 21.8093
10562 2 14.5539 47.3487 21.8375
4131 1 20.9243 48.8983 20.5202
4177 1 18.1932 47.3277 20.5486
10535 2 20.0101 47.3487 21.8375
4204 1 12.743 50.4682 20.4913
10556 2 11.8354 52.0584 21.751
4164 1 15.4744 52.0378 20.4619
10518 2 17.2916 52.0584 21.751
10565 2 14.5601 50.4892 21.7804
4130 1 20.9306 52.0378 20.4619
4180 1 18.1993 50.4682 20.4913
10517 2 20.0163 50.4892 21.7804
4205 1 12.7496 53.607 20.4324
10555 2 11.8426 55.1954 21.6915
4163 1 15.4811 55.176 20.4029
10501 2 17.2988 55.1954 21.6915
10554 2 14.567 53.6271 21.7213
4115 1 20.9373 55.176 20.4029
4162 1 18.2058 53.607 20.4324
10520 2 20.0233 53.6271 21.7213
4171 1 11.8085 39.5436 25.8331
4187 1 13.6308 39.5027 23.2561
10574 2 12.7184 37.9465 24.5655
4185 1 14.5353 37.9663 25.8552
4134 1 17.2647 39.5436 25.8331
4186 1 16.3573 37.9269 23.2789
10530 2 15.448 39.5231 24.5431
10540 2 18.1747 37.9465 24.5655
4133 1 19.9915 37.9663 25.8552
4137 1 19.0871 39.5027 23.2561
10476 2 20.9042 39.5231 24.5431
1145 1 21.8136 37.9269 23.2789
4170 1 11.8117 42.6953 25.7864
4175 1 13.6347 42.6518 23.2078
10575 2 12.7215 41.0988 24.5198
4169 1 14.5381 41.1199 25.8102
4126 1 17.2679 42.6953 25.7864
4188 1 16.3608 41.0777 23.2324
10529 2 15.4516 42.6736 24.4956
10528 2 18.1778 41.0988 24.5198
4135 1 19.9943 41.1199 25.8102
4136 1 19.091 42.6518 23.2078
10475 2 20.9078 42.6736 24.4956
1137 1 21.817 41.0777 23.2324
4156 1 11.8161 45.8428 25.7357
4174 1 13.6396 45.7972 23.1557
10560 2 12.7256 44.2475 24.4704
4172 1 14.5418 44.2696 25.7616
4125 1 17.2723 45.8428 25.7357
4173 1 16.3651 44.225 23.1822
10515 2 15.4562 45.8203 24.4443
10531 2 18.1818 44.2475 24.4704
4124 1 19.9981 44.2696 25.7616
4129 1 19.0958 45.7972 23.1557
10474 2 20.9124 45.8203 24.4443
1138 1 21.8214 44.225 23.1822
4155 1 11.8219 48.9852 25.6808
4160 1 13.6456 48.9387 23.0999
4202 1 10.9143 47.3685 23.1283
10561 2 12.7308 47.3921 24.4172
4154 1 14.5469 47.4147 25.7088
4111 1 17.2781 48.9852 25.6808
4176 1 16.3706 47.3685 23.1283
10514 2 15.462 48.9627 24.3891
10513 2 18.187 47.3921 24.4172
4127 1 20.0031 47.4147 25.7088
4128 1 19.1018 48.9387 23.0999
10467 2 20.9182 48.9627 24.3891
4148 1 11.8291 52.1223 25.6214
4159 1 13.6525 52.0765 23.0406
4203 1 10.9208 50.508 23.0706
10552 2 12.7373 50.5322 24.36
4110 1 17.2854 52.1223 25.6214
4157 1 14.5534 50.5544 25.6517
4158 1 16.377 50.508 23.0706
10500 2 15.4691 52.1006 24.3301
4109 1 20.0097 50.5544 25.6517
4114 1 19.1088 52.0765 23.0406
10466 2 20.9253 52.1006 24.3301
10516 2 18.1935 50.5322 24.36
4147 1 11.8378 55.2543 25.5579
4149 1 13.6602 55.2114 22.9791
4201 1 10.9282 53.6442 23.01
10553 2 12.7449 53.6681 24.2995
4094 1 17.294 55.2543 25.5579
4146 1 14.5614 53.6888 25.5901
4161 1 16.3844 53.6442 23.01
10499 2 15.4772 55.2348 24.2684
4112 1 20.0177 53.6888 25.5901
4113 1 19.1164 55.2114 22.9791
10452 2 20.9335 55.2348 24.2684
10498 2 18.2012 53.6681 24.2995
4167 1 12.7134 38.008 28.4304
10526 2 13.6258 39.5652 27.1195
4122 1 15.4424 39.5871 28.4092
10525 2 16.3528 37.987 27.1411
4132 1 18.1697 38.008 28.4304
4074 1 20.8986 39.5871 28.4092
10473 2 19.082 39.5652 27.1195
7309 2 21.8091 37.987 27.1411
4168 1 12.7153 41.1654 28.3872
10511 2 13.6285 42.7189 27.0736
4121 1 15.4447 42.7426 28.3643
10527 2 16.3551 41.1425 27.097
4120 1 18.1715 41.1654 28.3872
4073 1 20.9009 42.7426 28.3643
10472 2 19.0848 42.7189 27.0736
7294 2 21.8114 41.1425 27.097
4152 1 12.7181 44.3187 28.3404
10510 2 13.6324 45.8682 27.0238
4107 1 15.4481 45.8936 28.3156
10509 2 16.3584 44.2941 27.0492
4123 1 18.1743 44.3187 28.3404
4072 1 20.9043 45.8936 28.3156
10465 2 19.0887 45.8682 27.0238
7295 2 21.8147 44.2941 27.0492
4153 1 12.7223 47.467 28.2896
10496 2 13.6378 49.0124 26.9697
4106 1 15.4532 49.0388 28.2625
10512 2 16.363 47.441 26.9973
4105 1 18.1785 47.467 28.2896
4065 1 20.9094 49.0388 28.2625
10464 2 19.094 49.0124 26.9697
7286 2 21.8193 47.441 26.9973
4144 1 12.7283 50.6089 28.234
10495 2 13.645 52.1506 26.911
10551 2 10.913 50.5822 26.941
4093 1 15.4602 52.177 28.2041
10494 2 16.3693 50.5822 26.941
4108 1 18.1845 50.6089 28.234
4064 1 20.9165 52.177 28.2041
10451 2 19.1012 52.1506 26.911
4145 1 12.7365 53.7432 28.1728
10485 2 13.6539 55.2827 26.8476
10549 2 10.9211 53.7174 26.8798
4092 1 15.4695 55.3075 28.1399
10497 2 16.3773 53.7174 26.8798
4053 1 20.9258 55.3075 28.1399
4091 1 18.1927 53.7432 28.1728
10450 2 19.1102 55.2827 26.8476
4118 1 13.6204 39.6332 30.9837
10503 2 12.7104 38.0742 32.288
10507 2 11.8037 39.6099 29.6946
10524 2 14.5313 38.0297 29.7155
4117 1 16.3483 38.0518 31.0041
10458 2 15.4385 39.6569 32.2679
10470 2 17.26 39.6099 29.6946
10468 2 18.1666 38.0742 32.288
4071 1 19.0767 39.6332 30.9837
10428 2 20.8948 39.6569 32.2679
10469 2 19.9875 38.0297 29.7155
1094 1 21.8045 38.0518 31.0041
4103 1 13.6216 42.7935 30.9406
10504 2 12.7106 41.2389 32.247
10506 2 11.8055 42.7678 29.6505
10505 2 14.5326 41.1893 29.673
4119 1 16.349 41.2138 30.9626
10457 2 15.4391 42.8201 32.2254
10462 2 17.2617 42.7678 29.6505
10456 2 18.1669 41.2389 32.247
4070 1 19.0778 42.7935 30.9406
10427 2 20.8953 42.8201 32.2254
10471 2 19.9888 41.1893 29.673
1078 1 21.8053 41.2138 30.9626
4102 1 13.6237 45.9496 30.8942
10488 2 12.7115 44.4003 32.2029
10492 2 11.8083 45.9213 29.6026
10508 2 14.5348 44.3452 29.627
4101 1 16.3506 44.3722 30.9179
10444 2 15.4405 45.9793 32.1796
10461 2 17.2645 45.9213 29.6026
10459 2 18.1678 44.4003 32.2029
4063 1 19.0799 45.9496 30.8942
10426 2 20.8967 45.9793 32.1796
10460 2 19.9911 44.3452 29.627
1079 1 21.8068 44.3722 30.9179
4089 1 13.6274 49.0999 30.8436
10489 2 12.7135 47.5571 32.1553
10491 2 11.8126 49.0692 29.5504
10490 2 14.5383 47.496 29.5771
4104 1 16.3534 47.5256 30.8695
10443 2 15.4432 49.1332 32.1298
10448 2 17.2689 49.0692 29.5504
10442 2 18.1698 47.5571 32.1553
4062 1 19.0836 49.0999 30.8436
10423 2 20.8995 49.1332 32.1298
10463 2 19.9946 47.496 29.5771
1070 1 21.8096 47.5256 30.8695
4088 1 13.6333 52.2424 30.7878
10480 2 12.7172 50.7075 32.103
10484 2 11.8191 52.2099 29.493
10493 2 14.5437 50.6405 29.5225
4087 1 16.3581 50.6723 30.8165
10436 2 15.4481 52.2796 32.0748
10447 2 17.2753 52.2099 29.493
10445 2 18.1735 50.7075 32.103
4052 1 19.0896 52.2424 30.7878
10422 2 20.9043 52.2796 32.0748
10446 2 19.9999 50.6405 29.5225
1071 1 21.8144 50.6723 30.8165
4080 1 13.6424 55.3747 30.7252
10481 2 12.7235 53.8491 32.0447
10483 2 11.8282 55.3421 29.4293
4090 1 16.3655 53.81 30.7575
10435 2 15.4561 55.4156 32.0126
10437 2 17.2844 55.3421 29.4293
10482 2 14.5514 53.7771 29.462
10434 2 18.1797 53.8491 32.0447
4051 1 19.0986 55.3747 30.7252
10419 2 20.9123 55.4156 32.0126
10449 2 20.0077 53.7771 29.462
1069 1 21.8218 53.81 30.7575
4099 1 11.7993 39.6813 33.5559
10454 2 13.6181 39.7058 34.8386
4116 1 14.5277 38.0973 33.5756
4068 1 17.2556 39.6813 33.5559
10453 2 16.3467 38.1203 34.8582
4067 1 19.9839 38.0973 33.5756
10425 2 19.0744 39.7058 34.8386
7238 2 21.8029 38.1203 34.8582
4098 1 11.7992 42.8476 33.5146
10440 2 13.6175 42.8752 34.7975
4097 1 14.5273 41.2648 33.5356
4060 1 17.2554 42.8476 33.5146
10455 2 16.3459 41.2908 34.8184
4069 1 19.9835 41.2648 33.5356
10424 2 19.0738 42.8752 34.7975
7222 2 21.8021 41.2908 34.8184
4085 1 11.7997 46.0104 33.4703
10439 2 13.6174 46.0416 34.7535
4100 1 14.5274 44.4295 33.4928
4059 1 17.2559 46.0104 33.4703
10438 2 16.3455 44.4588 34.7759
4058 1 19.9837 44.4295 33.4928
10421 2 19.0736 46.0416 34.7535
7223 2 21.8017 44.4588 34.7759
4083 1 14.5285 47.59 33.4469
4084 1 11.8014 49.1683 33.4226
10432 2 13.6182 49.2038 34.706
10441 2 16.3458 47.6233 34.7302
4049 1 17.2577 49.1683 33.4226
10420 2 19.0744 49.2038 34.706
4061 1 19.9847 47.59 33.4469
7214 2 21.802 47.6233 34.7302
4086 1 14.5311 50.7448 33.3972
10431 2 13.6206 52.3595 34.6538
4079 1 11.8052 52.3191 33.3705
10430 2 16.3472 50.7827 34.6806
4048 1 17.2614 52.3191 33.3705
10418 2 19.0768 52.3595 34.6538
4047 1 19.9873 50.7448 33.3972
7215 2 21.8035 50.7827 34.6806
4077 1 14.5364 53.8908 33.3423
10429 2 13.6258 55.505 34.5946
4078 1 11.8123 55.4592 33.3123
4076 1 12.7064 53.9857 35.9235
10433 2 16.3509 53.9339 34.6253
4042 1 17.2686 55.4592 33.3123
4040 1 15.4364 55.5626 35.8969
4039 1 18.1626 53.9857 35.9235
10417 2 19.082 55.505 34.5946
4050 1 19.9926 53.8908 33.3423
7213 2 21.8071 53.9339 34.6253
4033 1 20.8926 55.5626 35.8969
10630 2 11.7991 39.756 37.4064
16397 1 13.6173 39.7819 38.6916
4095 1 12.7082 38.1441 36.1446
10632 2 14.528 38.1675 37.4256
10619 2 17.2553 39.756 37.4064
16396 1 16.3465 38.1917 38.7106
4056 1 15.4356 39.7311 36.1254
4066 1 18.1645 38.1441 36.1446
10618 2 19.9842 38.1675 37.4256
16362 1 19.0735 39.7819 38.6916
4038 1 20.8919 39.7311 36.1254
13584 1 21.8027 38.1917 38.7106
10629 2 11.7975 42.9321 37.366
16393 1 13.615 42.9619 38.6518
4096 1 12.7068 41.3177 36.1056
10628 2 14.5264 41.3442 37.3865
10616 2 17.2537 42.9321 37.366
16398 1 16.3443 41.3719 38.672
4055 1 15.4343 42.904 36.0852
4054 1 18.1631 41.3177 36.1056
10620 2 19.9826 41.3442 37.3865
16361 1 19.0713 42.9619 38.6518
4037 1 20.8906 42.904 36.0852
13582 1 21.8005 41.3719 38.672
10626 2 11.796 46.1068 37.323
16392 1 13.6127 46.1417 38.6098
4081 1 12.7056 44.4897 36.0642
10631 2 14.5248 44.5197 37.3448
10615 2 17.2523 46.1068 37.323
16391 1 16.342 44.5518 38.6311
4045 1 15.4333 46.0748 36.0425
4057 1 18.1619 44.4897 36.0642
10614 2 19.9811 44.5197 37.3448
16356 1 19.0689 46.1417 38.6098
4036 1 20.8895 46.0748 36.0425
13583 1 21.7982 44.5518 38.6311
10625 2 11.7949 49.2792 37.277
16382 1 13.6102 49.3213 38.5657
4082 1 12.7048 47.6592 36.0203
10624 2 14.5235 47.6934 37.3004
10612 2 17.2512 49.2792 37.277
16394 1 16.3396 47.7315 38.588
4044 1 15.4328 49.2428 35.9973
4043 1 18.161 47.6592 36.0203
10617 2 19.9798 47.6934 37.3004
16355 1 19.0665 49.3213 38.5657
4035 1 20.889 49.2428 35.9973
13580 1 21.7958 47.7315 38.588
10623 2 11.7947 52.4478 37.2268
16381 1 13.6076 52.5016 38.5194
4075 1 12.7048 50.8252 35.9735
10627 2 14.5228 50.8642 37.2525
10611 2 17.2509 52.4478 37.2268
16380 1 16.3371 50.9113 38.5428
4041 1 15.4334 52.4063 35.949
4046 1 18.161 50.8252 35.9735
10610 2 19.979 50.8642 37.2525
16342 1 19.0638 52.5016 38.5194
4034 1 20.8897 52.4063 35.949
13581 1 21.7933 50.9113 38.5428
10622 2 11.7962 55.6094 37.1703
16371 1 13.6037 55.6843 38.4714
10621 2 14.5233 54.0298 37.1996
10609 2 17.2525 55.6094 37.1703
16383 1 16.3341 54.0923 38.4955
10613 2 19.9795 54.0298 37.1996
16341 1 19.0599 55.6843 38.4714
13579 1 21.7903 54.0923 38.4955
22019 2 12.7108 38.2153 39.9901
22002 2 13.6221 39.8578 42.5319
16389 1 11.8006 39.833 41.2544
16395 1 14.53 38.2398 41.2736
22006 2 15.4379 39.8068 39.9708
22001 2 16.3514 38.2632 42.5516
16359 1 17.2568 39.833 41.2544
22008 2 18.1671 38.2153 39.9901
16358 1 19.9862 38.2398 41.2736
21957 2 19.0783 39.8578 42.5319
21960 2 20.8941 39.8068 39.9708
19198 2 21.8076 38.2632 42.5516
22020 2 12.7086 41.3984 39.9509
16388 1 11.7979 43.0203 41.2142
21994 2 13.6195 43.048 42.4906
16387 1 14.5274 41.4265 41.2346
22005 2 15.4356 42.9901 39.9304
22003 2 16.3489 41.4527 42.5116
16353 1 17.2541 43.0203 41.2142
22004 2 18.1648 41.3984 39.9509
16360 1 19.9836 41.4265 41.2346
21956 2 19.0757 43.048 42.4906
21959 2 20.8918 42.9901 39.9304
19194 2 21.8052 41.4527 42.5116
22016 2 12.7063 44.5817 39.9092
16378 1 11.7948 46.2093 41.1716
21993 2 13.6168 46.2399 42.4463
16390 1 14.5245 44.6145 41.1932
21998 2 15.4332 46.1734 39.8873
16352 1 17.251 46.2093 41.1716
21992 2 16.3463 44.6437 42.4689
22007 2 18.1625 44.5817 39.9092
16351 1 19.9807 44.6145 41.1932
21949 2 19.073 46.2399 42.4463
21958 2 20.8895 46.1734 39.8873
19195 2 21.8025 44.6437 42.4689
22017 2 12.7039 47.7652 39.8647
16377 1 11.7912 49.401 41.1265
21980 2 13.6139 49.4344 42.3985
16376 1 14.5212 47.8047 41.1494
21997 2 15.4309 49.357 39.8412
16339 1 17.2474 49.401 41.1265
21995 2 16.3434 47.8368 42.4229
21996 2 18.1601 47.7652 39.8647
16354 1 19.9774 47.8047 41.1494
21948 2 19.0701 49.4344 42.3985
21951 2 20.8871 49.357 39.8412
19190 2 21.7997 47.8368 42.4229
22012 2 12.7016 50.9489 39.8167
16370 1 11.7865 52.5983 41.0788
21979 2 13.6109 52.6327 42.3457
16379 1 14.5172 50.9987 41.103
16338 1 17.2428 52.5983 41.0788
21978 2 16.3405 51.033 42.3728
21984 2 15.4288 52.5407 39.791
21999 2 18.1579 50.9489 39.8167
16337 1 19.9734 50.9987 41.103
21934 2 19.0671 52.6327 42.3457
21950 2 20.885 52.5407 39.791
19191 2 21.7967 51.033 42.3728
22013 2 12.6998 54.1326 39.7636
16369 1 11.7792 55.8065 41.028
21969 2 13.6075 55.8376 42.285
16368 1 14.5115 54.2003 41.0538
16321 1 17.2354 55.8065 41.028
21981 2 16.3374 54.2341 42.3165
21983 2 15.4272 55.7245 39.7341
21982 2 18.156 54.1326 39.7636
16340 1 19.9677 54.2003 41.0538
21933 2 19.0638 55.8376 42.285
21935 2 20.8834 55.7245 39.7341
19189 2 21.7937 54.2341 42.3165
16385 1 12.7151 38.2877 43.8335
21990 2 11.8079 39.9083 45.0898
22000 2 14.5373 38.3108 45.1101
16349 1 15.4419 39.8841 43.8138
21954 2 17.2642 39.9083 45.0898
16357 1 18.1714 38.2877 43.8335
16296 1 20.8982 39.8841 43.8138
21953 2 19.9935 38.3108 45.1101
16386 1 12.7124 41.4809 43.7934
21989 2 11.8054 43.1051 45.0469
21988 2 14.5348 41.5064 45.0688
16348 1 15.439 43.0784 43.7723
21946 2 17.2616 43.1051 45.0469
16347 1 18.1686 41.4809 43.7934
16295 1 20.8953 43.0784 43.7723
21955 2 19.991 41.5064 45.0688
16374 1 12.7094 44.6767 43.7504
21976 2 11.8027 46.3048 45.0005
21991 2 14.5322 44.7045 45.0242
16335 1 15.4358 46.2759 43.7278
21945 2 17.2589 46.3048 45.0005
16350 1 18.1656 44.6767 43.7504
16294 1 20.892 46.2759 43.7278
21944 2 19.9884 44.7045 45.0242
16375 1 12.7059 47.8764 43.7044
21975 2 11.7998 49.509 44.9497
21974 2 14.5294 47.9063 44.9757
16334 1 15.432 49.4786 43.6801
21931 2 17.256 49.509 44.9497
16333 1 18.1621 47.8764 43.7044
16287 1 20.8882 49.4786 43.6801
21947 2 19.9856 47.9063 44.9757
16366 1 12.7016 51.0828 43.6547
21968 2 11.7965 52.7196 44.8929
21977 2 14.5263 51.1133 44.9222
16320 1 15.4271 52.6897 43.628
21930 2 17.2528 52.7196 44.8929
16336 1 18.1578 51.0828 43.6547
16286 1 20.8833 52.6897 43.628
21929 2 19.9826 51.1133 44.9222
16367 1 12.6958 54.3001 43.5998
21967 2 11.7923 55.9402 44.8271
21966 2 14.5228 54.3283 44.8613
16319 1 15.42 55.9149 43.5695
21914 2 17.2486 55.9402 44.8271
16318 1 18.152 54.3001 43.5998
16271 1 20.8762 55.9149 43.5695
21932 2 19.979 54.3283 44.8613
16327 1 11.8166 39.9836 48.9239
16345 1 13.6286 39.9344 46.3701
21986 2 12.7244 38.3577 47.6661
16343 1 14.5458 38.3818 48.9454
16290 1 17.2729 39.9836 48.9239
16344 1 16.358 38.3352 46.3907
21942 2 15.4515 39.9579 47.645
21952 2 18.1807 38.3577 47.6661
16289 1 20.0021 38.3818 48.9454
16293 1 19.0848 39.9344 46.3701
21894 2 20.9077 39.9579 47.645
13564 1 21.8142 38.3352 46.3907
16326 1 11.8144 43.1899 48.8779
16331 1 13.6259 43.1352 46.3266
21987 2 12.7222 41.5588 47.6229
16325 1 14.5436 41.5862 48.9014
16282 1 17.2706 43.1899 48.8779
16346 1 16.3554 41.5343 46.3488
21941 2 15.4492 43.1606 47.5999
21940 2 18.1784 41.5588 47.6229
16291 1 19.9999 41.5862 48.9014
16292 1 19.0822 43.1352 46.3266
21893 2 20.9054 43.1606 47.5999
13552 1 21.8117 41.5343 46.3488
16312 1 11.8119 46.401 48.8276
16330 1 13.6229 46.3402 46.2794
21972 2 12.7198 44.7633 47.5759
16328 1 14.5413 44.7947 48.8533
16281 1 17.2681 46.401 48.8276
16329 1 16.3526 44.737 46.3035
21927 2 15.4467 46.3671 47.5507
21943 2 18.1761 44.7633 47.5759
16280 1 19.9975 44.7947 48.8533
16285 1 19.0792 46.3402 46.2794
21892 2 20.9029 46.3671 47.5507
13553 1 21.8088 44.737 46.3035
16311 1 11.8091 49.6187 48.7721
16316 1 13.6195 49.5516 46.2279
21973 2 12.7173 47.9723 47.5243
16310 1 14.5387 48.0089 48.8006
16267 1 17.2653 49.6187 48.7721
16332 1 16.3494 47.9449 46.2543
21926 2 15.444 49.579 47.4965
21925 2 18.1735 47.9723 47.5243
16283 1 19.9949 48.0089 48.8006
16284 1 19.0758 49.5516 46.2279
21885 2 20.9003 49.579 47.4965
13544 1 21.8057 47.9449 46.2543
16304 1 11.8058 52.8452 48.7097
16315 1 13.6154 52.7724 46.1704
21964 2 12.7144 51.1877 47.467
16313 1 14.5357 51.2307 48.7419
16266 1 17.262 52.8452 48.7097
16314 1 16.3457 51.1606 46.2
21913 2 15.4408 52.7985 47.4356
21928 2 18.1707 51.1877 47.467
16265 1 19.9919 51.2307 48.7419
16270 1 19.0716 52.7724 46.1704
21884 2 20.8971 52.7985 47.4356
13545 1 21.8019 51.1606 46.2
16303 1 11.8014 56.0825 48.6382
16305 1 13.6099 56.0066 46.104
21965 2 12.7107 54.412 47.402
16302 1 14.5319 54.4625 48.6752
16252 1 17.2577 56.0825 48.6382
16317 1 16.341 54.3876 46.1385
21912 2 15.4363 56.0287 47.3658
21911 2 18.1669 54.412 47.402
16268 1 19.9882 54.4625 48.6752
16269 1 19.0661 56.0066 46.104
21873 2 20.8925 56.0287 47.3658
13543 1 21.7972 54.3876 46.1385
16323 1 12.7347 38.4273 51.4982
21938 2 13.6399 40.0062 50.1978
21985 2 10.9127 38.4036 50.22
16278 1 15.462 40.0313 51.4756
21937 2 16.369 38.4036 50.22
16236 1 20.9182 40.0313 51.4756
16288 1 18.191 38.4273 51.4982
21891 2 19.0962 40.0062 50.1978
16324 1 12.7329 41.6362 51.4519
21923 2 13.6379 43.2139 50.1504
16277 1 15.4601 43.2421 51.4271
21939 2 16.3671 41.6096 50.1747
16235 1 20.9164 43.2421 51.4271
16276 1 18.1892 41.6362 51.4519
21890 2 19.0942 43.2139 50.1504
19150 2 21.8233 41.6096 50.1747
16308 1 12.7311 44.8492 51.4011
21922 2 13.6358 46.4259 50.0984
16263 1 15.4582 46.4577 51.3738
21921 2 16.365 44.8193 50.125
16279 1 18.1873 44.8492 51.4011
19151 2 21.8213 44.8193 50.125
16234 1 20.9144 46.4577 51.3738
21883 2 19.0921 46.4259 50.0984
16309 1 12.729 48.0677 51.345
21909 2 13.6334 49.6435 50.041
21904 2 11.8236 49.7019 52.5847
16262 1 15.4559 49.6794 51.3148
21924 2 16.3628 48.0339 50.0704
16261 1 18.1852 48.0677 51.345
21869 2 17.2798 49.7019 52.5847
19142 2 21.819 48.0339 50.0704
16228 1 20.9122 49.6794 51.3148
21882 2 19.0897 49.6435 50.041
21899 2 11.8205 52.9292 52.5188
16300 1 12.7265 51.293 51.2829
21908 2 13.6303 52.8684 49.9769
21906 2 14.5503 51.3147 52.5525
21868 2 17.2767 52.9292 52.5188
16251 1 15.4531 52.9084 51.2491
21907 2 16.3601 51.2549 50.0098
16264 1 18.1827 51.293 51.2829
19143 2 21.8164 51.2549 50.0098
21867 2 20.0065 51.3147 52.5525
16227 1 20.9093 52.9084 51.2491
21872 2 19.0865 52.8684 49.9769
21897 2 14.5464 54.5453 52.4836
21898 2 11.8156 56.163 52.4472
16301 1 12.7231 54.5259 51.2135
21900 2 13.6255 56.1023 49.9052
21862 2 17.2718 56.163 52.4472
16250 1 15.4489 56.1451 51.176
21910 2 16.3563 54.4841 49.942
16249 1 18.1794 54.5259 51.2135
21870 2 20.0027 54.5453 52.4836
19141 2 21.8126 54.4841 49.942
16220 1 20.9051 56.1451 51.176
21871 2 19.0818 56.1023 49.9052
16274 1 13.6518 40.0772 54.0259
16322 1 10.9244 38.4713 54.0496
21915 2 12.7479 38.4917 55.3233
21919 2 11.8292 40.053 52.749
16273 1 16.3806 38.4713 54.0496
21876 2 15.4754 40.098 55.2992
21888 2 17.2855 40.053 52.749
21936 2 14.5581 38.4483 52.7722
16233 1 19.108 40.0772 54.0259
21858 2 20.9316 40.098 55.2992
21886 2 18.2041 38.4917 55.3233
21887 2 20.0144 38.4483 52.7722
16259 1 13.6504 43.2915 53.9751
16306 1 10.923 41.6838 54.0011
21916 2 12.7466 41.705 55.2739
21918 2 11.8276 43.2647 52.6993
16275 1 16.3792 41.6838 54.0011
21875 2 15.474 43.3129 55.2475
21880 2 17.2838 43.2647 52.6993
21917 2 14.5565 41.6584 52.7248
16232 1 19.1066 43.2915 53.9751
21857 2 20.9303 43.3129 55.2475
21874 2 18.2028 41.705 55.2739
21889 2 20.0128 41.6584 52.7248
16258 1 13.6488 46.5101 53.9191
16307 1 10.9215 44.9002 53.9478
21901 2 12.7451 44.9217 55.2197
21905 2 11.8258 46.4807 52.6447
16257 1 16.3777 44.9002 53.9478
21865 2 15.4724 46.5316 55.1908
21879 2 17.282 46.4807 52.6447
21920 2 14.5548 44.8721 52.6727
16226 1 19.105 46.5101 53.9191
21856 2 20.9287 46.5316 55.1908
21877 2 18.2014 44.9217 55.2197
21878 2 20.0111 44.8721 52.6727
16247 1 13.6469 49.7339 53.8577
16298 1 10.9198 48.1213 53.8891
21902 2 12.7433 48.1425 55.1605
16260 1 16.376 48.1213 53.8891
21864 2 15.4703 49.7545 55.129
21903 2 14.5529 48.0906 52.6154
16225 1 19.1031 49.7339 53.8577
21855 2 20.9265 49.7545 55.129
21863 2 18.1996 48.1425 55.1605
21881 2 20.0091 48.0906 52.6154
21895 2 12.7408 51.3677 55.0963
16299 1 10.9175 51.3478 53.8248
16246 1 13.6441 52.9631 53.7905
21861 2 15.4672 52.982 55.0624
16245 1 16.3738 51.3478 53.8248
21866 2 18.197 51.3677 55.0963
21854 2 20.9234 52.982 55.0624
16219 1 19.1004 52.9631 53.7905
21896 2 12.7369 54.5974 55.0277
16297 1 10.9141 54.5796 53.7549
16240 1 13.6397 56.1971 53.7182
21860 2 15.4624 56.2136 54.9923
16248 1 16.3703 54.5796 53.7549
21859 2 18.1931 54.5974 55.0277
21853 2 20.9186 56.2136 54.9923
16218 1 19.0959 56.1971 53.7182
16571 1 12.7611 38.5552 59.1505
22205 2 13.6656 40.1414 57.849
22212 2 10.938 38.5337 57.8739
16255 1 11.8421 40.1212 56.5756
16558 1 15.4888 40.1636 59.1251
22204 2 16.3943 38.5337 57.8739
16230 1 17.2983 40.1212 56.5756
16272 1 14.5707 38.514 56.6002
16512 1 20.945 40.1636 59.1251
16560 1 18.2174 38.5552 59.1505
22170 2 19.1219 40.1414 57.849
16229 1 20.027 38.514 56.6002
16572 1 12.7602 41.7726 59.0985
22201 2 13.6644 43.3586 57.7955
22210 2 10.9369 41.7496 57.8228
16254 1 11.8409 43.3381 56.5227
16557 1 15.4878 43.3822 59.0707
22206 2 16.3932 41.7496 57.8228
16223 1 17.2972 43.3381 56.5227
16253 1 14.5696 41.7293 56.5498
16511 1 20.9441 43.3822 59.0707
16556 1 18.2165 41.7726 59.0985
22169 2 19.1207 43.3586 57.7955
16231 1 20.0259 41.7293 56.5498
16568 1 12.7591 44.9924 59.0416
22200 2 13.663 46.5788 57.7373
22211 2 10.9356 44.9683 57.767
16243 1 11.8396 46.5585 56.4648
16550 1 15.4866 46.6034 59.0115
22199 2 16.3919 44.9683 57.767
16222 1 17.2958 46.5585 56.4648
16256 1 14.5684 44.9478 56.4944
16510 1 20.9428 46.6034 59.0115
16559 1 18.2154 44.9924 59.0416
22164 2 19.1192 46.5788 57.7373
16221 1 20.0247 44.9478 56.4944
16569 1 12.7576 48.215 58.9802
22190 2 13.6609 49.8021 57.6746
22208 2 10.9339 48.19 57.7065
16242 1 11.8377 49.7827 56.4019
16549 1 15.4847 49.8272 58.9479
22202 2 16.3901 48.19 57.7065
16216 1 17.294 49.7827 56.4019
16241 1 14.5669 48.1701 56.434
16503 1 20.9409 49.8272 58.9479
16548 1 18.2138 48.215 58.9802
22163 2 19.1171 49.8021 57.6746
16224 1 20.0231 48.1701 56.434
16564 1 12.7553 51.4399 58.9148
22189 2 13.6577 53.0284 57.6083
22209 2 10.9313 51.4149 57.6418
16239 1 11.8349 53.0107 56.3345
16536 1 15.4818 53.0531 58.8811
22188 2 16.3876 51.4149 57.6418
16215 1 17.2912 53.0107 56.3345
16244 1 14.5646 51.3963 56.3687
16502 1 20.938 53.0531 58.8811
16551 1 18.2115 51.4399 58.9148
22150 2 19.114 53.0284 57.6083
16214 1 20.0209 51.3963 56.3687
16565 1 12.7517 54.6666 58.8471
22179 2 13.6532 56.257 57.54
22207 2 10.9275 54.6425 57.5742
16238 1 11.8305 56.2414 56.2642
16535 1 15.4775 56.2803 58.813
22191 2 16.3838 54.6425 57.5742
16213 1 17.2867 56.2414 56.2642
16237 1 14.5611 54.6258 56.2995
16487 1 20.9337 56.2803 58.813
16534 1 18.208 54.6666 58.8471
22149 2 19.1094 56.257 57.54
16217 1 20.0173 54.6258 56.2995
16554 1 13.6794 40.2045 61.6749
16570 1 10.9516 38.5952 61.7009
22197 2 11.8561 40.1832 60.3987
16553 1 16.4079 38.5952 61.7009
22167 2 17.3123 40.1832 60.3987
22203 2 14.5846 38.5745 60.4242
16509 1 19.1356 40.2045 61.6749
22166 2 20.0409 38.5745 60.4242
16546 1 13.6784 43.4242 61.6194
16566 1 10.9508 41.8141 61.6478
22196 2 11.855 43.4021 60.344
16555 1 16.407 41.8141 61.6478
22161 2 17.3112 43.4021 60.344
22195 2 14.5837 41.7924 60.3719
16508 1 19.1347 43.4242 61.6194
22168 2 20.0399 41.7924 60.3719
16545 1 13.6771 46.6456 61.5595
16567 1 10.9497 45.0347 61.59
22186 2 11.8535 46.623 60.2848
16544 1 16.406 45.0347 61.59
22160 2 17.3097 46.623 60.2848
22198 2 14.5824 45.0123 60.3149
16501 1 19.1334 46.6456 61.5595
22159 2 20.0386 45.0123 60.3149
16532 1 13.6752 49.8683 61.496
16562 1 10.9481 48.2568 61.5282
22185 2 11.8514 49.8459 60.2219
16547 1 16.4044 48.2568 61.5282
22147 2 17.3076 49.8459 60.2219
22184 2 14.5806 48.2342 60.2538
16500 1 19.1314 49.8683 61.496
22162 2 20.0369 48.2342 60.2538
16531 1 13.6722 53.0919 61.4302
16563 1 10.9457 51.48 61.4632
22178 2 11.8483 53.0703 60.1562
16530 1 16.402 51.48 61.4632
22146 2 17.3045 53.0703 60.1562
22187 2 14.5781 51.4579 60.1893
16486 1 19.1285 53.0919 61.4302
22145 2 20.0343 51.4579 60.1893
16521 1 13.6681 56.3157 61.3641
16561 1 10.9422 54.7038 61.397
22177 2 11.844 56.2956 60.0899
16533 1 16.3985 54.7038 61.397
22129 2 17.3002 56.2956 60.0899
22176 2 14.5744 54.6829 60.123
16485 1 19.1244 56.3157 61.3641
22148 2 20.0306 54.6829 60.123
16542 1 11.8698 40.2443 64.2256
22153 2 13.6933 40.2639 65.4986
22192 2 10.9656 38.6535 65.5249
22193 2 12.7751 38.6143 62.9746
16506 1 17.3261 40.2443 64.2256
16552 1 14.5984 38.6343 64.2519
22152 2 16.4219 38.6535 65.5249
22157 2 15.5028 40.2239 62.9486
16505 1 20.0546 38.6343 64.2519
22101 2 19.1495 40.2639 65.4986
22104 2 20.959 40.2239 62.9486
22165 2 18.2314 38.6143 62.9746
16541 1 11.8688 43.4648 64.1696
22139 2 13.6921 43.4848 65.4428
22180 2 10.9646 41.8743 65.4712
22194 2 12.7742 41.8338 62.9214
16498 1 17.3251 43.4648 64.1696
16540 1 14.5975 41.8545 64.1981
22154 2 16.4208 41.8743 65.4712
22156 2 15.5017 43.4439 62.8931
16507 1 20.0537 41.8545 64.1981
22100 2 19.1483 43.4848 65.4428
22103 2 20.9579 43.4439 62.8931
22155 2 18.2304 41.8338 62.9214
16528 1 11.8674 46.686 64.1094
22138 2 13.6904 46.7059 65.3832
22181 2 10.9632 45.0954 65.4134
22182 2 12.7729 45.0544 62.8638
16497 1 17.3237 46.686 64.1094
16543 1 14.5963 45.0754 64.1399
22137 2 16.4194 45.0954 65.4134
22143 2 15.5002 46.665 62.8335
16496 1 20.0526 45.0754 64.1399
22093 2 19.1467 46.7059 65.3832
22102 2 20.9564 46.665 62.8335
22158 2 18.2291 45.0544 62.8638
16527 1 11.8654 49.9074 64.0462
22124 2 13.6882 49.9267 65.3208
22172 2 10.9613 48.3164 65.3522
22183 2 12.771 48.2759 62.8024
16483 1 17.3216 49.9074 64.0462
16526 1 14.5946 48.2967 64.0781
22140 2 16.4175 48.3164 65.3522
22142 2 15.498 49.887 62.7707
16499 1 20.0508 48.2967 64.0781
22092 2 19.1444 49.9267 65.3208
22095 2 20.9542 49.887 62.7707
22141 2 18.2273 48.2759 62.8024
16520 1 11.8624 53.1286 63.9815
22123 2 13.6852 53.1468 65.2572
22173 2 10.9587 51.5369 65.289
22174 2 12.7685 51.4981 62.7385
16482 1 17.3187 53.1286 63.9815
16529 1 14.5921 51.5181 64.014
22122 2 16.4149 51.5369 65.289
22128 2 15.4949 53.1092 62.706
16481 1 20.0484 51.5181 64.014
22078 2 19.1414 53.1468 65.2572
22094 2 20.9512 53.1092 62.706
22144 2 18.2247 51.4981 62.7385
16519 1 11.8586 56.349 63.9173
22113 2 13.6814 56.3655 65.1944
22171 2 10.9553 54.7563 65.2256
22175 2 12.7649 54.7203 62.6736
16466 1 17.3148 56.349 63.9173
16518 1 14.5888 54.739 63.9492
22125 2 16.4115 54.7563 65.2256
22127 2 15.4909 56.3312 62.6416
16484 1 20.045 54.739 63.9492
22077 2 19.1376 56.3655 65.1944
22079 2 20.9472 56.3312 62.6416
22126 2 18.2212 54.7203 62.6736
16538 1 12.7886 38.673 66.8047
22135 2 11.8836 40.3036 68.048
16494 1 15.5163 40.2836 66.7782
22098 2 17.3399 40.3036 68.048
22151 2 14.6123 38.6925 68.0744
16446 1 20.9725 40.2836 66.7782
16504 1 18.2448 38.673 66.8047
22097 2 20.0686 38.6925 68.0744
16539 1 12.7876 41.8942 66.7506
22134 2 11.8823 43.5256 67.9922
16493 1 15.5151 43.5047 66.722
22090 2 17.3385 43.5256 67.9922
22133 2 14.6111 41.9147 68.0206
16445 1 20.9714 43.5047 66.722
16492 1 18.2438 41.8942 66.7506
22099 2 20.0674 41.9147 68.0206
16524 1 12.7863 45.1152 66.6924
22120 2 11.8805 46.7466 67.9328
16474 1 13.7025 46.7652 69.2203
16523 1 10.9753 45.1551 69.2505
16479 1 15.5136 46.7255 66.662
22089 2 17.3368 46.7466 67.9328
22136 2 14.6096 45.1362 67.9629
16473 1 16.4315 45.1551 69.2505
16444 1 20.9698 46.7255 66.662
16495 1 18.2425 45.1152 66.6924
22088 2 20.0658 45.1362 67.9629
16435 1 19.1587 46.7652 69.2203
16525 1 12.7844 48.3357 66.6309
22119 2 11.8781 49.9664 67.8711
16461 1 13.7002 49.9841 69.1583
16514 1 10.9733 48.3748 69.1895
16478 1 15.5114 49.9457 66.5994
22075 2 17.3344 49.9664 67.8711
22118 2 14.6075 48.3567 67.9021
16476 1 16.4295 48.3748 69.1895
16437 1 20.9676 49.9457 66.5994
16477 1 18.2407 48.3357 66.6309
22091 2 20.0638 48.3567 67.9021
16434 1 19.1565 49.9841 69.1583
16516 1 12.7819 51.5553 66.5676
22112 2 11.8751 53.1844 67.8086
16460 1 13.6974 53.2008 69.0959
16515 1 10.9707 51.5928 69.127
16465 1 15.5085 53.1646 66.5358
22074 2 17.3314 53.1844 67.8086
22121 2 14.6048 51.5757 67.8398
16459 1 16.427 51.5928 69.127
16436 1 20.9647 53.1646 66.5358
16480 1 18.2382 51.5553 66.5676
22073 2 20.0611 51.5757 67.8398
16424 1 19.1536 53.2008 69.0959
16517 1 12.7786 54.7734 66.5043
22111 2 11.8715 56.4 67.7474
16452 1 13.6939 56.4149 69.0349
16513 1 10.9676 54.8082 69.0652
16464 1 15.5048 56.3817 66.4733
22060 2 17.3277 56.4 67.7474
22110 2 14.6015 54.7925 67.7777
16462 1 16.4239 54.8082 69.0652
16425 1 20.9611 56.3817 66.4733
16463 1 18.2349 54.7734 66.5043
22076 2 20.0577 54.7925 67.7777
16423 1 19.1502 56.4149 69.0349
16471 1 11.8898 40.362 71.9113
16490 1 13.7055 40.3228 69.3361
16537 1 10.9779 38.7115 69.3625
22131 2 12.8025 38.7313 70.62
16440 1 17.346 40.362 71.9113
16488 1 14.6185 38.75 71.9378
16489 1 16.4342 38.7115 69.3625
22086 2 15.53 40.3433 70.5937
16439 1 20.0747 38.75 71.9378
16443 1 19.1617 40.3228 69.3361
22044 2 20.9863 40.3433 70.5937
22096 2 18.2588 38.7313 70.62
16470 1 11.8884 43.5847 71.8555
16475 1 13.7042 43.5446 69.28
16522 1 10.9768 41.9339 69.3085
22132 2 12.8012 41.9551 70.5663
16432 1 17.3447 43.5847 71.8555
16469 1 14.6172 41.9736 71.8839
16491 1 16.433 41.9339 69.3085
22085 2 15.5285 43.5665 70.538
16441 1 20.0735 41.9736 71.8839
16442 1 19.1604 43.5446 69.28
22043 2 20.9848 43.5665 70.538
22084 2 18.2574 41.9551 70.5663
16457 1 11.8868 46.8053 71.7962
22116 2 12.7995 45.1775 70.5088
16431 1 17.343 46.8053 71.7962
16472 1 14.6158 45.1953 71.8262
22071 2 15.5266 46.788 70.479
16430 1 20.072 45.1953 71.8262
22042 2 20.9829 46.788 70.479
22087 2 18.2558 45.1775 70.5088
16456 1 11.8848 50.0231 71.7339
22117 2 12.7974 48.3978 70.4486
16421 1 17.341 50.0231 71.7339
16455 1 14.614 48.4146 71.7654
22070 2 15.5241 50.007 70.4179
16433 1 20.0702 48.4146 71.7654
22036 2 20.9804 50.007 70.4179
22069 2 18.2536 48.3978 70.4486
16451 1 11.8821 53.2376 71.673
22108 2 12.7946 51.6155 70.387
16420 1 17.3384 53.2376 71.673
16458 1 14.6116 51.6307 71.7035
22059 2 15.5212 53.2232 70.3564
16419 1 20.0679 51.6307 71.7035
22035 2 20.9774 53.2232 70.3564
22072 2 18.2508 51.6155 70.387
16450 1 11.879 56.4487 71.6133
22109 2 12.7914 54.83 70.326
16414 1 17.3352 56.4487 71.6133
16449 1 14.6087 54.8436 71.6429
22058 2 15.5176 56.4359 70.2962
16422 1 20.065 54.8436 71.6429
22028 2 20.9739 56.4359 70.2962
22057 2 18.2476 54.83 70.326
16467 1 12.7449 38.7889 74.5898
22063 2 11.8797 40.4202 75.6017
22082 2 13.7183 40.3832 73.1257
22130 2 10.9909 38.77 73.1519
16428 1 15.473 40.4007 74.5637
22038 2 17.3359 40.4202 75.6017
22080 2 14.6083 38.8067 75.6275
22081 2 16.4471 38.77 73.1519
16410 1 20.9292 40.4007 74.5637
16438 1 18.2011 38.7889 74.5898
22037 2 20.0645 38.8067 75.6275
22041 2 19.1745 40.3832 73.1257
16468 1 12.7449 42.012 74.5365
22062 2 11.8786 43.6452 75.5475
22067 2 13.7167 43.608 73.0706
22114 2 10.9894 41.9959 73.0986
16427 1 15.4731 43.6227 74.5085
22031 2 17.3349 43.6452 75.5475
22061 2 14.6073 42.033 75.575
22083 2 16.4457 41.9959 73.0986
16409 1 20.9293 43.6227 74.5085
16426 1 18.2011 42.012 74.5365
22039 2 20.0635 42.033 75.575
22040 2 19.173 43.608 73.0706
16453 1 12.7452 45.2329 74.4797
22051 2 11.8774 46.8671 75.4909
22066 2 13.7148 46.8302 73.0124
22115 2 10.9877 45.2195 73.0418
16417 1 15.4735 46.8423 74.4504
22030 2 17.3337 46.8671 75.4909
22064 2 14.6062 45.2566 75.5195
22065 2 16.4439 45.2195 73.0418
16408 1 20.9297 46.8423 74.4504
16429 1 18.2014 45.2329 74.4797
22029 2 20.0624 45.2566 75.5195
22034 2 19.171 46.8302 73.0124
16454 1 12.7457 48.451 74.4206
22050 2 11.876 50.0849 75.4335
22055 2 13.7121 50.049 72.9524
22106 2 10.9855 48.4402 72.9825
16416 1 15.4743 50.0583 74.3904
22024 2 17.3322 50.0849 75.4335
22049 2 14.6049 48.4765 75.4622
22068 2 16.4417 48.4402 72.9825
16407 1 20.9306 50.0583 74.3904
16415 1 18.202 48.451 74.4206
22032 2 20.0611 48.4765 75.4622
22033 2 19.1684 50.049 72.9524
16447 1 12.7463 51.6647 74.3602
22047 2 11.8743 53.2981 75.3741
22054 2 13.7093 53.2635 72.8918
22107 2 10.9827 51.6567 72.9221
16413 1 15.4747 53.2704 74.3298
22023 2 17.3305 53.2981 75.3741
22052 2 14.6033 51.6921 75.4037
22053 2 16.4389 51.6567 72.9221
16406 1 20.9309 53.2704 74.3298
16418 1 18.2026 51.6647 74.3602
22022 2 20.0595 51.6921 75.4037
22027 2 19.1656 53.2635 72.8918
16448 1 12.7468 54.8751 74.2997
22046 2 11.8723 56.506 75.3163
22048 2 13.7059 56.4737 72.8326
22105 2 10.9795 54.8692 72.8619
16412 1 15.4751 56.479 74.2703
22021 2 17.3285 56.506 75.3163
22045 2 14.6014 54.9027 75.3449
22056 2 16.4358 54.8692 72.8619
16405 1 20.9313 56.479 74.2703
16411 1 18.203 54.8751 74.2997
22025 2 20.0577 54.9027 75.3449
22026 2 19.1621 56.4737 72.8326
10809 2 11.8396 58.1155 -1.46014
10817 2 13.6655 58.0933 -3.95682
4416 1 12.7736 59.6993 -2.92152
10822 2 10.9391 59.6787 -3.97549
4402 1 15.4987 58.115 -2.90239
10779 2 17.2958 58.1155 -1.46014
10807 2 14.5687 59.6992 -1.47934
10818 2 16.3954 59.6787 -3.97549
4356 1 20.955 58.115 -2.90239
10782 2 19.1217 58.0933 -3.95682
4400 1 18.2299 59.6993 -2.92152
10780 2 20.025 59.6992 -1.47934
10808 2 11.8416 61.2839 -1.49718
10813 2 13.6689 61.2652 -3.99285
4412 1 12.7791 62.87 -2.95558
10823 2 10.9424 62.8525 -4.00876
4401 1 15.5046 61.2843 -2.93929
10773 2 17.2979 61.2839 -1.49718
10810 2 14.5707 62.8694 -1.51355
10811 2 16.3986 62.8525 -4.00876
4355 1 20.9608 61.2843 -2.93929
10781 2 19.1252 61.2652 -3.99285
4403 1 18.2354 62.87 -2.95558
10771 2 20.027 62.8694 -1.51355
10798 2 11.8435 64.4557 -1.5283
10812 2 13.672 64.4406 -4.02312
4413 1 12.7837 66.0432 -2.98322
10820 2 10.9452 66.0295 -4.0358
4394 1 15.5097 64.4564 -2.97026
10772 2 17.2998 64.4557 -1.5283
10796 2 14.5725 66.0427 -1.54134
10814 2 16.4014 66.0295 -4.0358
4354 1 20.9659 64.4564 -2.97026
10776 2 19.1282 64.4406 -4.02312
4392 1 18.24 66.0432 -2.98322
10774 2 20.0287 66.0427 -1.54134
10797 2 11.8451 67.6304 -1.55254
10802 2 13.6745 67.6191 -4.0467
4408 1 12.7872 69.2183 -3.0036
10821 2 10.9473 69.2092 -4.05575
4393 1 15.5137 67.6306 -2.99436
10759 2 17.3014 67.6304 -1.55254
10799 2 14.5739 69.2186 -1.56184
10800 2 16.4036 69.2092 -4.05575
4347 1 20.97 67.6306 -2.99436
10775 2 19.1307 67.6191 -4.0467
4395 1 18.2434 69.2183 -3.0036
10757 2 20.0301 69.2186 -1.56184
10790 2 11.8463 70.8072 -1.56915
10801 2 13.6762 70.7997 -4.06287
4409 1 12.7894 72.3946 -3.01609
10819 2 10.9487 72.3906 -4.06799
4380 1 15.5166 70.8064 -3.01086
10758 2 17.3025 70.8072 -1.56915
10788 2 14.5748 72.3962 -1.57441
10803 2 16.4049 72.3906 -4.06799
4346 1 20.9728 70.8064 -3.01086
10762 2 19.1325 70.7997 -4.06287
4378 1 18.2456 72.3946 -3.01609
10760 2 20.031 72.3962 -1.57441
10789 2 11.8469 73.9854 -1.57758
10791 2 13.6772 73.9817 -4.07108
4799 1 12.7901 75.5716 -3.02029
11232 2 10.9492 75.5729 -4.07212
4379 1 15.518 73.9831 -3.01924
10741 2 17.3031 73.9854 -1.57758
11223 2 14.5751 75.5747 -1.57864
11224 2 16.4054 75.5729 -4.07212
4331 1 20.9743 73.9831 -3.01924
10761 2 19.1334 73.9817 -4.07108
4788 1 18.2463 75.5716 -3.02029
11186 2 20.0313 75.5747 -1.57864
4386 1 11.8433 58.1565 2.35003
4398 1 13.6618 58.1327 -0.240577
4410 1 10.935 59.7154 -0.259899
10806 2 12.7521 59.7241 1.06838
4350 1 17.2995 58.1565 2.35003
10769 2 15.4791 58.1421 1.08796
4384 1 14.5726 59.7376 2.33022
4399 1 16.3912 59.7154 -0.259899
4353 1 19.118 58.1327 -0.240577
10716 2 20.9353 58.1421 1.08796
4351 1 20.0289 59.7376 2.33022
10767 2 18.2083 59.7241 1.06838
4385 1 11.8457 61.3193 2.3118
4390 1 13.6644 61.2989 -0.277857
4411 1 10.9374 62.8831 -0.294315
10794 2 12.7543 62.8903 1.03347
4342 1 17.302 61.3193 2.3118
10768 2 15.4813 61.3068 1.05017
4387 1 14.575 62.9016 2.29491
4388 1 16.3937 62.8831 -0.294315
4352 1 19.1206 61.2989 -0.277857
10715 2 20.9376 61.3068 1.05017
4340 1 20.0312 62.9016 2.29491
10770 2 18.2105 62.8903 1.03347
4372 1 11.8479 64.4846 2.27968
4389 1 13.6666 64.468 -0.309148
4406 1 10.9395 66.0534 -0.322244
10795 2 12.7561 66.0591 1.0051
4341 1 17.3042 64.4846 2.27968
10755 2 15.4834 64.4744 1.01841
4370 1 14.577 66.068 2.26623
4391 1 16.3958 66.0534 -0.322244
4345 1 19.1229 64.468 -0.309148
10714 2 20.9396 64.4744 1.01841
4343 1 20.0333 66.068 2.26623
10753 2 18.2124 66.0591 1.0051
4371 1 11.8498 67.6519 2.25467
4376 1 13.6685 67.6394 -0.333501
4407 1 10.9412 69.2258 -0.342833
10786 2 12.7576 69.2301 0.984173
4327 1 17.306 67.6519 2.25467
10754 2 15.4851 67.6444 0.993662
4373 1 14.5786 69.2362 2.24508
4374 1 16.3974 69.2258 -0.342833
4344 1 19.1248 67.6394 -0.333501
10707 2 20.9413 67.6444 0.993662
4325 1 20.0349 69.2362 2.24508
10756 2 18.2139 69.2301 0.984173
4364 1 11.8511 70.8208 2.23755
4375 1 13.6699 70.8126 -0.350168
4405 1 10.9422 72.3996 -0.355448
10787 2 12.7586 72.4025 0.971339
4326 1 17.3074 70.8208 2.23755
10740 2 15.4863 70.8162 0.976712
4362 1 14.5797 72.4057 2.23212
4377 1 16.3985 72.3996 -0.355448
4330 1 19.1261 70.8126 -0.350168
10706 2 20.9425 70.8162 0.976712
4328 1 20.0359 72.4057 2.23212
10738 2 18.2148 72.4025 0.971339
4363 1 11.8518 73.9907 2.22885
4365 1 13.6706 73.9869 -0.358632
4798 1 10.9426 75.5742 -0.359697
11213 2 12.7589 75.5757 0.967015
4309 1 17.3081 73.9907 2.22885
10739 2 15.4869 73.9891 0.968099
4780 1 14.58 75.5758 2.22775
4781 1 16.3988 75.5742 -0.359697
4329 1 19.1268 73.9869 -0.358632
10691 2 20.9432 73.9891 0.968099
4733 1 20.0363 75.5758 2.22775
11185 2 18.2151 75.5757 0.967015
10765 2 13.6623 58.1668 3.64971
4383 1 12.7556 59.7587 4.90528
10792 2 10.9355 59.7471 3.62971
4338 1 15.4823 58.1792 4.92562
10766 2 16.3918 59.7471 3.62971
4284 1 20.9385 58.1792 4.92562
10713 2 19.1186 58.1668 3.64971
4336 1 18.2118 59.7587 4.90528
10751 2 13.6649 61.3281 3.6111
4368 1 12.7582 62.9194 4.86898
10793 2 10.938 62.9096 3.59402
4337 1 15.485 61.3387 4.88635
10749 2 16.3942 62.9096 3.59402
4283 1 20.9413 61.3387 4.88635
10712 2 19.1211 61.3281 3.6111
4339 1 18.2144 62.9194 4.86898
10750 2 13.6672 64.4917 3.57862
4369 1 12.7605 66.0821 4.83948
10784 2 10.9401 66.0744 3.56501
4323 1 15.4875 64.5005 4.85332
10752 2 16.3963 66.0744 3.56501
4282 1 20.9437 64.5005 4.85332
10705 2 19.1234 64.4917 3.57862
4321 1 18.2167 66.0821 4.83948
10736 2 13.6691 67.6575 3.5533
4360 1 12.7622 69.2464 4.81771
10785 2 10.9418 69.241 3.54359
4322 1 15.4895 67.664 4.82758
10734 2 16.398 69.241 3.54359
4275 1 20.9458 67.664 4.82758
10704 2 19.1253 67.6575 3.5533
4324 1 18.2185 69.2464 4.81771
10735 2 13.6705 70.8247 3.53596
4361 1 12.7634 72.4118 4.80436
10783 2 10.9428 72.4088 3.53046
4308 1 15.491 70.829 4.80995
10737 2 16.3991 72.4088 3.53046
4274 1 20.9473 70.829 4.80995
10690 2 19.1267 70.8247 3.53596
4306 1 18.2196 72.4118 4.80436
10725 2 13.6712 73.993 3.52714
4766 1 12.7638 75.5778 4.79986
11212 2 10.9432 75.5772 3.52603
4307 1 15.4918 73.9948 4.80099
11172 2 16.3994 75.5772 3.52603
4260 1 20.9481 73.9948 4.80099
10689 2 19.1275 73.993 3.52714
4732 1 18.2201 75.5778 4.79986
4334 1 13.665 58.201 7.49605
10747 2 11.8453 58.1898 6.21573
4366 1 10.9384 59.779 7.47505
10744 2 12.7578 59.7887 8.76235
10698 2 15.4843 58.2115 8.78355
10710 2 17.3015 58.1898 6.21573
4335 1 16.3946 59.779 7.47505
10745 2 14.5749 59.7685 6.19518
4281 1 19.1212 58.201 7.49605
10656 2 20.9405 58.2115 8.78355
10696 2 18.214 59.7887 8.76235
10711 2 20.0311 59.7685 6.19518
4319 1 13.668 61.3575 7.4555
10746 2 11.8481 61.3478 6.17606
4367 1 10.9412 62.9364 7.43756
10728 2 12.7609 62.9445 8.72445
10697 2 15.4875 61.3663 8.74259
10702 2 17.3044 61.3478 6.17606
4317 1 16.3975 62.9364 7.43756
10748 2 14.5775 62.9276 6.1585
4280 1 19.1242 61.3575 7.4555
10655 2 20.9437 61.3663 8.74259
10699 2 18.2171 62.9445 8.72445
10700 2 20.0338 62.9276 6.1585
4318 1 13.6706 64.5159 7.42137
10732 2 11.8507 64.5079 6.14267
4358 1 10.9437 66.0957 7.40708
10729 2 12.7635 66.102 8.69362
10683 2 15.4904 64.523 8.70808
10701 2 17.3069 64.5079 6.14267
4320 1 16.3999 66.0957 7.40708
10730 2 14.5799 66.0887 6.12868
4273 1 19.1269 64.5159 7.42137
10654 2 20.9466 64.523 8.70808
10681 2 18.2198 66.102 8.69362
10703 2 20.0361 66.0887 6.12868
4304 1 13.6729 67.6759 7.3948
10731 2 11.8528 67.6698 6.11666
4359 1 10.9456 69.2564 7.38464
10720 2 12.7656 69.2609 8.67094
10682 2 15.4928 67.6813 8.68121
10687 2 17.309 67.6698 6.11666
4302 1 16.4019 69.2564 7.38464
10733 2 14.5817 69.2513 6.1067
4272 1 19.1291 67.6759 7.3948
10648 2 20.949 67.6813 8.68121
10684 2 18.2219 69.2609 8.67094
10685 2 20.038 69.2513 6.1067
4303 1 13.6745 70.8371 7.37667
10724 2 11.8543 70.833 6.09889
4357 1 10.9469 72.418 7.37097
10721 2 12.7669 72.4208 8.65717
10671 2 15.4945 70.8408 8.6629
10686 2 17.3105 70.833 6.09889
4305 1 16.4031 72.418 7.37097
10722 2 14.5829 72.415 6.09329
4259 1 19.1307 70.8371 7.37667
10647 2 20.9508 70.8408 8.6629
10669 2 18.2232 72.4208 8.65717
10688 2 20.0391 72.415 6.09329
4293 1 13.6753 73.9991 7.36758
10723 2 11.855 73.9971 6.08994
4765 1 10.9472 75.5802 7.36653
11151 2 12.7673 75.5811 8.65279
10670 2 15.4954 74.0009 8.65379
10672 2 17.3113 73.9971 6.08994
4717 1 16.4034 75.5802 7.36653
11171 2 14.5832 75.5792 6.08888
4258 1 19.1315 73.9991 7.36758
10640 2 20.9516 74.0009 8.65379
11116 2 18.2235 75.5811 8.65279
11117 2 20.0395 75.5792 6.08888
4315 1 11.8476 58.2219 10.0654
10694 2 13.6669 58.2326 11.3522
10726 2 10.9406 59.8083 11.3302
4278 1 17.3039 58.2219 10.0654
4313 1 14.5775 59.7984 10.0437
10695 2 16.3969 59.8083 11.3302
10653 2 19.1231 58.2326 11.3522
4279 1 20.0337 59.7984 10.0437
4314 1 11.851 61.3753 10.0234
10679 2 13.6706 61.3843 11.3097
10727 2 10.9442 62.9608 11.2908
4296 1 12.7641 62.9686 12.5715
4270 1 17.3073 61.3753 10.0234
4316 1 14.5807 62.9526 10.0048
10677 2 16.4005 62.9608 11.2908
10652 2 19.1268 61.3843 11.3097
4268 1 20.037 62.9526 10.0048
4267 1 18.2203 62.9686 12.5715
4300 1 11.8541 64.5303 9.98797
10678 2 13.674 64.5377 11.2738
10718 2 10.9474 66.1149 11.2588
4297 1 12.7676 66.121 12.5384
4269 1 17.3104 64.5303 9.98797
4298 1 14.5836 66.1085 9.97313
10680 2 16.4037 66.1149 11.2588
4252 1 15.494 64.5447 12.5539
4250 1 18.2239 66.121 12.5384
10646 2 19.1303 64.5377 11.2738
4271 1 20.0399 66.1085 9.97313
4234 1 20.9503 64.5447 12.5539
4288 1 12.7705 69.2746 12.5141
4299 1 11.8567 67.6869 9.96039
10667 2 13.6769 67.6924 11.2459
10719 2 10.95 69.2702 11.2352
4256 1 17.313 67.6869 9.96039
4301 1 14.5859 69.2656 9.94987
10665 2 16.4062 69.2702 11.2352
4251 1 15.4973 67.6977 12.5251
4253 1 18.2267 69.2746 12.5141
10645 2 19.1332 67.6924 11.2459
4254 1 20.0421 69.2656 9.94987
4231 1 20.9535 67.6977 12.5251
4292 1 11.8586 70.8445 9.94164
10666 2 13.6791 70.8482 11.2269
4289 1 12.7723 72.429 12.4996
10717 2 10.9516 72.4263 11.221
4244 1 15.4997 70.8518 12.5056
4255 1 17.3149 70.8445 9.94164
4290 1 14.5873 72.4236 9.93579
10668 2 16.4078 72.4263 11.221
4230 1 20.9559 70.8518 12.5056
10639 2 19.1353 70.8482 11.2269
4257 1 20.0436 72.4236 9.93579
4242 1 18.2285 72.429 12.4996
4291 1 11.8595 74.0028 9.93236
10660 2 13.68 74.0046 11.2176
11150 2 10.9519 75.5828 11.2166
4695 1 12.7727 75.5837 12.4951
4243 1 15.5008 74.0063 12.4961
4245 1 17.3158 74.0028 9.93236
4716 1 14.5877 75.5821 9.93137
11101 2 16.4082 75.5828 11.2166
4227 1 20.957 74.0063 12.4961
10638 2 19.1363 74.0046 11.2176
4661 1 20.0439 75.5821 9.93137
4660 1 18.2289 75.5837 12.4951
4262 1 13.6685 58.2643 15.2044
10675 2 11.8493 58.2542 13.9215
4312 1 12.7602 59.8176 12.6121
4294 1 10.9428 59.8376 15.1806
4266 1 15.4863 58.2427 12.6348
10650 2 17.3055 58.2542 13.9215
4263 1 16.3991 59.8376 15.1806
10673 2 14.5796 59.8282 13.8985
4233 1 19.1248 58.2643 15.2044
4236 1 20.9426 58.2427 12.6348
4264 1 18.2165 59.8176 12.6121
10651 2 20.0358 59.8282 13.8985
4248 1 13.6733 61.4112 15.1583
10674 2 11.8537 61.4026 13.877
4295 1 10.9476 62.9852 15.1379
4265 1 15.4903 61.3929 12.5909
10643 2 17.3099 61.4026 13.877
4246 1 16.4038 62.9852 15.1379
10676 2 14.5839 62.9774 13.8573
4232 1 19.1296 61.4112 15.1583
4235 1 20.9465 61.3929 12.5909
10641 2 20.0402 62.9774 13.8573
4247 1 13.678 64.5595 15.1194
10663 2 11.8579 64.5525 13.8394
4286 1 10.952 66.1341 15.1031
10642 2 17.3141 64.5525 13.8394
4249 1 16.4083 66.1341 15.1031
10661 2 14.5879 66.1279 13.8237
4229 1 19.1342 64.5595 15.1194
10644 2 20.0442 66.1279 13.8237
4240 1 13.6821 67.7089 15.0892
10662 2 11.8616 67.7036 13.8102
4287 1 10.9558 69.2839 15.0777
10636 2 17.3178 67.7036 13.8102
10664 2 14.5912 69.2795 13.7991
4238 1 16.412 69.2839 15.0777
4228 1 19.1384 67.7089 15.0892
10634 2 20.0474 69.2795 13.7991
10659 2 11.8643 70.8556 13.7905
4239 1 13.6853 70.8591 15.0688
4285 1 10.9582 72.4344 15.0625
4241 1 16.4144 72.4344 15.0625
10635 2 17.3205 70.8556 13.7905
10657 2 14.5932 72.4318 13.7844
10637 2 20.0495 72.4318 13.7844
4226 1 19.1415 70.8591 15.0688
10658 2 11.8656 74.008 13.7809
4237 1 13.6868 74.0097 15.0589
4694 1 10.9586 75.5851 15.058
10633 2 17.3218 74.008 13.7809
4645 1 16.4149 75.5851 15.058
11100 2 14.5937 75.5843 13.78
4225 1 19.143 74.0097 15.0589
11057 2 20.0499 75.5843 13.78
11015 2 12.7568 56.705 16.5168
11014 2 10.9379 56.7322 19.0888
10998 2 13.6692 58.3024 19.0619
4606 1 11.8504 58.2878 17.7746
11016 2 12.7621 59.8493 16.4671
11002 2 15.4876 58.277 16.4913
10997 2 16.3941 56.7322 19.0888
4583 1 17.3066 58.2878 17.7746
4608 1 14.5756 56.7166 17.8011
11004 2 18.213 56.705 16.5168
4582 1 20.0319 56.7166 17.8011
10953 2 19.1254 58.3024 19.0619
10956 2 20.9438 58.277 16.4913
11000 2 18.2184 59.8493 16.4671
11010 2 10.9443 59.8728 19.0362
4605 1 11.8562 61.4311 17.7258
10990 2 13.6757 61.4436 19.0121
11012 2 12.7674 62.995 16.4237
11001 2 15.4929 61.422 16.4445
10999 2 16.4005 59.8728 19.0362
4579 1 17.3124 61.4311 17.7258
4604 1 14.5814 59.8592 17.7494
4584 1 20.0376 59.8592 17.7494
10952 2 19.1319 61.4436 19.0121
10955 2 20.9491 61.422 16.4445
11003 2 18.2237 62.995 16.4237
11011 2 10.9509 63.0146 18.99
4599 1 11.8621 64.5757 17.6845
10989 2 13.6824 64.5858 18.9701
11013 2 12.7725 66.1417 16.3883
10994 2 15.4982 64.5682 16.4049
4578 1 17.3183 64.5757 17.6845
4607 1 14.5872 63.0032 17.7041
10988 2 16.4071 63.0146 18.99
4597 1 14.593 66.1483 17.6673
4577 1 20.0435 63.0032 17.7041
10945 2 19.1386 64.5858 18.9701
10954 2 20.9544 64.5682 16.4049
4580 1 20.0493 66.1483 17.6673
10992 2 18.2288 66.1417 16.3883
11006 2 10.9575 66.1573 18.9526
4598 1 11.8676 67.7211 17.6526
10976 2 13.6887 67.7288 18.9377
11008 2 12.7769 69.2893 16.3625
11007 2 10.9634 69.3004 18.9256
10993 2 15.503 67.7155 16.3742
4567 1 17.3238 67.7211 17.6526
10991 2 16.4138 66.1573 18.9526
4600 1 14.5981 69.2941 17.6406
10974 2 16.4196 69.3004 18.9256
10944 2 19.145 67.7288 18.9377
10947 2 20.9592 67.7155 16.3742
10995 2 18.2331 69.2893 16.3625
4565 1 20.0543 69.2941 17.6406
4592 1 11.8719 70.8671 17.6313
10975 2 13.6938 70.8719 18.9162
11009 2 12.7796 72.4374 16.3472
11005 2 10.9673 72.4435 18.9097
4566 1 17.3282 70.8671 17.6313
10980 2 15.5066 70.8633 16.3535
4590 1 14.6014 72.4401 17.6248
10977 2 16.4235 72.4435 18.9097
10930 2 19.15 70.8719 18.9162
10946 2 20.9629 70.8633 16.3535
4568 1 20.0577 72.4401 17.6248
10978 2 18.2359 72.4374 16.3472
4591 1 11.874 74.0131 17.6211
10965 2 13.6963 74.0149 18.906
11423 2 12.7802 75.5855 16.3428
11422 2 10.9681 75.5864 18.9052
4549 1 17.3302 74.0131 17.6211
10979 2 15.5084 74.0114 16.3436
11405 2 16.4243 75.5864 18.9052
4992 1 14.6021 75.5861 17.6203
10929 2 19.1525 74.0149 18.906
10931 2 20.9646 74.0114 16.3436
11412 2 18.2364 75.5855 16.3428
4966 1 20.0583 75.5861 17.6203
4602 1 12.7563 56.745 20.3738
10986 2 11.8501 58.3317 21.6334
10996 2 14.5744 56.7636 21.6621
4575 1 15.4879 58.3143 20.3456
10950 2 17.3063 58.3317 21.6334
4524 1 20.9441 58.3143 20.3456
4581 1 18.2126 56.745 20.3738
10949 2 20.0306 56.7636 21.6621
4603 1 12.7633 59.8838 20.3186
10985 2 11.8581 61.4685 21.58
4574 1 15.495 61.4536 20.2934
10942 2 17.3143 61.4685 21.58
10984 2 14.5821 59.9 21.6059
4523 1 20.9512 61.4536 20.2934
4573 1 18.2195 59.8838 20.3186
10951 2 20.0384 59.9 21.6059
4595 1 12.7706 63.0237 20.2701
10972 2 11.8666 64.6063 21.535
4563 1 15.5025 64.5941 20.2493
10941 2 17.3228 64.6063 21.535
10987 2 14.5904 63.0373 21.5563
4522 1 20.9587 64.5941 20.2493
4576 1 18.2268 63.0237 20.2701
10940 2 20.0466 63.0373 21.5563
4596 1 12.7781 66.1647 20.231
10971 2 11.8751 67.7445 21.5009
4562 1 15.5099 67.7352 20.2156
10927 2 17.3314 67.7445 21.5009
10970 2 14.599 66.1754 21.5165
4515 1 20.9661 67.7352 20.2156
4561 1 18.2344 66.1647 20.231
10943 2 20.0553 66.1754 21.5165
4588 1 12.7851 69.3058 20.203
10964 2 11.8823 70.8821 21.4788
4589 1 12.7899 72.4465 20.1867
4548 1 15.516 70.8762 20.1934
10926 2 17.3385 70.8821 21.4788
10973 2 14.6072 69.3134 21.4883
10962 2 14.6127 72.4504 21.4722
4514 1 20.9723 70.8762 20.1934
4564 1 18.2414 69.3058 20.203
10925 2 20.0634 69.3134 21.4883
4546 1 18.2461 72.4465 20.1867
10928 2 20.069 72.4504 21.4722
10963 2 11.8858 74.0186 21.4686
4986 1 12.7909 75.5868 20.1823
4547 1 15.519 74.0166 20.183
10909 2 17.3421 74.0186 21.4686
11404 2 14.6139 75.5867 21.4678
4499 1 20.9753 74.0166 20.183
4965 1 18.2471 75.5868 20.1823
11357 2 20.0701 75.5867 21.4678
4555 1 11.8474 58.3832 25.4923
4571 1 13.6683 58.3453 22.9179
4601 1 10.9361 56.7784 22.9482
10982 2 12.7535 56.8009 24.2371
4518 1 17.3036 58.3832 25.4923
4569 1 14.5706 56.8189 25.5251
4570 1 16.3923 56.7784 22.9482
10938 2 15.4862 58.3667 24.2063
4517 1 20.0269 56.8189 25.5251
4521 1 19.1246 58.3453 22.9179
10884 2 20.9424 58.3667 24.2063
10948 2 18.2097 56.8009 24.2371
4554 1 11.8579 61.5121 25.4298
4559 1 13.677 61.48 22.8612
4593 1 10.9444 59.9125 22.8887
10983 2 12.7628 59.9325 24.1764
4510 1 17.3142 61.5121 25.4298
4553 1 14.5806 59.9474 25.4602
4572 1 16.4007 59.9125 22.8887
10937 2 15.4959 61.4984 24.1483
4519 1 20.0369 59.9474 25.4602
4520 1 19.1332 61.48 22.8612
10883 2 20.9521 61.4984 24.1483
10936 2 18.219 59.9325 24.1764
4540 1 11.8701 64.6427 25.3775
4558 1 13.6865 64.616 22.8136
4594 1 10.9535 63.0479 22.8361
10968 2 12.773 63.0646 24.1225
4509 1 17.3263 64.6427 25.3775
4556 1 14.5919 63.0772 25.402
4557 1 16.4097 63.0479 22.8361
10923 2 15.5067 64.631 24.0996
4508 1 20.0481 63.0772 25.402
4513 1 19.1427 64.616 22.8136
10882 2 20.9629 64.631 24.0996
10939 2 18.2293 63.0646 24.1225
4539 1 11.8838 67.7734 25.3405
4544 1 13.6966 67.7522 22.7782
4586 1 10.9634 66.1842 22.7943
10969 2 12.7844 66.1974 24.08
4495 1 17.34 67.7734 25.3405
4538 1 14.6049 66.2082 25.3569
4560 1 16.4196 66.1842 22.7943
10922 2 15.5183 67.7636 24.0638
4511 1 20.0611 66.2082 25.3569
4512 1 19.1528 67.7522 22.7782
10875 2 20.9746 67.7636 24.0638
10921 2 18.2406 66.1974 24.08
4532 1 11.8965 70.9013 25.3193
4543 1 13.7053 70.8873 22.7558
4587 1 10.9732 69.32 22.7654
10960 2 12.7957 69.3293 24.0512
4494 1 17.3527 70.9013 25.3193
4541 1 14.6186 69.3378 25.328
4542 1 16.4294 69.32 22.7654
10908 2 15.5285 70.8944 24.0419
4493 1 20.0749 69.3378 25.328
4498 1 19.1616 70.8873 22.7558
10874 2 20.9847 70.8944 24.0419
10924 2 18.2519 69.3293 24.0512
4531 1 11.9032 74.025 25.3107
4533 1 13.7098 74.0205 22.7456
4585 1 10.9802 72.4541 22.7492
10961 2 12.8038 72.4588 24.0357
4985 1 10.9816 75.5868 22.7449
11390 2 12.8055 75.5864 24.0316
4478 1 17.3594 74.025 25.3107
4530 1 14.629 72.4636 25.3136
4545 1 16.4364 72.4541 22.7492
10907 2 15.5337 74.0227 24.0323
4953 1 14.6312 75.586 25.31
4954 1 16.4379 75.5868 22.7449
4496 1 20.0852 72.4636 25.3136
4497 1 19.1661 74.0205 22.7456
10860 2 20.99 74.0227 24.0323
10906 2 18.2601 72.4588 24.0357
4901 1 20.0874 75.586 25.31
11356 2 18.2618 75.5864 24.0316
4551 1 12.7468 56.8699 28.1056
10934 2 13.6644 58.4101 26.7813
10981 2 10.9309 56.8469 26.8146
4506 1 15.4807 58.4311 28.0703
10933 2 16.3871 56.8469 26.8146
4458 1 20.9369 58.4311 28.0703
4516 1 18.203 56.8699 28.1056
10881 2 19.1206 58.4101 26.7813
4552 1 12.7587 59.9916 28.0347
10919 2 13.6761 61.5355 26.7172
10966 2 10.9419 59.9728 26.7485
4505 1 15.4933 61.5523 28.0002
10935 2 16.3982 59.9728 26.7485
4457 1 20.9496 61.5523 28.0002
4504 1 18.2149 59.9916 28.0347
10880 2 19.1324 61.5355 26.7172
4536 1 12.7725 63.1137 27.9686
10918 2 13.6899 64.6615 26.6635
10967 2 10.9546 63.0983 26.6886
10900 2 11.8714 64.7 29.226
4491 1 15.5088 64.6758 27.9411
10917 2 16.4108 63.0983 26.6886
10869 2 17.3277 64.7 29.226
10916 2 14.5904 63.1414 29.2544
4456 1 20.965 64.6758 27.9411
4507 1 18.2287 63.1137 27.9686
10873 2 19.1461 64.6615 26.6635
10868 2 20.0466 63.1414 29.2544
4537 1 12.7898 66.2382 27.9191
10904 2 13.7056 67.7874 26.6263
10958 2 10.9695 66.2247 26.6426
10899 2 11.893 67.8168 29.1877
4490 1 15.5278 67.8 27.9026
10920 2 16.4257 66.2247 26.6426
10856 2 17.3492 67.8168 29.1877
10898 2 14.6099 66.2587 29.2036
4449 1 20.984 67.8 27.9026
4489 1 18.246 66.2382 27.9191
10872 2 19.1619 67.7874 26.6263
10871 2 20.0662 66.2587 29.2036
4528 1 12.8093 69.3605 27.892
10903 2 13.7202 70.9098 26.6064
10959 2 10.9853 69.3492 26.6143
10892 2 11.9141 70.9281 29.1732
4477 1 15.5461 70.9192 27.8855
10902 2 16.4416 69.3492 26.6143
10855 2 17.3703 70.9281 29.1732
10901 2 14.6324 69.3735 29.1778
4448 1 21.0023 70.9192 27.8855
4492 1 18.2655 69.3605 27.892
10859 2 19.1765 70.9098 26.6064
10854 2 20.0886 69.3735 29.1778
4529 1 12.8246 72.4756 27.8826
10893 2 13.728 74.0274 26.5992
10957 2 10.9972 72.4691 26.6015
10891 2 11.9254 74.0323 29.1717
4935 1 12.828 75.5843 27.8808
11389 2 10.9997 75.5853 26.5985
4476 1 15.5562 74.0302 27.8815
10905 2 16.4534 72.4691 26.6015
10845 2 17.3816 74.0323 29.1717
10890 2 14.6497 72.4807 29.172
11341 2 16.456 75.5853 26.5985
11340 2 14.6533 75.5837 29.171
4437 1 21.0125 74.0302 27.8815
4475 1 18.2808 72.4756 27.8826
10858 2 19.1842 74.0274 26.5992
10857 2 20.1059 72.4807 29.172
4900 1 18.2842 75.5843 27.8808
11285 2 20.1096 75.5837 29.171
4502 1 13.6547 58.4948 30.654
4550 1 10.92 56.9363 30.6908
10911 2 12.7334 56.9788 31.978
10915 2 11.84 58.4656 29.3593
4501 1 16.3763 56.9363 30.6908
10866 2 15.4682 58.5385 31.9408
10878 2 17.2963 58.4656 29.3593
10932 2 14.5619 56.9048 29.395
4455 1 19.1109 58.4948 30.654
10836 2 20.9244 58.5385 31.9408
10876 2 18.1897 56.9788 31.978
10877 2 20.0182 56.9048 29.395
4487 1 13.6696 61.6055 30.5757
4534 1 10.9338 60.0509 30.6153
10912 2 12.7477 60.0946 31.901
10914 2 11.8541 61.5831 29.2873
4503 1 16.39 60.0509 30.6153
10865 2 15.4846 61.6477 31.8598
10870 2 17.3104 61.5831 29.2873
10913 2 14.5749 60.0248 29.3229
4454 1 19.1258 61.6055 30.5757
10835 2 20.9408 61.6477 31.8598
10864 2 18.2039 60.0946 31.901
10879 2 20.0312 60.0248 29.3229
4486 1 13.689 64.7181 30.506
4535 1 10.9501 63.161 30.5382
10896 2 12.7662 63.1989 31.8196
4485 1 16.4063 63.161 30.5382
10852 2 15.5062 64.7502 31.7858
4447 1 19.1452 64.7181 30.506
10834 2 20.9625 64.7502 31.7858
10867 2 18.2224 63.1989 31.8196
4473 1 13.7161 67.8335 30.4658
4526 1 10.9731 66.276 30.4812
10897 2 12.7916 66.3014 31.76
4488 1 16.4293 66.276 30.4812
10851 2 15.536 67.8521 31.7461
4446 1 19.1724 67.8335 30.4658
10831 2 20.9922 67.8521 31.7461
10850 2 18.2479 66.3014 31.76
4472 1 13.7431 70.9406 30.4581
4527 1 11.0013 69.3892 30.4588
10888 2 12.8245 69.4008 31.7408
4471 1 16.4575 69.3892 30.4588
10844 2 15.5675 70.9461 31.7455
4436 1 19.1994 70.9406 30.4581
10830 2 21.0237 70.9461 31.7455
10853 2 18.2807 69.4008 31.7408
4464 1 13.7576 74.0354 30.4613
4525 1 11.0249 72.4882 30.4605
10889 2 12.8499 72.4913 31.75
4934 1 11.0293 75.5823 30.4606
11319 2 12.8552 75.5824 31.7514
4474 1 16.4811 72.4882 30.4605
10843 2 15.5835 74.0369 31.7522
4885 1 16.4855 75.5823 30.4606
4435 1 19.2138 74.0354 30.4613
10827 2 21.0398 74.0369 31.7522
10842 2 18.3061 72.4913 31.75
11284 2 18.3114 75.5824 31.7514
4483 1 11.8243 58.5828 33.2449
10862 2 13.6357 58.6342 34.5239
4500 1 14.5458 57.0234 33.28
4479 1 12.7112 57.1365 35.8692
4452 1 17.2806 58.5828 33.2449
10861 2 16.3582 57.0721 34.5611
4440 1 15.4436 58.7054 35.8396
4450 1 18.1674 57.1365 35.8692
4451 1 20.002 57.0234 33.28
10833 2 19.092 58.6342 34.5239
7646 2 21.8144 57.0721 34.5611
4422 1 20.8998 58.7054 35.8396
4482 1 11.8412 61.6847 33.1643
10848 2 13.6521 61.7397 34.4357
10894 2 10.9149 60.1906 34.4824
4480 1 12.721 60.2681 35.8077
4444 1 17.2975 61.6847 33.1643
4481 1 14.5602 60.1362 33.2061
10863 2 16.3711 60.1906 34.4824
4439 1 15.4556 61.8187 35.7702
4438 1 18.1772 60.2681 35.8077
4453 1 20.0165 60.1362 33.2061
10832 2 19.1083 61.7397 34.4357
4421 1 20.9118 61.8187 35.7702
4469 1 11.8624 64.7757 33.078
10847 2 13.6761 64.8194 34.337
10895 2 10.9358 63.2821 34.3855
4465 1 12.7381 63.3622 35.7317
4443 1 17.3186 64.7757 33.078
4484 1 14.5785 63.2291 33.1192
10846 2 16.3921 63.2821 34.3855
4429 1 15.4744 64.8801 35.682
4442 1 20.0347 63.2291 33.1192
10829 2 19.1323 64.8194 34.337
4441 1 18.1944 63.3622 35.7317
4420 1 20.9306 64.8801 35.682
4468 1 11.9016 67.8774 33.0314
10840 2 13.718 67.8909 34.2955
10886 2 10.9697 66.3561 34.3077
4466 1 12.7583 66.4203 35.6408
4433 1 17.3578 67.8774 33.0314
4467 1 14.6075 66.3255 33.0498
10849 2 16.4259 66.3561 34.3077
4428 1 15.5517 67.9145 35.6334
4445 1 20.0637 66.3255 33.0498
10828 2 19.1742 67.8909 34.2955
4427 1 18.2145 66.4203 35.6408
4419 1 21.0079 67.9145 35.6334
4463 1 11.9476 70.9556 33.047
10839 2 13.7699 70.956 34.3267
10887 2 11.0191 69.4195 34.3104
4459 1 12.8554 69.4165 35.665
4432 1 17.4038 70.9556 33.047
4470 1 14.653 69.4204 33.0387
10838 2 16.4754 69.4195 34.3104
4425 1 15.6061 70.958 35.6469
4431 1 20.1093 69.4204 33.0387
10826 2 19.2261 70.956 34.3267
4430 1 18.3116 69.4165 35.665
4418 1 21.0623 70.958 35.6469
4462 1 11.9637 74.0391 33.0503
10837 2 13.7963 74.0393 34.3404
10885 2 11.0598 72.4966 34.3359
4460 1 12.8904 72.4983 35.643
11318 2 11.068 75.5831 34.3396
4863 1 12.8935 75.5856 35.643
4426 1 17.4199 74.0391 33.0503
4461 1 14.6865 72.4961 33.0489
10841 2 16.516 72.4966 34.3359
4424 1 15.6219 74.0385 35.6436
4884 1 14.6916 75.5818 33.0496
11269 2 16.5242 75.5831 34.3396
10825 2 19.2525 74.0393 34.3404
4434 1 20.1427 72.4961 33.0489
4423 1 18.3467 72.4983 35.643
4417 1 21.0781 74.0385 35.6436
4835 1 20.1478 75.5818 33.0496
4834 1 18.3498 75.5856 35.643
11038 2 11.8015 58.757 37.102
16757 1 13.5946 58.8751 38.4231
11040 2 14.5264 57.1856 37.1381
11027 2 17.2577 58.757 37.102
16756 1 16.3285 57.2776 38.447
11026 2 19.9826 57.1856 37.1381
16722 1 19.0508 58.8751 38.4231
13944 1 21.7848 57.2776 38.447
11037 2 11.8127 61.8763 37.0113
16753 1 13.5708 62.0892 38.373
11036 2 14.535 60.3209 37.0601
11024 2 17.2689 61.8763 37.0113
16758 1 16.3143 60.4747 38.4008
11028 2 19.9912 60.3209 37.0601
16721 1 19.027 62.0892 38.373
13942 1 21.7705 60.4747 38.4008
11034 2 11.8404 64.9385 36.8853
16752 1 13.3367 65.5165 38.4408
11023 2 17.2967 64.9385 36.8853
11039 2 14.554 63.4115 36.9467
16751 1 16.2713 63.6954 38.341
11022 2 20.0102 63.4115 36.9467
16716 1 18.7929 65.5165 38.4408
13943 1 21.7276 63.6954 38.341
11033 2 11.8747 67.9083 36.8745
16742 1 13.0994 69.0901 38.3126
11020 2 17.3309 67.9083 36.8745
11032 2 14.5585 66.4284 36.8245
16754 1 15.8055 67.238 38.3874
11025 2 20.0148 66.4284 36.8245
16715 1 18.5556 69.0901 38.3126
13940 1 21.2618 67.238 38.3874
11031 2 12.0123 70.9429 36.9044
16741 1 13.0922 72.4258 38.2561
11019 2 17.4685 70.9429 36.9044
11035 2 14.6905 69.3996 36.8772
16740 1 15.8235 70.7814 38.2487
11018 2 20.1467 69.3996 36.8772
16702 1 18.5485 72.4258 38.2561
13941 1 21.2797 70.7814 38.2487
11030 2 12.0348 74.0377 36.9215
11017 2 17.491 74.0377 36.9215
11029 2 14.7542 72.484 36.9205
16743 1 15.8247 74.0154 38.2498
11448 2 14.7626 75.5883 36.9205
11021 2 20.2104 72.484 36.9205
13939 1 21.2809 74.0154 38.2498
11434 2 20.2188 75.5883 36.9205
22379 2 12.6986 57.3171 39.7018
22362 2 13.6021 59.056 42.2115
16749 1 11.7656 59.0363 40.972
16755 1 14.5015 57.417 41.0013
22366 2 15.4258 58.9103 39.6662
22361 2 16.3335 57.4444 42.2502
16719 1 17.2218 59.0363 40.972
22368 2 18.1548 57.3171 39.7018
19558 2 21.7897 57.4444 42.2502
16718 1 19.9578 57.417 41.0013
22317 2 19.0583 59.056 42.2115
22320 2 20.882 58.9103 39.6662
22380 2 12.6968 60.5088 39.6248
16748 1 11.7318 62.3096 40.9086
22354 2 13.5874 62.3053 42.1158
16747 1 14.4809 60.6621 40.94
22365 2 15.4199 62.1119 39.5805
22363 2 16.325 60.6751 42.1675
16713 1 17.1881 62.3096 40.9086
22364 2 18.153 60.5088 39.6248
19554 2 21.7812 60.6751 42.1675
16720 1 19.9371 60.6621 40.94
22316 2 19.0437 62.3053 42.1158
22319 2 20.8762 62.1119 39.5805
22376 2 12.6865 63.7348 39.521
16738 1 11.7366 65.6233 40.7042
22353 2 13.5429 65.646 41.983
16750 1 14.4422 63.962 40.8654
22358 2 15.3796 65.3699 39.4439
16712 1 17.1928 65.6233 40.7042
22352 2 16.2981 63.9683 42.0558
22367 2 18.1428 63.7348 39.521
19555 2 21.7543 63.9683 42.0558
16711 1 19.8985 63.962 40.8654
22309 2 18.9992 65.646 41.983
22318 2 20.8358 65.3699 39.4439
22377 2 12.5352 67.2525 39.3908
16737 1 11.6604 68.9336 40.6442
22340 2 13.4659 68.9841 41.955
16736 1 14.4673 67.2084 40.5673
22357 2 15.2083 69.0394 39.4251
16699 1 17.1167 68.9336 40.6442
22355 2 16.2339 67.3089 41.9513
22356 2 17.9914 67.2525 39.3908
19550 2 21.6902 67.3089 41.9513
16714 1 19.9236 67.2084 40.5673
22308 2 18.9222 68.9841 41.955
22311 2 20.6646 69.0394 39.4251
22372 2 12.4366 70.7322 39.4652
16730 1 11.5487 72.3147 40.7733
22339 2 13.4153 72.3349 42.0094
16739 1 14.3166 70.6244 40.7313
16698 1 17.0049 72.3147 40.7733
22338 2 16.1635 70.6641 41.9861
22344 2 15.1423 72.3694 39.4923
22359 2 17.8928 70.7322 39.4652
19551 2 21.6198 70.6641 41.9861
16697 1 19.7728 70.6244 40.7313
22294 2 18.8715 72.3349 42.0094
22310 2 20.5986 72.3694 39.4923
22373 2 12.4032 74.0091 39.5085
16728 1 14.2641 73.9826 40.7878
22341 2 16.1327 73.993 42.0227
22342 2 17.8594 74.0091 39.5085
19549 2 21.589 73.993 42.0227
16700 1 19.7203 73.9826 40.7878
16745 1 12.6867 57.5353 43.5364
22350 2 11.785 59.1778 44.7479
22360 2 14.5174 57.5563 44.7895
16709 1 15.4084 59.1624 43.4998
22314 2 17.2412 59.1778 44.7479
16717 1 18.143 57.5353 43.5364
16656 1 20.8647 59.1624 43.4998
22313 2 19.9736 57.5563 44.7895
16746 1 12.6736 60.797 43.4577
22349 2 11.7686 62.4458 44.65
22348 2 14.5067 60.8073 44.7016
16691 1 13.5897 62.5233 45.9209
16708 1 15.3993 62.439 43.3978
22306 2 17.2249 62.4458 44.65
16707 1 18.1298 60.797 43.4577
16655 1 20.8555 62.439 43.3978
22315 2 19.9629 60.8073 44.7016
16652 1 19.046 62.5233 45.9209
16734 1 12.6637 64.0849 43.3197
22336 2 11.7358 65.7315 44.5538
22351 2 14.481 64.089 44.5975
16690 1 13.5609 65.7837 45.8329
16695 1 15.3669 65.7226 43.2677
22305 2 17.192 65.7315 44.5538
16710 1 18.1199 64.0849 43.3197
16689 1 16.3054 64.1547 45.872
13913 1 21.7616 64.1547 45.872
16654 1 20.8231 65.7226 43.2677
22304 2 19.9373 64.089 44.5975
16645 1 19.0171 65.7837 45.8329
16735 1 12.6132 67.3541 43.2305
22335 2 11.691 69.0212 44.5156
22334 2 14.4415 67.3747 44.5267
16676 1 13.5296 69.0466 45.7864
16694 1 15.3185 68.977 43.2054
22291 2 17.1472 69.0212 44.5156
16693 1 18.0695 67.3541 43.2305
16692 1 16.2729 67.4135 45.8035
13904 1 21.7292 67.4135 45.8035
16647 1 20.7747 68.977 43.2054
22307 2 19.8978 67.3747 44.5267
16644 1 18.9859 69.0466 45.7864
16726 1 12.5745 70.6328 43.2222
22328 2 11.6619 72.33 44.5279
22337 2 14.401 70.6721 44.5192
16675 1 13.5119 72.3347 45.779
16680 1 15.2803 72.3032 43.2564
22290 2 17.1181 72.33 44.5279
16696 1 18.0308 70.6328 43.2222
16674 1 16.2466 70.685 45.7774
13905 1 21.7028 70.685 45.7774
16646 1 20.7365 72.3032 43.2564
22289 2 19.8572 70.6721 44.5192
16630 1 18.9681 72.3347 45.779
16727 1 12.5376 73.9816 43.2769
22326 2 14.3844 73.9908 44.5337
16678 1 17.9938 73.9816 43.2769
16677 1 16.2368 73.9922 45.7824
13903 1 21.6931 73.9922 45.7824
22292 2 19.8407 73.9908 44.5337
16687 1 11.7944 59.3305 48.5552
16705 1 13.6027 59.2579 46.0232
22346 2 12.7048 57.6489 47.3268
16703 1 14.5266 57.7054 48.5981
16650 1 17.2507 59.3305 48.5552
16704 1 16.3346 57.63 46.066
22302 2 15.4282 59.2734 47.2847
22312 2 18.161 57.6489 47.3268
13924 1 21.7908 57.63 46.066
16649 1 19.9828 57.7054 48.5981
16653 1 19.059 59.2579 46.0232
22254 2 20.8844 59.2734 47.2847
16686 1 11.7804 62.5829 48.4676
22347 2 12.6933 60.9018 47.2402
16685 1 14.5167 60.9568 48.5107
16642 1 17.2366 62.5829 48.4676
16706 1 16.326 60.8897 45.974
22301 2 15.4123 62.5327 47.1953
22300 2 18.1495 60.9018 47.2402
13912 1 21.7823 60.8897 45.974
16651 1 19.9729 60.9568 48.5107
22253 2 20.8685 62.5327 47.1953
16672 1 11.7592 65.8343 48.3952
22332 2 12.6731 64.1641 47.1539
16688 1 14.4985 64.2085 48.4285
16641 1 17.2154 65.8343 48.3952
22287 2 15.3886 65.7955 47.1185
22303 2 18.1293 64.1641 47.1539
16640 1 19.9548 64.2085 48.4285
22252 2 20.8448 65.7955 47.1185
16671 1 11.7396 69.0908 48.3482
22333 2 12.6469 67.4278 47.0924
16670 1 14.4767 67.4611 48.3683
16627 1 17.1958 69.0908 48.3482
22286 2 15.3623 69.0632 47.0757
22285 2 18.1031 67.4278 47.0924
16643 1 19.933 67.4611 48.3683
22245 2 20.8186 69.0632 47.0757
16664 1 11.7291 72.3617 48.3251
22324 2 12.6234 70.7032 47.067
16673 1 14.4612 70.7242 48.3341
16626 1 17.1854 72.3617 48.3251
22273 2 15.3445 72.3483 47.0634
22288 2 18.0796 70.7032 47.067
16625 1 19.9174 70.7242 48.3341
22244 2 20.8007 72.3483 47.0634
22325 2 12.613 73.998 47.0622
16662 1 14.4557 74.0029 48.3205
22271 2 18.0693 73.998 47.0622
16628 1 19.912 74.0029 48.3205
16683 1 12.7176 57.7658 51.1368
22298 2 13.6172 59.3458 49.8263
22279 2 11.8078 59.4021 52.3723
22296 2 14.5402 57.782 52.4099
16638 1 15.4414 59.3874 51.0969
22297 2 16.3501 57.723 49.8664
16648 1 18.1738 57.7658 51.1368
22248 2 17.264 59.4021 52.3723
19525 2 21.8063 57.723 49.8664
16596 1 20.8977 59.3874 51.0969
22251 2 19.0735 59.3458 49.8263
22247 2 19.9965 57.782 52.4099
16684 1 12.7077 61.0093 51.0574
22283 2 13.6039 62.5949 49.7469
22278 2 11.7969 62.6435 52.3004
22277 2 14.5308 61.0227 52.3355
16637 1 15.4291 62.6313 51.0199
22299 2 16.3393 60.97 49.7859
16636 1 18.164 61.0093 51.0574
22240 2 17.2531 62.6435 52.3004
19510 2 21.7955 60.97 49.7859
16595 1 20.8854 62.6313 51.0199
22250 2 19.0601 62.5949 49.7469
22249 2 19.987 61.0227 52.3355
16668 1 12.6935 64.2533 50.9855
22282 2 13.5868 65.8457 49.6797
22265 2 11.7843 65.8862 52.2391
22280 2 14.5188 64.2646 52.268
16623 1 15.4139 65.8758 50.9552
22281 2 16.3237 64.2201 49.711
16639 1 18.1497 64.2533 50.9855
22239 2 17.2406 65.8862 52.2391
19511 2 21.7799 64.2201 49.711
16594 1 20.8702 65.8758 50.9552
22243 2 19.043 65.8457 49.6797
22238 2 19.975 64.2646 52.268
22263 2 14.5064 67.5086 52.2145
16669 1 12.6787 67.4992 50.9294
22269 2 13.57 69.1014 49.6347
22264 2 11.7729 69.1324 52.1946
22229 2 17.2292 69.1324 52.1946
16622 1 15.401 69.1243 50.9083
22284 2 16.3061 67.4724 49.6542
16621 1 18.135 67.4992 50.9294
19502 2 21.7623 67.4724 49.6542
22241 2 19.9626 67.5086 52.2145
16588 1 20.8572 69.1243 50.9083
22242 2 19.0262 69.1014 49.6347
22266 2 14.4967 70.7578 52.1794
22259 2 11.7655 72.3849 52.1689
16660 1 12.6685 70.7514 50.8922
22268 2 13.5589 72.3685 49.6123
22228 2 17.2218 72.3849 52.1689
16611 1 15.3939 72.3804 50.8809
22267 2 16.2916 70.7334 49.6211
16624 1 18.1248 70.7514 50.8922
19503 2 21.7478 70.7334 49.6211
22227 2 19.9529 70.7578 52.1794
16587 1 20.8501 72.3804 50.8809
22232 2 19.0151 72.3685 49.6123
22257 2 14.492 74.013 52.1632
16661 1 12.6644 74.0107 50.8747
22270 2 16.2847 74.0061 49.6076
16609 1 18.1206 74.0107 50.8747
22230 2 19.9483 74.013 52.1632
19501 2 21.7409 74.0061 49.6076
16634 1 13.6325 59.434 53.644
22275 2 12.731 57.8305 54.9567
16633 1 16.3646 57.8153 53.681
22236 2 15.4554 59.4479 54.9215
22246 2 18.1873 57.8305 54.9567
13862 1 21.8209 57.8153 53.681
16593 1 19.0887 59.434 53.644
22218 2 20.9116 59.4479 54.9215
16619 1 13.6224 62.6715 53.574
22276 2 12.723 61.0655 54.8874
16635 1 16.3558 61.0527 53.6081
22235 2 15.4465 62.6831 54.855
22234 2 18.1792 61.0655 54.8874
13846 1 21.8121 61.0527 53.6081
16592 1 19.0786 62.6715 53.574
22217 2 20.9027 62.6831 54.855
16618 1 13.6112 65.9097 53.5143
22261 2 12.7136 64.301 54.8251
16617 1 16.3449 64.2905 53.5426
22225 2 15.4369 65.9191 54.7981
22237 2 18.1698 64.301 54.8251
13847 1 21.8011 64.2905 53.5426
16586 1 19.0675 65.9097 53.5143
22216 2 20.8932 65.9191 54.7981
22262 2 12.7044 67.5377 54.7748
16607 1 13.602 69.1501 53.4692
22223 2 18.1606 67.5377 54.7748
22224 2 15.4287 69.1569 54.7554
16620 1 16.3343 67.5295 53.4897
13838 1 21.7906 67.5295 53.4897
22215 2 20.8849 69.1569 54.7554
16585 1 19.0582 69.1501 53.4692
22255 2 12.6974 70.7769 54.7402
16606 1 13.5966 72.3939 53.4418
22226 2 18.1537 70.7769 54.7402
22221 2 15.4234 72.3976 54.7296
16605 1 16.3269 70.7716 53.4531
13839 1 21.7831 70.7716 53.4531
22214 2 20.8796 72.3976 54.7296
16579 1 19.0528 72.3939 53.4418
22256 2 12.6941 74.0187 54.7237
16608 1 16.3236 74.0166 53.4355
22219 2 18.1503 74.0187 54.7237
13837 1 21.7798 74.0166 53.4355
16615 1 11.8239 59.4734 56.1943
16931 1 12.7466 57.894 58.7794
22572 2 10.9221 57.8718 57.506
22565 2 13.647 59.4867 57.4728
16632 1 14.5556 57.8573 56.2289
16590 1 17.2802 59.4734 56.1943
16918 1 15.4716 59.5077 58.7466
22564 2 16.3784 57.8718 57.506
16872 1 20.9279 59.5077 58.7466
16589 1 20.0118 57.8573 56.2289
16920 1 18.2028 57.894 58.7794
22530 2 19.1032 59.4867 57.4728
16614 1 11.8156 62.7055 56.1293
16932 1 12.7401 61.1213 58.7151
22570 2 10.9153 61.1016 57.4408
22561 2 13.6396 62.7165 57.4105
16613 1 14.548 61.0894 56.1609
16917 1 15.4647 62.7347 58.6854
16583 1 17.2719 62.7055 56.1293
22566 2 16.3715 61.1016 57.4408
16871 1 20.921 62.7347 58.6854
16591 1 20.0043 61.0894 56.1609
16916 1 18.1964 61.1213 58.7151
22529 2 19.0958 62.7165 57.4105
16603 1 11.8071 65.9376 56.0736
16928 1 12.7331 64.348 58.658
22560 2 13.6321 65.9463 57.3573
16616 1 14.5394 64.3215 56.1
16910 1 15.4578 65.9612 58.6332
16582 1 17.2633 65.9376 56.0736
22559 2 16.3639 64.3313 57.3825
16919 1 18.1893 64.348 58.658
16870 1 20.9141 65.9612 58.6332
16581 1 19.9956 64.3215 56.1
22524 2 19.0883 65.9463 57.3573
19751 2 21.8201 64.3313 57.3825
16602 1 11.8 69.1705 56.031
16929 1 12.7266 67.5742 58.6114
22550 2 13.6257 69.1766 57.3168
16601 1 14.5314 67.5539 56.0504
16909 1 15.4521 69.1872 58.5932
16576 1 17.2562 69.1705 56.031
22562 2 16.3568 67.5613 57.3352
16908 1 18.1829 67.5742 58.6114
16863 1 20.9083 69.1872 58.5932
16584 1 19.9876 67.5539 56.0504
22523 2 19.0819 69.1766 57.3168
19748 2 21.813 67.5613 57.3352
16599 1 11.7957 72.4044 56.0049
16924 1 12.7219 70.8002 58.5789
22549 2 13.6216 72.4078 57.2921
16604 1 14.5256 70.7873 56.0157
16896 1 15.4485 72.4132 58.5687
16575 1 17.2519 72.4044 56.0049
22548 2 16.3514 70.7921 57.3023
16911 1 18.1781 70.8002 58.5789
16862 1 20.9048 72.4132 58.5687
16574 1 19.9818 70.7873 56.0157
22510 2 19.0779 72.4078 57.2921
19749 2 21.8077 70.7921 57.3023
16925 1 12.7196 74.0262 58.5629
16597 1 14.5228 74.0217 55.9988
22551 2 16.3488 74.0237 57.2864
16894 1 18.1758 74.0262 58.5629
16577 1 19.9791 74.0217 55.9988
19747 2 21.8051 74.0237 57.2864
16914 1 13.6629 59.5388 61.3005
16930 1 10.9375 57.9273 61.3318
22557 2 11.8385 59.5209 60.0257
16913 1 16.3938 57.9273 61.3318
22527 2 17.2947 59.5209 60.0257
22563 2 14.5695 57.9083 60.0573
22517 2 15.486 59.5523 62.5798
16869 1 19.1192 59.5388 61.3005
22526 2 20.0257 57.9083 60.0573
22464 2 20.9422 59.5523 62.5798
16906 1 13.657 62.7609 61.2424
16926 1 10.9319 61.15 61.2706
22556 2 11.8323 62.7455 59.9668
22554 2 12.7552 61.1623 62.5509
16915 1 16.3881 61.15 61.2706
22521 2 17.2885 62.7455 59.9668
22555 2 14.5635 61.1333 59.9954
22516 2 15.4806 62.7721 62.5237
16868 1 19.1133 62.7609 61.2424
22528 2 20.0198 61.1333 59.9954
22463 2 20.9368 62.7721 62.5237
22515 2 18.2114 61.1623 62.5509
16905 1 13.6512 65.9819 61.1931
16927 1 10.9259 64.3716 61.2165
22546 2 11.8261 65.9696 59.9166
22542 2 12.7498 64.3815 62.4986
16904 1 16.3822 64.3716 61.2165
22520 2 17.2823 65.9696 59.9166
22558 2 14.5572 64.3576 59.9404
22503 2 15.4753 65.9906 62.4761
16861 1 19.1075 65.9819 61.1931
22519 2 20.0135 64.3576 59.9404
22462 2 20.9316 65.9906 62.4761
22518 2 18.206 64.3815 62.4986
16892 1 13.6465 69.2018 61.1555
16922 1 10.9206 67.592 61.1726
22545 2 11.8209 69.1931 59.8785
22543 2 12.7449 67.5994 62.4564
22544 2 14.5514 67.5814 59.8959
16907 1 16.3768 67.592 61.1726
22507 2 17.2771 69.1931 59.8785
22502 2 15.471 69.208 62.4399
16860 1 19.1027 69.2018 61.1555
22522 2 20.0077 67.5814 59.8959
22455 2 20.9272 69.208 62.4399
22501 2 18.2011 67.5994 62.4564
16891 1 13.6434 72.4211 61.1323
16923 1 10.9166 70.8115 61.1419
22538 2 11.8176 72.4166 59.855
22547 2 14.5471 70.8049 59.8648
22534 2 12.7412 70.8164 62.4269
16890 1 16.3728 70.8115 61.1419
22506 2 17.2738 72.4166 59.855
22488 2 15.4682 72.4247 62.4176
16846 1 19.0996 72.4211 61.1323
22505 2 20.0033 70.8049 59.8648
22454 2 20.9244 72.4247 62.4176
22504 2 18.1975 70.8164 62.4269
22536 2 14.545 74.0283 59.8494
22535 2 12.7394 74.0329 62.4122
16921 1 10.9146 74.0306 61.1267
16893 1 16.3708 74.0306 61.1267
22508 2 20.0012 74.0283 59.8494
22486 2 18.1956 74.0329 62.4122
16902 1 11.8539 59.5681 63.8561
22513 2 13.6769 59.5825 65.1348
22552 2 10.9511 57.9742 65.164
22553 2 12.7604 57.9419 62.6102
16866 1 17.3101 59.5681 63.8561
16912 1 14.5844 57.9587 63.8861
22512 2 16.4073 57.9742 65.164
16865 1 20.0407 57.9587 63.8861
22461 2 19.1331 59.5825 65.1348
22525 2 18.2167 57.9419 62.6102
16901 1 11.8487 62.7855 63.8005
22499 2 13.6721 62.7975 65.0808
22540 2 10.9464 61.1902 65.1069
16858 1 17.3049 62.7855 63.8005
16900 1 14.5794 61.177 63.8274
22514 2 16.4026 61.1902 65.1069
16867 1 20.0357 61.177 63.8274
22460 2 19.1283 62.7975 65.0808
16888 1 11.8437 66.0012 63.7535
22498 2 13.6674 66.0107 65.0353
22541 2 10.9416 64.4043 65.0569
16857 1 17.3 66.0012 63.7535
16903 1 14.5743 64.3935 63.7758
22497 2 16.3978 64.4043 65.0569
16856 1 20.0305 64.3935 63.7758
22453 2 19.1237 66.0107 65.0353
16887 1 11.8396 69.2155 63.7178
22484 2 13.6636 69.2222 65.0008
22532 2 10.9373 67.6166 65.0165
16843 1 17.2958 69.2155 63.7178
16886 1 14.5696 67.6085 63.7341
22500 2 16.3935 67.6166 65.0165
16859 1 20.0259 67.6085 63.7341
22452 2 19.1198 69.2222 65.0008
16880 1 11.8369 72.4287 63.6957
22483 2 13.6611 72.4326 64.9793
22533 2 10.9341 70.8275 64.9883
16842 1 17.2932 72.4287 63.6957
16889 1 14.5662 70.8222 63.7049
22482 2 16.3903 70.8275 64.9883
16841 1 20.0224 70.8222 63.7049
22438 2 19.1174 72.4326 64.9793
22531 2 10.9324 74.0376 64.974
16878 1 14.5644 74.035 63.6903
22485 2 16.3886 74.0376 64.974
16844 1 20.0206 74.035 63.6903
16898 1 12.7746 57.9895 66.4431
22495 2 11.8673 59.613 67.6895
16850 1 13.69 59.6261 68.9773
16897 1 10.9639 58.0208 69.0056
16854 1 15.5005 59.5968 66.414
22458 2 17.3235 59.613 67.6895
22511 2 14.5975 58.0069 67.7179
16849 1 16.4201 58.0208 69.0056
16806 1 20.9568 59.5968 66.414
16864 1 18.2309 57.9895 66.4431
22457 2 20.0538 58.0069 67.7179
16803 1 19.1462 59.6261 68.9773
16899 1 12.7701 61.2035 66.3863
22494 2 11.8628 62.8234 67.6374
16835 1 13.6858 62.8344 68.9255
16882 1 10.9598 61.2306 68.9505
16853 1 15.4959 62.8096 66.3605
22450 2 17.3191 62.8234 67.6374
22493 2 14.5932 61.2185 67.6626
16851 1 16.416 61.2306 68.9505
16805 1 20.9521 62.8096 66.3605
16852 1 18.2263 61.2035 66.3863
22459 2 20.0494 61.2185 67.6626
16802 1 19.142 62.8344 68.9255
16884 1 12.7655 64.4152 66.3367
22480 2 11.8586 66.0311 67.5936
16834 1 13.6819 66.04 68.8819
16883 1 10.9557 64.4375 68.9026
16839 1 15.4915 66.0202 66.3154
22449 2 17.3148 66.0311 67.5936
22496 2 14.5888 64.4275 67.6143
16833 1 16.4119 64.4375 68.9026
16804 1 20.9477 66.0202 66.3154
16855 1 18.2218 64.4152 66.3367
22448 2 20.045 64.4275 67.6143
16795 1 19.1381 66.04 68.8819
16885 1 12.7614 67.6248 66.2968
22479 2 11.8551 69.2368 67.5603
16821 1 13.6786 69.2433 68.8489
16874 1 10.952 67.6419 68.864
16838 1 15.4878 69.229 66.2812
22435 2 17.3113 69.2368 67.5603
22478 2 14.5849 67.6342 67.5755
16836 1 16.4082 67.6419 68.864
16797 1 20.9441 69.229 66.2812
16837 1 18.2177 67.6248 66.2968
22451 2 20.0411 67.6342 67.5755
16794 1 19.1348 69.2433 68.8489
16876 1 12.7583 70.8328 66.2688
22472 2 11.8528 72.4409 67.5394
16820 1 13.6764 72.4449 68.8282
16875 1 10.9492 70.8443 68.8369
16825 1 15.4854 72.4364 66.2599
22434 2 17.309 72.4409 67.5394
22481 2 14.5819 70.839 67.5482
16819 1 16.4055 70.8443 68.8369
16796 1 20.9417 72.4364 66.2599
16840 1 18.2146 70.8328 66.2688
22433 2 20.0381 70.839 67.5482
16784 1 19.1327 72.4449 68.8282
16877 1 12.7567 74.0399 66.2545
16873 1 10.9477 74.0454 68.8229
22470 2 14.5803 74.0427 67.5341
16822 1 16.404 74.0454 68.8229
16823 1 18.213 74.0399 66.2545
22436 2 20.0366 74.0427 67.5341
16831 1 11.8755 59.6562 71.5571
22491 2 12.7876 58.041 70.2673
16800 1 17.3317 59.6562 71.5571
16848 1 14.6054 58.0529 71.5846
22446 2 15.5136 59.6451 70.2395
16799 1 20.0616 58.0529 71.5846
22404 2 20.9699 59.6451 70.2395
22456 2 18.2438 58.041 70.2673
16830 1 11.8718 62.86 71.5066
22492 2 12.7834 61.2483 70.2132
16792 1 17.3281 62.86 71.5066
16829 1 14.6018 61.2586 71.531
22445 2 15.5095 62.8506 70.1887
16801 1 20.058 61.2586 71.531
22403 2 20.9657 62.8506 70.1887
22444 2 18.2397 61.2483 70.2132
16817 1 11.8684 66.0604 71.4643
22476 2 12.7793 64.4521 70.1662
16791 1 17.3246 66.0604 71.4643
16832 1 14.5982 64.4606 71.4843
22431 2 15.5055 66.0528 70.1461
16790 1 20.0544 64.4606 71.4843
22402 2 20.9618 66.0528 70.1461
22447 2 18.2356 64.4521 70.1662
16816 1 11.8655 69.2579 71.4323
22477 2 12.7757 67.6528 70.1285
16781 1 17.3217 69.2579 71.4323
16815 1 14.5949 67.6595 71.4469
22430 2 15.5023 69.2522 70.1138
16793 1 20.0512 67.6595 71.4469
22396 2 20.9585 69.2522 70.1138
22429 2 18.2319 67.6528 70.1285
16811 1 11.8636 72.4533 71.4122
22468 2 12.7729 70.8511 70.1021
16780 1 17.3198 72.4533 71.4122
16818 1 14.5925 70.8558 71.4207
22419 2 15.5001 72.4496 70.0936
16779 1 20.0488 70.8558 71.4207
22395 2 20.9564 72.4496 70.0936
22432 2 18.2291 70.8511 70.1021
22469 2 12.7714 74.0478 70.0884
16809 1 14.5912 74.0506 71.4071
16782 1 20.0475 74.0506 71.4071
22417 2 18.2277 74.0478 70.0884
16827 1 12.7471 58.0817 74.2418
22423 2 11.8699 59.7085 75.2623
22442 2 13.702 59.6791 72.777
22490 2 10.9759 58.077 72.8043
16788 1 15.4754 59.6835 74.2144
22398 2 17.3261 59.7085 75.2623
22440 2 14.5992 58.108 75.2887
22441 2 16.4321 58.077 72.8043
16770 1 20.9316 59.6835 74.2144
16798 1 18.2034 58.0817 74.2418
22397 2 20.0555 58.108 75.2887
22401 2 19.1583 59.6791 72.777
16828 1 12.7473 61.2842 74.1885
22422 2 11.8673 62.9053 75.2141
22427 2 13.698 62.8797 72.7273
22474 2 10.9719 61.2799 72.7513
16787 1 15.4755 62.8838 74.1644
22391 2 17.3236 62.9053 75.2141
22421 2 14.5967 61.3075 75.2373
22443 2 16.4281 61.2799 72.7513
16769 1 20.9317 62.8838 74.1644
16786 1 18.2036 61.2842 74.1885
22399 2 20.053 61.3075 75.2373
22400 2 19.1542 62.8797 72.7273
16813 1 12.7474 64.4823 74.1422
22411 2 11.8648 66.0968 75.1738
22426 2 13.6941 66.0759 72.6857
22475 2 10.9679 64.4783 72.7053
16777 1 15.4755 66.0799 74.1224
22390 2 17.3211 66.0968 75.1738
22424 2 14.5942 64.5016 75.1928
22425 2 16.4241 64.4783 72.7053
16768 1 20.9318 66.0799 74.1224
16789 1 18.2036 64.4823 74.1422
22389 2 20.0504 64.5016 75.1928
22394 2 19.1504 66.0759 72.6857
16814 1 12.7474 67.6766 74.1051
22410 2 11.8627 69.2837 75.1435
22415 2 13.691 69.2685 72.6542
22466 2 10.9643 67.6726 72.6685
16776 1 15.4755 69.2724 74.0906
22384 2 17.319 69.2837 75.1435
22409 2 14.5918 67.6907 75.1573
22428 2 16.4206 67.6726 72.6685
16767 1 20.9318 69.2724 74.0906
16775 1 18.2037 67.6766 74.1051
22392 2 20.0481 67.6907 75.1573
22393 2 19.1472 69.2685 72.6542
16807 1 12.7474 70.8676 74.0791
22467 2 10.9616 70.8638 72.6428
22412 2 14.59 70.8759 75.1325
22413 2 16.4179 70.8638 72.6428
16778 1 18.2037 70.8676 74.0791
22382 2 20.0463 70.8759 75.1325
22407 2 11.8613 72.4673 75.1246
22414 2 13.6889 72.4585 72.6345
22465 2 10.9602 74.0529 72.6295
16808 1 12.7474 74.0567 74.0657
16773 1 15.4756 72.4623 74.0708
22383 2 17.3176 72.4673 75.1246
22416 2 16.4164 74.0529 72.6295
22405 2 14.5891 74.0584 75.1198
16766 1 20.9318 72.4623 74.0708
22387 2 19.1451 72.4585 72.6345
22385 2 20.0453 74.0584 75.1198
16771 1 18.2037 74.0567 74.0657
11217 2 11.8469 77.164 -1.57758
11225 2 13.6772 77.1641 -4.07108
4800 1 12.7894 78.7485 -3.01609
4786 1 15.518 77.1601 -3.01924
11187 2 17.3031 77.164 -1.57758
11215 2 14.5748 78.7531 -1.57441
4740 1 20.9743 77.1601 -3.01924
11190 2 19.1334 77.1641 -4.07108
4784 1 18.2456 78.7485 -3.01609
11188 2 20.031 78.7531 -1.57441
11216 2 11.8463 80.3421 -1.56915
11221 2 13.6762 80.3461 -4.06287
11230 2 10.9487 78.7552 -4.06799
4785 1 15.5166 80.3369 -3.01086
11181 2 17.3025 80.3421 -1.56915
11226 2 16.4049 78.7552 -4.06799
4739 1 20.9728 80.3369 -3.01086
11189 2 19.1325 80.3461 -4.06287
4796 1 12.7872 81.925 -3.0036
11206 2 11.8451 83.5188 -1.55254
11220 2 13.6745 83.5267 -4.0467
11231 2 10.9473 81.9366 -4.05575
4778 1 15.5137 83.5128 -2.99436
11180 2 17.3014 83.5188 -1.55254
11218 2 14.5739 81.9307 -1.56184
11219 2 16.4036 81.9366 -4.05575
4738 1 20.97 83.5128 -2.99436
4787 1 18.2434 81.925 -3.0036
11179 2 20.0301 81.9307 -1.56184
11184 2 19.1307 83.5267 -4.0467
4797 1 12.7837 85.1002 -2.98322
11205 2 11.8435 86.6934 -1.5283
11210 2 13.672 86.7052 -4.02312
11228 2 10.9452 85.1163 -4.0358
4777 1 15.5097 86.6871 -2.97026
11167 2 17.2998 86.6934 -1.5283
11204 2 14.5725 85.1064 -1.54134
11222 2 16.4014 85.1163 -4.0358
4731 1 20.9659 86.6871 -2.97026
4776 1 18.24 85.1002 -2.98322
11182 2 20.0287 85.1064 -1.54134
11183 2 19.1282 86.7052 -4.02312
4792 1 12.7791 88.2736 -2.95558
11198 2 11.8416 89.8651 -1.49718
11209 2 13.6689 89.8808 -3.99285
11229 2 10.9424 88.2934 -4.00876
4764 1 15.5046 89.8594 -2.93929
11166 2 17.2979 89.8651 -1.49718
11207 2 14.5707 88.2797 -1.51355
11208 2 16.3986 88.2934 -4.00876
4730 1 20.9608 89.8594 -2.93929
4779 1 18.2354 88.2736 -2.95558
11165 2 20.027 88.2797 -1.51355
11170 2 19.1252 89.8808 -3.99285
4793 1 12.7736 91.4446 -2.92152
11197 2 11.8396 93.0335 -1.46014
11199 2 13.6655 93.0528 -3.95682
11227 2 10.9391 91.4672 -3.97549
4763 1 15.4987 93.029 -2.90239
11149 2 17.2958 93.0335 -1.46014
11196 2 14.5687 91.4498 -1.47934
11211 2 16.3954 91.4672 -3.97549
4715 1 20.955 93.029 -2.90239
4762 1 18.2299 91.4446 -2.92152
11168 2 20.025 91.4498 -1.47934
11169 2 19.1217 93.0528 -3.95682
4770 1 11.8518 77.1609 2.22885
4782 1 13.6706 77.1615 -0.358632
4794 1 10.9422 78.7487 -0.355448
11214 2 12.7586 78.7489 0.97134
4734 1 17.3081 77.1609 2.22885
11177 2 15.4869 77.1623 0.968099
4768 1 14.5797 78.7459 2.23212
4783 1 16.3985 78.7487 -0.355448
4737 1 19.1268 77.1615 -0.358632
11124 2 20.9432 77.1623 0.968099
4735 1 20.0359 78.7459 2.23212
11175 2 18.2148 78.7489 0.97134
4769 1 11.8511 80.3307 2.23755
4774 1 13.6699 80.3358 -0.350168
4726 1 17.3074 80.3307 2.23755
11176 2 15.4863 80.3352 0.976712
4736 1 19.1261 80.3358 -0.350168
11123 2 20.9425 80.3352 0.976712
4756 1 11.8498 83.4995 2.25467
4773 1 13.6685 83.5089 -0.333501
4795 1 10.9412 81.9225 -0.342833
11202 2 12.7576 81.9212 0.984173
4725 1 17.306 83.4995 2.25467
4771 1 14.5786 81.9153 2.24508
4772 1 16.3974 81.9225 -0.342833
11163 2 15.4851 83.5069 0.993662
4724 1 20.0349 81.9153 2.24508
4729 1 19.1248 83.5089 -0.333501
11122 2 20.9413 83.5069 0.993662
11178 2 18.2139 81.9212 0.984173
4755 1 11.8479 86.6667 2.27968
4760 1 13.6666 86.6803 -0.309148
4790 1 10.9395 85.0949 -0.322244
11203 2 12.7561 85.092 1.0051
4711 1 17.3042 86.6667 2.27968
4754 1 14.577 85.0833 2.26623
4775 1 16.3958 85.0949 -0.322244
11162 2 15.4834 86.6767 1.01841
4727 1 20.0333 85.0833 2.26623
4728 1 19.1229 86.6803 -0.309148
11115 2 20.9396 86.6767 1.01841
11161 2 18.2124 85.092 1.0051
4748 1 11.8457 89.8319 2.3118
4759 1 13.6644 89.8494 -0.277856
4791 1 10.9374 88.2652 -0.294314
11194 2 12.7543 88.2607 1.03347
4710 1 17.302 89.8319 2.3118
4757 1 14.575 88.2496 2.29491
4758 1 16.3937 88.2652 -0.294314
11148 2 15.4813 89.8441 1.05017
4709 1 20.0312 88.2496 2.29491
4714 1 19.1206 89.8494 -0.277856
11114 2 20.9376 89.8441 1.05017
11164 2 18.2105 88.2607 1.03347
4747 1 11.8433 92.9946 2.35003
4749 1 13.6618 93.0156 -0.240576
4789 1 10.935 91.4328 -0.259899
11195 2 12.7521 91.4268 1.06838
4693 1 17.2995 92.9946 2.35003
4746 1 14.5726 91.4135 2.33022
4761 1 16.3912 91.4328 -0.259899
11147 2 15.4791 93.0088 1.08796
4712 1 20.0289 91.4135 2.33022
4713 1 19.118 93.0156 -0.240576
11099 2 20.9353 93.0088 1.08796
11146 2 18.2083 91.4268 1.06838
11173 2 13.6712 77.1615 3.52714
4767 1 12.7634 78.7437 4.80436
11200 2 10.9428 78.7456 3.53046
4722 1 15.4918 77.1608 4.80099
11174 2 16.3991 78.7456 3.53046
4668 1 20.9481 77.1608 4.80099
11121 2 19.1275 77.1615 3.52714
4720 1 18.2196 78.7437 4.80436
11159 2 13.6705 80.3296 3.53596
4721 1 15.491 80.3265 4.80995
4667 1 20.9473 80.3265 4.80995
11120 2 19.1267 80.3296 3.53596
4752 1 12.7622 81.909 4.81771
11158 2 13.6691 83.4967 3.5533
11201 2 10.9418 81.9133 3.54359
4707 1 15.4895 83.4912 4.82758
11157 2 16.398 81.9133 3.54359
4666 1 20.9458 83.4912 4.82758
4723 1 18.2185 81.909 4.81771
11113 2 19.1253 83.4967 3.5533
4753 1 12.7605 85.073 4.83948
11144 2 13.6672 86.6622 3.57862
11192 2 10.9401 85.0797 3.56501
4706 1 15.4875 86.6545 4.85332
11160 2 16.3963 85.0797 3.56501
4659 1 20.9437 86.6545 4.85332
4705 1 18.2167 85.073 4.83948
11112 2 19.1234 86.6622 3.57862
11193 2 10.938 88.2442 3.59402
11143 2 13.6649 89.8256 3.6111
4744 1 12.7582 88.2354 4.86898
11142 2 16.3942 88.2442 3.59402
4692 1 15.485 89.8159 4.88635
11098 2 19.1211 89.8256 3.6111
4708 1 18.2144 88.2354 4.86898
4658 1 20.9413 89.8159 4.88635
11191 2 10.9355 91.4065 3.62971
11133 2 13.6623 92.9867 3.64971
4745 1 12.7556 91.3958 4.90528
11145 2 16.3918 91.4065 3.62971
4691 1 15.4823 92.9752 4.92562
11097 2 19.1186 92.9867 3.64971
4690 1 18.2118 91.3958 4.90528
4644 1 20.9385 92.9752 4.92562
4718 1 13.6752 77.1613 7.36783
11155 2 11.855 77.1613 6.09012
4750 1 10.9467 78.7422 7.37146
11152 2 12.7666 78.7414 8.65793
11106 2 15.4952 77.1613 8.65417
11118 2 17.3112 77.1613 6.09012
4719 1 16.4029 78.7422 7.37146
11153 2 14.5827 78.7434 6.09363
4665 1 19.1314 77.1613 7.36783
11064 2 20.9514 77.1613 8.65417
11104 2 18.2229 78.7414 8.65793
11119 2 20.039 78.7434 6.09363
4703 1 13.6742 80.3231 7.3774
11154 2 11.8541 80.3252 6.0994
4751 1 10.9453 81.9037 7.38559
11136 2 12.765 81.901 8.67241
11105 2 15.4941 80.3213 8.66403
11110 2 17.3103 80.3252 6.0994
4701 1 16.4015 81.9037 7.38559
4664 1 19.1304 80.3231 7.3774
11063 2 20.9503 80.3213 8.66403
11107 2 18.2213 81.901 8.67241
4702 1 13.6724 83.484 7.39596
11140 2 11.8524 83.4882 6.11748
11091 2 15.4921 83.4804 8.68301
11109 2 17.3087 83.4882 6.11748
11156 2 14.5815 81.9069 6.10738
4657 1 19.1287 83.484 7.39596
11062 2 20.9483 83.4804 8.68301
11108 2 20.0377 81.9069 6.10738
4688 1 13.6701 86.6436 7.4229
4742 1 10.9432 85.064 7.40844
11137 2 12.7627 85.0595 8.69572
11139 2 11.8503 86.6498 6.14375
4704 1 16.3994 85.064 7.40844
11090 2 15.4895 86.6383 8.71044
11095 2 17.3065 86.6498 6.14375
11138 2 14.5795 85.0692 6.12964
4656 1 19.1263 86.6436 7.4229
11056 2 20.9458 86.6383 8.71044
11089 2 18.219 85.0595 8.69572
11111 2 20.0358 85.0692 6.12964
4687 1 13.6674 89.8015 7.45729
4743 1 10.9406 88.2228 7.43923
11128 2 12.76 88.2166 8.72704
11132 2 11.8477 89.8095 6.17733
4686 1 16.3969 88.2228 7.43923
11079 2 15.4865 89.7945 8.74537
11094 2 17.3039 89.8095 6.17733
11141 2 14.5771 88.2299 6.15969
4643 1 19.1236 89.8015 7.45729
11055 2 20.9428 89.7945 8.74537
11092 2 18.2162 88.2166 8.72704
11093 2 20.0334 88.2299 6.15969
4677 1 13.6643 92.9576 7.49799
4741 1 10.9378 91.3798 7.47694
11129 2 12.7568 91.3719 8.76527
11131 2 11.8448 92.9672 6.21711
4689 1 16.394 91.3798 7.47694
11078 2 15.4833 92.9489 8.78657
11080 2 17.3011 92.9672 6.21711
11130 2 14.5744 91.3886 6.19652
4642 1 19.1206 92.9576 7.49799
11048 2 20.9395 92.9489 8.78657
11077 2 18.2131 91.3719 8.76527
11096 2 20.0307 91.3886 6.19652
4699 1 11.8593 77.1613 9.93284
11102 2 13.6798 77.1611 11.2182
11134 2 10.951 78.7393 11.2222
4696 1 12.7716 78.7383 12.501
4662 1 17.3155 77.1613 9.93284
4650 1 15.5004 77.1611 12.4968
4697 1 14.5869 78.7404 9.93676
11103 2 16.4073 78.7393 11.2222
11061 2 19.136 77.1611 11.2182
4620 1 20.9567 77.1611 12.4968
4663 1 20.0431 78.7404 9.93676
4648 1 18.2278 78.7383 12.501
4698 1 11.858 80.3194 9.94308
11087 2 13.6783 80.3173 11.2287
11135 2 10.949 81.8952 11.2376
4680 1 12.7692 81.8924 12.517
4654 1 17.3142 80.3194 9.94308
4649 1 15.4987 80.3155 12.5078
4700 1 14.5851 81.8982 9.95175
11085 2 16.4052 81.8952 11.2376
11060 2 19.1345 80.3173 11.2287
4619 1 20.9549 80.3155 12.5078
4652 1 20.0414 81.8982 9.95175
4651 1 18.2255 81.8924 12.517
4684 1 11.8558 83.4767 9.9627
11086 2 13.6758 83.4727 11.2488
11126 2 10.9461 85.05 11.2621
4681 1 12.766 85.0456 12.5425
4653 1 17.3121 83.4767 9.9627
4636 1 15.4958 83.4691 12.5286
11088 2 16.4024 85.05 11.2621
11054 2 19.132 83.4727 11.2488
4618 1 20.9521 83.4691 12.5286
4634 1 18.2223 85.0456 12.5425
4683 1 11.853 86.6328 9.991
11075 2 13.6726 86.627 11.2776
11127 2 10.9427 88.2036 11.295
4672 1 12.7623 88.1974 12.5765
4640 1 17.3093 86.6328 9.991
4682 1 14.5826 85.0549 9.97582
4635 1 15.4923 86.6217 12.5585
11073 2 16.399 88.2036 11.295
4655 1 20.0388 85.0549 9.97582
11053 2 19.1288 86.627 11.2776
4615 1 20.9486 86.6217 12.5585
4637 1 18.2185 88.1974 12.5765
4676 1 11.8498 89.7873 10.027
11074 2 13.669 89.7798 11.3141
4639 1 17.306 89.7873 10.027
4685 1 14.5796 88.2102 10.0081
4638 1 20.0358 88.2102 10.0081
11047 2 19.1253 89.7798 11.3141
4675 1 11.8463 92.9401 10.0693
11068 2 13.6652 92.9309 11.3571
11125 2 10.9391 91.3556 11.3349
4629 1 17.3026 92.9401 10.0693
4674 1 14.5762 91.3639 10.0474
11076 2 16.3953 91.3556 11.3349
4641 1 20.0325 91.3639 10.0474
11046 2 19.1215 92.9309 11.3571
4646 1 13.6862 77.1604 15.0599
11083 2 11.8651 77.1606 13.7817
4678 1 10.9571 78.7357 15.0645
11058 2 17.3214 77.1606 13.7817
4647 1 16.4133 78.7357 15.0645
11081 2 14.5924 78.7368 13.7861
4617 1 19.1425 77.1604 15.0599
11059 2 20.0486 78.7368 13.7861
4632 1 13.6838 80.3109 15.0717
11082 2 11.8631 80.3129 13.793
4679 1 10.9539 81.8859 15.0815
11051 2 17.3193 80.3129 13.793
4630 1 16.4101 81.8859 15.0815
11084 2 14.5897 81.8888 13.8024
4616 1 19.14 80.3109 15.0717
11049 2 20.0459 81.8888 13.8024
4631 1 13.68 83.4608 15.0939
11071 2 11.8598 83.4646 13.8143
4670 1 10.9497 85.0354 15.1087
11050 2 17.316 83.4646 13.8143
4633 1 16.4059 85.0354 15.1087
11069 2 14.586 85.04 13.8284
4613 1 19.1362 83.4608 15.0939
11052 2 20.0422 85.04 13.8284
4624 1 13.6755 86.6097 15.1257
11070 2 11.8558 86.6152 13.8448
4671 1 10.945 88.1837 15.1448
11044 2 17.312 86.6152 13.8448
4622 1 16.4012 88.1837 15.1448
11072 2 14.5818 88.19 13.8631
11042 2 20.038 88.19 13.8631
4612 1 19.1317 86.6097 15.1257
4673 1 12.7583 91.3478 12.6178
4669 1 10.9402 91.3307 15.1884
4623 1 13.6707 89.7574 15.1657
11067 2 11.8514 89.7645 13.8833
11065 2 14.5773 91.3386 13.9051
4625 1 16.3964 91.3307 15.1884
4628 1 15.4885 89.7728 12.5963
11043 2 17.3077 89.7645 13.8833
11045 2 20.0336 91.3386 13.9051
4626 1 18.2146 91.3478 12.6178
4614 1 20.9447 89.7728 12.5963
4610 1 19.127 89.7574 15.1657
5078 1 10.9353 94.4763 15.2376
11066 2 11.8469 92.9124 13.9283
4621 1 13.6659 92.9036 15.2124
5079 1 12.7542 94.4967 12.6647
5029 1 16.3915 94.4763 15.2376
11041 2 17.3032 92.9124 13.9283
4627 1 15.4844 92.9224 12.6406
11508 2 14.5728 94.4858 13.9526
4611 1 20.9406 92.9224 12.6406
4609 1 19.1221 92.9036 15.2124
5044 1 18.2104 94.4967 12.6647
11465 2 20.029 94.4858 13.9526
11406 2 13.6953 77.1578 18.9073
4990 1 11.8732 77.1591 17.6223
11418 2 10.9655 78.7293 18.9123
11424 2 12.7784 78.7336 16.3494
11410 2 15.5077 77.1596 16.3447
4967 1 17.3294 77.1591 17.6223
11407 2 16.4217 78.7293 18.9123
4988 1 14.5999 78.7322 17.6272
11361 2 19.1515 77.1578 18.9073
11364 2 20.9639 77.1596 16.3447
11408 2 18.2346 78.7336 16.3494
4968 1 20.0561 78.7322 17.6272
4989 1 11.8697 80.3051 17.635
11398 2 13.6912 80.3009 18.9201
11419 2 10.9603 81.8725 18.9308
11420 2 12.7747 81.8815 16.3668
11409 2 15.5048 80.3076 16.3568
4963 1 17.326 80.3051 17.635
4991 1 14.5954 81.8781 17.6455
11396 2 16.4165 81.8725 18.9308
11360 2 19.1475 80.3009 18.9201
11363 2 20.9611 80.3076 16.3568
4961 1 20.0516 81.8781 17.6455
11411 2 18.2309 81.8815 16.3668
4983 1 11.8646 83.4509 17.6586
11397 2 13.6852 83.444 18.9442
11421 2 12.7698 85.0288 16.3945
11414 2 10.9538 85.0154 18.9603
11402 2 15.5004 83.4552 16.3795
4962 1 17.3208 83.4509 17.6586
4981 1 14.5898 85.0236 17.6744
11399 2 16.41 85.0154 18.9603
11353 2 19.1415 83.444 18.9442
11362 2 20.9567 83.4552 16.3795
4964 1 20.046 85.0236 17.6744
11400 2 18.226 85.0288 16.3945
4982 1 11.8587 86.596 17.6926
11384 2 13.6785 86.5867 18.9789
11416 2 12.7645 88.1751 16.4314
11415 2 10.947 88.1577 18.9997
11401 2 15.4953 86.6021 16.4119
4951 1 17.3149 86.596 17.6926
4984 1 14.5838 88.1682 17.713
11382 2 16.4032 88.1577 18.9997
11352 2 19.1347 86.5867 18.9789
11355 2 20.9515 86.6021 16.4119
11403 2 18.2207 88.1751 16.4314
4949 1 20.0401 88.1682 17.713
4976 1 11.8528 89.74 17.7353
11383 2 13.6718 89.7285 19.0226
11417 2 12.7591 91.3201 16.4758
11413 2 10.9404 91.2989 19.0471
4950 1 17.309 89.74 17.7353
11388 2 15.4899 89.7477 16.4528
4974 1 14.578 91.3115 17.7594
11385 2 16.3966 91.2989 19.0471
11338 2 19.128 89.7285 19.0226
11354 2 20.9461 89.7477 16.4528
4952 1 20.0342 91.3115 17.7594
11386 2 18.2153 91.3201 16.4758
4975 1 11.8469 92.8827 17.7849
11373 2 13.6653 92.8691 19.073
11831 2 12.7537 94.464 16.5257
11830 2 10.934 94.4392 19.0999
4933 1 17.3032 92.8827 17.7849
11387 2 15.4845 92.8922 16.5002
11813 2 16.3902 94.4392 19.0999
5376 1 14.5722 94.4537 17.8114
11337 2 19.1215 92.8691 19.073
11339 2 20.9408 92.8922 16.5002
11820 2 18.2099 94.464 16.5257
5350 1 20.0284 94.4537 17.8114
11394 2 11.8844 77.1549 21.47
4987 1 12.7876 78.7272 20.1896
4959 1 15.5179 77.1569 20.1845
11358 2 17.3407 77.1549 21.47
11392 2 14.6101 78.7233 21.4751
4908 1 20.9741 77.1569 20.1845
4957 1 18.2439 78.7272 20.1896
11359 2 20.0663 78.7233 21.4751
11393 2 11.8786 80.2919 21.4832
4979 1 12.7813 81.8681 20.2088
4958 1 15.5129 80.2976 20.1977
11350 2 17.3348 80.2919 21.4832
11395 2 14.6027 81.8608 21.4944
4907 1 20.9691 80.2976 20.1977
4960 1 18.2376 81.8681 20.2088
11348 2 20.059 81.8608 21.4944
11380 2 11.8703 83.4299 21.5086
4980 1 12.7737 85.0092 20.2397
4947 1 15.5057 83.4387 20.2229
11349 2 17.3265 83.4299 21.5086
11378 2 14.594 84.999 21.5258
4906 1 20.9619 83.4387 20.2229
4945 1 18.23 85.0092 20.2397
11351 2 20.0502 84.999 21.5258
11379 2 11.8615 86.568 21.5457
4972 1 12.7661 88.1498 20.2812
4946 1 15.498 86.5796 20.2593
11335 2 17.3177 86.568 21.5457
11381 2 14.5853 88.1368 21.5682
4899 1 20.9542 86.5796 20.2593
4948 1 18.2224 88.1498 20.2812
11333 2 20.0416 88.1368 21.5682
11372 2 11.8531 89.7054 21.5929
4973 1 12.759 91.2891 20.3312
4932 1 15.4906 89.7196 20.3053
11334 2 17.3094 89.7054 21.5929
11370 2 14.5773 91.2737 21.6193
4898 1 20.9469 89.7196 20.3053
4930 1 18.2152 91.2891 20.3312
11336 2 20.0335 91.2737 21.6193
11371 2 11.8453 92.8419 21.647
5370 1 12.7521 94.4275 20.3865
4931 1 15.4836 92.8584 20.3584
11317 2 17.3015 92.8419 21.647
11812 2 14.5697 94.4101 21.6755
4883 1 20.9398 92.8584 20.3584
5349 1 18.2083 94.4275 20.3865
11765 2 20.0259 94.4101 21.6755
4939 1 11.9005 77.1474 25.3116
4955 1 13.7081 77.1532 22.7471
4977 1 10.9768 78.72 22.7522
11391 2 12.8 78.7147 24.0384
4902 1 17.3568 77.1474 25.3116
11346 2 15.5317 77.1503 24.0336
4937 1 14.6241 78.7098 25.3158
4956 1 16.4331 78.72 22.7522
4905 1 19.1643 77.1532 22.7471
11292 2 20.9879 77.1503 24.0336
4903 1 20.0803 78.7098 25.3158
11344 2 18.2562 78.7147 24.0384
4938 1 11.8899 80.2732 25.3233
4943 1 13.7008 80.2873 22.7604
4978 1 10.9678 81.8551 22.7718
11376 2 12.7895 81.8456 24.0576
4894 1 17.3461 80.2732 25.3233
11345 2 15.5232 80.2798 24.0463
4940 1 14.6111 81.8377 25.3344
4941 1 16.4241 81.8551 22.7718
4904 1 19.157 80.2873 22.7604
11291 2 20.9795 80.2798 24.0463
4892 1 20.0673 81.8377 25.3344
11347 2 18.2457 81.8456 24.0576
4924 1 11.8759 83.4029 25.3496
4942 1 13.6908 83.4231 22.7865
4970 1 10.9575 84.9913 22.8046
11377 2 12.7777 84.9782 24.0908
4893 1 17.3321 83.4029 25.3496
11331 2 15.5117 83.4118 24.0724
4922 1 14.5971 84.9684 25.3689
4944 1 16.4138 84.9913 22.8046
4897 1 19.147 83.4231 22.7865
11290 2 20.9679 83.4118 24.0724
4895 1 20.0534 84.9684 25.3689
11329 2 18.2339 84.9782 24.0908
4923 1 11.8626 86.5339 25.3922
4928 1 13.6807 86.5594 22.8258
4971 1 10.9479 88.1273 22.8497
11368 2 12.7667 88.1108 24.1371
4879 1 17.3188 86.5339 25.3922
11330 2 15.5001 86.5446 24.1125
4925 1 14.5848 88.0991 25.4189
4926 1 16.4041 88.1273 22.8497
4896 1 19.1369 86.5594 22.8258
11283 2 20.9564 86.5446 24.1125
4877 1 20.0411 88.0991 25.4189
11332 2 18.2229 88.1108 24.1371
4916 1 11.8512 89.6637 25.4482
4927 1 13.6715 89.6948 22.8761
4969 1 10.9391 91.262 22.9042
11369 2 12.7569 91.2426 24.1928
4878 1 17.3074 89.6637 25.4482
11316 2 15.4898 89.6768 24.1641
4914 1 14.5741 91.2281 25.4791
4929 1 16.3953 91.262 22.9042
11314 2 18.2131 91.2426 24.1928
4880 1 20.0304 91.2281 25.4791
11282 2 20.946 89.6768 24.1641
4882 1 19.1277 89.6948 22.8761
11798 2 12.7479 94.3746 24.253
5369 1 10.9309 94.396 22.9634
4917 1 13.663 92.829 22.9334
4915 1 11.8411 92.7924 25.5109
5338 1 16.3871 94.396 22.9634
5337 1 14.5645 94.3572 25.5427
11315 2 15.4804 92.8085 24.2227
4862 1 17.2973 92.7924 25.5109
11764 2 18.2041 94.3746 24.253
5285 1 20.0207 94.3572 25.5427
11268 2 20.9366 92.8085 24.2227
4881 1 19.1193 92.829 22.9334
11342 2 13.725 77.1437 26.5995
4936 1 12.8173 78.6953 27.8821
11374 2 10.9916 78.703 26.603
11323 2 11.9211 77.1354 29.17
4890 1 15.5523 77.1389 27.8805
11343 2 16.4478 78.703 26.603
11286 2 17.3774 77.1354 29.17
11321 2 14.6415 78.6881 29.1698
4842 1 21.0085 77.1389 27.8805
11289 2 19.1812 77.1437 26.5995
4888 1 18.2736 78.6953 27.8821
11287 2 20.0977 78.6881 29.1698
11327 2 13.7127 80.2636 26.6097
4920 1 12.7987 81.8146 27.8968
11375 2 10.9766 81.8255 26.6204
11322 2 11.9034 80.2428 29.1732
4889 1 15.5366 80.2541 27.8873
11325 2 16.4329 81.8255 26.6204
11278 2 17.3596 80.2428 29.1732
11324 2 14.62 81.7996 29.1819
4841 1 20.9928 80.2541 27.8873
11288 2 19.169 80.2636 26.6097
4891 1 18.2549 81.8146 27.8968
11276 2 20.0763 81.7996 29.1819
11326 2 13.6966 83.3882 26.6355
4921 1 12.7794 84.939 27.9329
11366 2 10.9606 84.9514 26.6551
11308 2 11.8806 83.3578 29.1967
4875 1 15.5168 83.3765 27.9121
11328 2 16.4169 84.9514 26.6551
11277 2 17.3369 83.3578 29.1967
11306 2 14.5982 84.9165 29.218
4840 1 20.973 83.3765 27.9121
11281 2 19.1529 83.3882 26.6355
4873 1 18.2356 84.939 27.9329
11279 2 20.0545 84.9165 29.218
11312 2 13.6815 86.5146 26.679
4912 1 12.7638 88.0626 27.9898
11367 2 10.9467 88.0775 26.7065
11307 2 11.8609 86.4751 29.2453
4874 1 15.4993 86.5011 27.9593
11310 2 16.403 88.0775 26.7065
11264 2 17.3171 86.4751 29.2453
4833 1 20.9555 86.5011 27.9593
11280 2 19.1377 86.5146 26.679
4876 1 18.22 88.0626 27.9898
11311 2 13.6687 89.6403 26.7366
4913 1 12.751 91.1839 28.0576
11365 2 10.9348 91.2031 26.7683
4861 1 15.4852 89.6233 28.0231
11313 2 16.3911 91.2031 26.7683
4832 1 20.9415 89.6233 28.0231
11267 2 19.1249 89.6403 26.7366
4859 1 18.2072 91.1839 28.0576
11301 2 13.6575 92.7664 26.8006
5319 1 12.7397 94.3078 28.1251
11797 2 10.9243 94.3306 26.8326
4860 1 15.4733 92.7452 28.0918
11749 2 16.3805 94.3306 26.8326
4821 1 20.9295 92.7452 28.0918
11266 2 19.1137 92.7664 26.8006
5284 1 18.196 94.3078 28.1251
4886 1 13.7524 77.1296 30.4584
4918 1 11.0142 78.6772 30.4546
11320 2 12.8385 78.6732 31.742
11274 2 15.5774 77.128 31.7478
4887 1 16.4704 78.6772 30.4546
4839 1 19.2087 77.1296 30.4584
11244 2 21.0337 77.128 31.7478
11272 2 18.2947 78.6732 31.742
4871 1 13.7283 80.2289 30.4542
4919 1 10.9868 81.7847 30.4601
11304 2 12.8065 81.7675 31.7405
11273 2 15.5515 80.2187 31.7362
4869 1 16.443 81.7847 30.4601
4838 1 19.1846 80.2289 30.4542
11243 2 21.0077 80.2187 31.7362
11275 2 18.2628 81.7675 31.7405
4870 1 13.6998 83.3422 30.4744
4910 1 10.9594 84.9003 30.4982
11305 2 12.7766 84.8696 31.7781
11260 2 15.5184 83.3184 31.7533
4872 1 16.4156 84.9003 30.4982
4831 1 19.1561 83.3422 30.4744
11242 2 20.9746 83.3184 31.7533
11258 2 18.2329 84.8696 31.7781
4857 1 13.6766 86.4573 30.5293
4911 1 10.9398 88.0129 30.5657
11296 2 12.7547 87.9724 31.85
11259 2 15.4927 86.4211 31.8109
4855 1 16.3961 88.0129 30.5657
11309 2 14.5808 88.0335 29.277
4830 1 19.1329 86.4573 30.5293
11239 2 20.949 86.4211 31.8109
11261 2 18.211 87.9724 31.85
11262 2 20.037 88.0335 29.277
4856 1 13.6601 89.5677 30.604
11300 2 11.8452 89.592 29.3115
4909 1 10.9247 91.124 30.6415
11297 2 12.7382 91.0822 31.9285
11252 2 15.474 89.5258 31.8899
11263 2 17.3015 89.592 29.3115
4858 1 16.381 91.124 30.6415
11298 2 14.5665 91.1513 29.3467
4820 1 19.1164 89.5677 30.604
11238 2 20.9302 89.5258 31.8899
11250 2 18.1944 91.0822 31.9285
11265 2 20.0227 91.1513 29.3467
4848 1 13.6463 92.6828 30.6771
11299 2 11.8321 92.7122 29.3813
11727 2 12.726 94.2056 31.9981
11251 2 15.4596 92.6421 31.9646
11253 2 17.2883 92.7122 29.3813
5269 1 16.3686 94.2446 30.7106
11748 2 14.5546 94.2752 29.4147
11692 2 18.1823 94.2056 31.9981
2246 1 21.8248 94.2446 30.7106
4819 1 19.1025 92.6828 30.6771
11235 2 20.9159 92.6421 31.9646
11693 2 20.0108 94.2752 29.4147
4867 1 11.9578 77.1248 33.0467
11270 2 13.7872 77.1258 34.3336
11302 2 11.0406 78.6664 34.3227
4864 1 12.877 78.6659 35.6438
4836 1 17.414 77.1248 33.0467
4865 1 14.6745 78.6652 33.0433
11271 2 16.4968 78.6664 34.3227
4824 1 15.6181 77.1256 35.641
11241 2 19.2434 77.1258 34.3336
4837 1 20.1308 78.6652 33.0433
4806 1 21.0744 77.1256 35.641
4822 1 18.3332 78.6659 35.6438
4866 1 11.9234 80.2007 33.0337
11256 2 13.7458 80.2028 34.3049
11303 2 10.9883 81.7317 34.2897
4849 1 12.8206 81.7098 35.6261
4828 1 17.3797 80.2007 33.0337
4868 1 14.6282 81.7442 33.0256
11254 2 16.4446 81.7317 34.2897
4823 1 15.5815 80.2068 35.6595
11240 2 19.202 80.2028 34.3049
4826 1 20.0845 81.7442 33.0256
4805 1 21.0377 80.2068 35.6595
4825 1 18.2768 81.7098 35.6261
4853 1 11.8777 83.2963 33.0431
11255 2 13.6961 83.2667 34.3013
11294 2 10.9463 84.8034 34.3299
4850 1 12.7448 84.7446 35.6756
4827 1 17.3339 83.2963 33.0431
4851 1 14.5888 84.846 33.0706
11257 2 16.4026 84.8034 34.3299
4813 1 15.4845 83.2046 35.6351
11237 2 19.1524 83.2667 34.3013
4829 1 20.045 84.846 33.0706
4804 1 20.9407 83.2046 35.6351
4811 1 18.201 84.7446 35.6756
4852 1 11.8487 86.3926 33.1107
11248 2 13.6622 86.341 34.3774
11295 2 10.922 87.8839 34.4262
4843 1 12.7258 87.8077 35.7596
4817 1 17.3049 86.3926 33.1107
4854 1 14.5676 87.9373 33.1544
11246 2 16.3783 87.8839 34.4262
4812 1 15.4648 86.2628 35.7232
4814 1 18.182 87.8077 35.7596
11236 2 19.1184 86.341 34.3774
4815 1 20.0238 87.9373 33.1544
4803 1 20.921 86.2628 35.7232
4847 1 11.8302 89.4861 33.1947
11247 2 13.641 89.4335 34.4715
4844 1 12.7136 90.922 35.8265
4807 1 18.1698 90.922 35.8265
4816 1 17.2864 89.4861 33.1947
4845 1 14.5505 91.0399 33.2324
11249 2 16.3619 90.9902 34.5117
4809 1 15.4473 89.3587 35.7958
8029 2 21.8181 90.9902 34.5117
4802 1 20.9036 89.3587 35.7958
4818 1 20.0067 91.0399 33.2324
11234 2 19.0973 89.4335 34.4715
5247 1 12.7063 94.0653 35.8818
5268 1 14.5385 94.1643 33.2975
11245 2 13.628 92.5527 34.5477
4846 1 11.8157 92.5997 33.2663
4808 1 15.4374 92.4911 35.855
5218 1 18.1625 94.0653 35.8818
11677 2 16.3519 94.1203 34.5801
4810 1 17.2719 92.5997 33.2663
8462 2 21.8081 94.1203 34.5801
11233 2 19.0843 92.5527 34.5477
4801 1 20.8936 92.4911 35.855
5219 1 19.9947 94.1643 33.2975
11446 2 12.025 77.1419 36.9182
16731 1 13.0965 75.6157 38.2493
11435 2 17.4812 77.1419 36.9182
17116 1 15.8195 77.2048 38.2547
11444 2 14.7391 78.6826 36.9
16701 1 18.5528 75.6157 38.2493
11436 2 20.1954 78.6826 36.9
14304 1 21.2758 77.2048 38.2547
11445 2 11.9597 80.2262 36.8706
17117 1 13.0952 78.8524 38.245
11432 2 17.4159 80.2262 36.8706
17118 1 15.8274 80.5482 38.3091
11447 2 14.5995 81.7153 36.8664
17082 1 18.5515 78.8524 38.245
11430 2 20.0557 81.7153 36.8664
14302 1 21.2836 80.5482 38.3091
11442 2 11.8292 83.1964 36.8189
17113 1 13.082 82.3995 38.3833
11431 2 17.2854 83.1964 36.8189
17111 1 16.0724 84.1232 38.4326
11440 2 14.5672 84.6871 36.8794
17081 1 18.5382 82.3995 38.3833
11433 2 20.0234 84.6871 36.8794
14303 1 21.5286 84.1232 38.4326
11441 2 11.824 86.2153 36.9388
17112 1 13.5444 85.939 38.3292
11443 2 14.5389 87.7511 37.002
11428 2 17.2802 86.2153 36.9388
17114 1 16.2987 87.544 38.3616
17076 1 19.0006 85.939 38.3292
11426 2 19.9951 87.7511 37.002
14300 1 21.7549 87.544 38.3616
11439 2 11.8048 89.3073 37.0493
17102 1 13.5853 89.1583 38.3881
11437 2 14.5275 90.8716 37.0898
11427 2 17.261 89.3073 37.0493
17100 1 16.3214 90.7578 38.4093
17075 1 19.0415 89.1583 38.3881
11429 2 19.9838 90.8716 37.0898
14301 1 21.7777 90.7578 38.4093
11856 2 14.5223 94.0201 37.1556
11438 2 11.7962 92.4435 37.1246
17101 1 13.5989 92.3553 38.4323
11425 2 17.2524 92.4435 37.1246
17103 1 16.3301 93.9485 38.4557
11842 2 19.9785 94.0201 37.1556
17062 1 19.0551 92.3553 38.4323
14299 1 21.7864 93.9485 38.4557
22739 2 12.4146 77.2659 39.4888
16729 1 11.5364 75.6552 40.7862
22329 2 13.4047 75.6464 42.0214
17115 1 14.2775 77.3239 40.7696
22721 2 16.1438 77.3049 42.0058
16681 1 16.9926 75.6552 40.7862
22343 2 15.1312 75.6249 39.5078
22728 2 17.8708 77.2659 39.4888
17078 1 19.7337 77.3239 40.7696
22293 2 18.8609 75.6464 42.0214
22295 2 20.5875 75.6249 39.5078
19918 2 21.6 77.3049 42.0058
22740 2 12.4817 80.5988 39.4178
22722 2 13.4361 78.9764 41.9806
17109 1 11.5897 79.0141 40.7252
17107 1 14.3909 80.7053 40.635
22726 2 15.1657 78.904 39.4595
22723 2 16.1949 80.6566 41.9481
17079 1 17.046 79.0141 40.7252
22724 2 17.9379 80.5988 39.4178
17080 1 19.8471 80.7053 40.635
22677 2 18.8923 78.9764 41.9806
22680 2 20.622 78.904 39.4595
19914 2 21.6512 80.6566 41.9481
22736 2 12.6522 84.2682 39.4376
17108 1 11.7392 82.4277 40.5619
22714 2 13.5065 82.3311 41.9441
17110 1 14.463 84.0139 40.6999
22725 2 15.2658 82.3901 39.3833
17073 1 17.1954 82.4277 40.5619
22712 2 16.271 83.9945 41.9755
22727 2 18.1085 84.2682 39.4376
19915 2 21.7273 83.9945 41.9755
17071 1 19.9193 84.0139 40.6999
22676 2 18.9627 82.3311 41.9441
22679 2 20.722 82.3901 39.3833
22737 2 12.6905 87.5222 39.5707
17098 1 11.7135 85.6772 40.8575
22713 2 13.5696 85.6723 42.0474
17096 1 14.4595 87.3293 40.8974
22718 2 15.4138 85.9008 39.5129
17072 1 17.1697 85.6772 40.8575
22715 2 16.3145 87.3345 42.1058
22716 2 18.1467 87.5222 39.5707
19910 2 21.7707 87.3345 42.1058
17074 1 19.9157 87.3293 40.8974
22669 2 19.0258 85.6723 42.0474
22678 2 20.87 85.9008 39.5129
22732 2 12.6958 90.7236 39.6537
17097 1 11.7521 88.9762 40.9271
22700 2 13.5955 88.9641 42.1559
17099 1 14.4927 90.6016 40.958
22717 2 15.4233 89.1252 39.6135
17059 1 17.2083 88.9762 40.9271
22698 2 16.3285 90.583 42.1985
22719 2 18.152 90.7236 39.6537
19911 2 21.7848 90.583 42.1985
17057 1 19.9489 90.6016 40.958
22668 2 19.0517 88.9641 42.1559
22671 2 20.8795 89.1252 39.6135
22733 2 12.6971 93.9097 39.7191
17090 1 11.7721 92.2207 40.9862
22699 2 13.6036 92.1945 42.236
17088 1 14.5057 93.8312 41.012
17058 1 17.2283 92.2207 40.9862
22701 2 16.3337 93.8014 42.2696
22704 2 15.4248 92.3169 39.688
22702 2 18.1533 93.9097 39.7191
19909 2 21.79 93.8014 42.2696
17060 1 19.962 93.8312 41.012
22654 2 19.0598 92.1945 42.236
22670 2 20.881 92.3169 39.688
17105 1 12.5526 77.3385 43.2526
22327 2 11.6563 75.6528 44.5326
22720 2 14.3901 77.3137 44.5247
16665 1 13.5087 75.6528 45.7814
16679 1 15.2659 75.6604 43.2755
22274 2 17.1126 75.6528 44.5326
17077 1 18.0088 77.3385 43.2526
17064 1 16.2399 77.3102 45.776
14284 1 21.6961 77.3102 45.776
22673 2 19.8463 77.3137 44.5247
16631 1 20.7221 75.6604 43.2755
16629 1 18.9649 75.6528 45.7814
17106 1 12.5903 80.6634 43.1998
22710 2 11.673 78.9715 44.5142
22708 2 14.4193 80.6223 44.5093
17065 1 13.5183 78.9596 45.7728
17069 1 15.3029 79.0085 43.2168
22674 2 17.1293 78.9715 44.5142
17067 1 18.0465 80.6634 43.1998
17066 1 16.2575 80.5979 45.7802
14272 1 21.7138 80.5979 45.7802
17016 1 20.7591 79.0085 43.2168
22675 2 19.8755 80.6223 44.5093
17013 1 18.9746 78.9596 45.7728
17094 1 12.6387 83.9185 43.2593
22709 2 11.7134 82.2688 44.5193
22711 2 14.4636 83.912 44.5453
17051 1 13.5445 82.2311 45.7959
17068 1 15.3413 82.2864 43.2236
22666 2 17.1696 82.2688 44.5193
17070 1 18.0949 83.9185 43.2593
17049 1 16.2885 83.861 45.824
14273 1 21.7448 83.861 45.824
17015 1 20.7976 82.2864 43.2236
22664 2 19.9198 83.912 44.5453
17012 1 19.0007 82.2311 45.7959
17095 1 12.6702 87.2031 43.3875
22696 2 11.7522 85.5546 44.588
22694 2 14.4958 87.198 44.6393
17050 1 13.5766 85.4903 45.8618
17055 1 15.3914 85.5567 43.3106
22665 2 17.2085 85.5546 44.588
17053 1 18.1264 87.2031 43.3875
17052 1 16.3169 87.1221 45.9095
14264 1 21.7732 87.1221 45.9095
17014 1 20.8476 85.5567 43.3106
22667 2 19.952 87.198 44.6393
17005 1 19.0328 85.4903 45.8618
17086 1 12.679 90.4798 43.4858
22695 2 11.7772 88.8364 44.6895
22697 2 14.5115 90.4658 44.7344
17054 1 15.4006 88.8452 43.4454
22651 2 17.2335 88.8364 44.6895
17056 1 18.1353 90.4798 43.4858
17007 1 20.8568 88.8452 43.4454
22649 2 19.9678 90.4658 44.7344
17087 1 12.6903 93.727 43.5532
22688 2 11.7875 92.0872 44.7747
22686 2 14.5186 93.7033 44.8111
17040 1 15.4134 92.1068 43.5212
22650 2 17.2438 92.0872 44.7747
17038 1 18.1465 93.727 43.5532
22652 2 19.9748 93.7033 44.8111
17006 1 20.8697 92.1068 43.5212
22706 2 12.6163 77.2989 47.0605
16663 1 11.7275 75.6456 48.3195
17063 1 14.457 77.2867 48.3222
16612 1 17.1838 75.6456 48.3195
22272 2 15.3411 75.6493 47.0612
22672 2 18.0725 77.2989 47.0605
17009 1 19.9133 77.2867 48.3222
22233 2 20.7973 75.6493 47.0612
17047 1 11.7327 78.9242 48.3295
22707 2 12.6339 80.5838 47.0693
17045 1 14.4672 80.5576 48.3418
17010 1 17.1889 78.9242 48.3295
22662 2 15.3513 78.9439 47.0623
22660 2 18.0902 80.5838 47.0693
17011 1 19.9235 80.5576 48.3418
22614 2 20.8076 78.9439 47.0623
17046 1 11.748 82.1873 48.3603
22692 2 12.6598 83.8516 47.1094
17048 1 14.4866 83.8143 48.3856
17002 1 17.2043 82.1873 48.3603
22661 2 15.3746 82.2192 47.0846
22663 2 18.1161 83.8516 47.1094
17000 1 19.9428 83.8143 48.3856
22613 2 20.8308 82.2192 47.0846
17032 1 11.7695 85.4402 48.4175
22693 2 12.683 87.1147 47.1836
17030 1 14.5074 87.0662 48.4552
17001 1 17.2257 85.4402 48.4175
22647 2 15.4004 85.4832 47.1435
22645 2 18.1393 87.1147 47.1836
17003 1 19.9636 87.0662 48.4552
22612 2 20.8566 85.4832 47.1435
17031 1 11.7873 88.6926 48.4969
22684 2 12.6985 90.3744 47.2704
17033 1 14.5211 90.3192 48.5401
17036 1 13.5967 88.756 45.9612
16987 1 17.2435 88.6926 48.4969
17034 1 16.3294 90.388 46.0089
22646 2 15.42 88.7458 47.2272
22648 2 18.1547 90.3744 47.2704
14265 1 21.7856 90.388 46.0089
16985 1 19.9773 90.3192 48.5401
22605 2 20.8763 88.7458 47.2272
17004 1 19.0529 88.756 45.9612
17024 1 11.7968 91.9446 48.5818
17035 1 13.6049 92.016 46.0504
22685 2 12.7063 93.6194 47.349
17022 1 14.5278 93.5676 48.6206
16986 1 17.2531 91.9446 48.5818
17037 1 16.3363 93.6395 46.0872
22633 2 15.4312 91.999 47.3111
22631 2 18.1626 93.6194 47.349
14263 1 21.7926 93.6395 46.0872
16988 1 19.984 93.5676 48.6206
16990 1 19.0611 92.016 46.0504
22604 2 20.8874 91.999 47.3111
17043 1 12.6655 77.2719 50.878
22260 2 13.5565 75.6447 49.6066
22258 2 11.7638 75.6416 52.1622
22656 2 14.4934 77.2698 52.1659
22657 2 16.2868 77.2823 49.6094
16610 1 15.3924 75.6415 50.8737
17008 1 18.1217 77.2719 50.878
22222 2 17.2201 75.6416 52.1622
19885 2 21.7431 77.2823 49.6094
16580 1 20.8487 75.6415 50.8737
22231 2 19.0127 75.6447 49.6066
22607 2 19.9496 77.2698 52.1659
17044 1 12.6722 80.528 50.9016
22658 2 13.5631 78.9174 49.6163
22639 2 11.7681 78.8969 52.1743
22637 2 14.5004 80.5224 52.1876
16998 1 15.3962 78.9009 50.8873
22659 2 16.2976 80.5494 49.6282
16996 1 18.1285 80.528 50.9016
22608 2 17.2244 78.8969 52.1743
19870 2 21.7539 80.5494 49.6282
16956 1 20.8524 78.9009 50.8873
22611 2 19.0194 78.9174 49.6163
22609 2 19.9567 80.5224 52.1876
17028 1 12.6849 83.7769 50.9449
22643 2 13.5773 82.1784 49.6459
22638 2 11.7775 82.1463 52.2057
22640 2 14.5115 83.7689 52.2285
16997 1 15.4061 82.1532 50.9208
22641 2 16.314 83.8052 49.6699
16999 1 18.1412 83.7769 50.9449
22600 2 17.2337 82.1463 52.2057
19871 2 21.7703 83.8052 49.6699
16955 1 20.8624 82.1532 50.9208
22610 2 19.0336 82.1784 49.6459
22598 2 19.9677 83.7689 52.2285
17029 1 12.6998 87.0218 51.0065
22642 2 13.5945 85.431 49.6997
22623 2 14.5237 87.012 52.2866
22625 2 11.7895 85.3907 52.2557
16983 1 15.4206 85.3995 50.9736
22644 2 16.3308 87.0565 49.7341
16981 1 18.156 87.0218 51.0065
22599 2 17.2458 85.3907 52.2557
19862 2 21.787 87.0565 49.7341
16954 1 20.8768 85.3995 50.9736
22603 2 19.0508 85.431 49.6997
22601 2 19.9799 87.012 52.2866
22626 2 14.5343 90.254 52.3557
22624 2 11.8012 88.6332 52.3202
17020 1 12.7118 90.2663 51.0807
22629 2 13.6098 88.6816 49.7718
22589 2 17.2575 88.6332 52.3202
16982 1 15.4345 88.644 51.0425
22627 2 16.3438 90.3062 49.8109
16984 1 18.168 90.2663 51.0807
19863 2 21.8 90.3062 49.8109
22587 2 19.9906 90.254 52.3557
16948 1 20.8907 88.644 51.0425
22602 2 19.066 88.6816 49.7718
22617 2 14.5419 93.4936 52.4282
22619 2 11.8104 91.8743 52.392
17021 1 12.719 93.5092 51.1574
22628 2 13.6202 91.9292 49.8498
22588 2 17.2666 91.8743 52.392
16971 1 15.444 91.8882 51.1194
22630 2 16.3518 93.55 49.8874
16969 1 18.1752 93.5092 51.1574
22590 2 19.9981 93.4936 52.4282
19861 2 21.8081 93.55 49.8874
16947 1 20.9003 91.8882 51.1194
22592 2 19.0765 91.9292 49.8498
22635 2 12.6949 77.2613 54.7263
16600 1 13.5954 75.6396 53.4344
16993 1 16.3244 77.2625 53.4386
22220 2 15.4221 75.6401 54.7226
22606 2 18.1512 77.2613 54.7263
14222 1 21.7806 77.2625 53.4386
16578 1 19.0516 75.6396 53.4344
22213 2 20.8783 75.6401 54.7226
16994 1 13.5983 78.8848 53.4479
22636 2 12.6998 80.5022 54.7478
16995 1 16.3294 80.5064 53.4619
22596 2 15.425 78.8821 54.7348
22594 2 18.1561 80.5022 54.7478
14206 1 21.7857 80.5064 53.4619
16953 1 19.0545 78.8848 53.4479
22578 2 20.8813 78.8821 54.7348
16979 1 13.6054 82.1271 53.4805
22621 2 12.7077 83.7403 54.7866
16977 1 16.3383 83.7471 53.5032
22595 2 15.4316 82.1216 54.7652
22597 2 18.164 83.7403 54.7866
14207 1 21.7946 83.7471 53.5032
16952 1 19.0616 82.1271 53.4805
22577 2 20.8879 82.1216 54.7652
16978 1 13.6156 85.3666 53.5297
22622 2 12.717 86.9768 54.84
22583 2 18.1732 86.9768 54.84
16980 1 16.3492 86.9858 53.5595
22585 2 15.4404 85.3587 54.8117
14198 1 21.8054 86.9858 53.5595
22576 2 20.8967 85.3587 54.8117
16946 1 19.0718 85.3666 53.5297
22615 2 12.7256 90.2126 54.9035
16967 1 13.6263 88.6049 53.592
22586 2 18.1819 90.2126 54.9035
22584 2 15.4496 88.5947 54.8708
16965 1 16.359 90.224 53.6266
14199 1 21.8153 90.224 53.6266
22575 2 20.9058 88.5947 54.8708
16945 1 19.0825 88.6049 53.592
22616 2 12.7325 93.4474 54.9719
16966 1 13.6348 91.8429 53.6623
22581 2 15.4574 91.8302 54.9374
16968 1 16.3661 93.4614 53.6983
22579 2 18.1887 93.4474 54.9719
22574 2 20.9137 91.8302 54.9374
16939 1 19.0911 91.8429 53.6623
14197 1 21.8223 93.4614 53.6983
17291 1 12.72 77.2522 58.5648
16598 1 11.7946 75.639 55.9977
22539 2 13.6206 75.6397 57.2851
16992 1 14.5234 77.2563 56.0014
22924 2 16.3494 77.2556 57.2885
16895 1 15.4476 75.6392 58.5616
16573 1 17.2508 75.639 55.9977
17280 1 18.1763 77.2522 58.5648
16949 1 19.9797 77.2563 56.0014
16847 1 20.9038 75.6392 58.5616
22509 2 19.0768 75.6397 57.2851
20112 2 21.8056 77.2556 57.2885
16975 1 11.7969 78.8735 56.01
17292 1 12.7232 80.4784 58.5845
22925 2 13.6227 78.8714 57.2964
16973 1 14.5274 80.4904 56.0231
16950 1 17.2531 78.8735 56.01
17278 1 15.4494 78.8653 58.5725
22926 2 16.353 80.4871 57.3086
17276 1 18.1794 80.4784 58.5845
17232 1 20.9056 78.8653 58.5725
16951 1 19.9836 80.4904 56.0231
22890 2 19.079 78.8714 57.2964
20110 2 21.8093 80.4871 57.3086
16974 1 11.8023 82.1071 56.0403
17288 1 12.7285 83.7048 58.6199
22921 2 13.6277 82.1025 57.3248
16976 1 14.5341 83.7236 56.0614
17277 1 15.4537 82.0916 58.6004
16943 1 17.2585 82.1071 56.0403
22919 2 16.359 83.7177 57.3447
17279 1 18.1847 83.7048 58.6199
17231 1 20.91 82.0916 58.6004
16941 1 19.9903 83.7236 56.0614
22889 2 19.0839 82.1025 57.3248
20111 2 21.8153 83.7177 57.3447
16963 1 11.81 85.34 56.086
17289 1 12.7351 86.9317 58.6682
22920 2 13.6345 85.3329 57.368
16961 1 14.5423 86.9563 56.1135
17270 1 15.4598 85.3182 58.6426
16942 1 17.2662 85.34 56.086
22922 2 16.3663 86.948 57.3942
17268 1 18.1914 86.9317 58.6682
17230 1 20.9161 85.3182 58.6426
16944 1 19.9986 86.9563 56.1135
22884 2 19.0907 85.3329 57.368
20108 2 21.8225 86.948 57.3942
16962 1 11.8184 88.5726 56.1434
17284 1 12.7418 90.1592 58.7261
22929 2 10.9172 90.1783 57.4533
22910 2 13.6418 88.5631 57.4228
16964 1 14.5504 90.189 56.1754
17269 1 15.4667 88.5454 58.6962
16936 1 17.2746 88.5726 56.1434
22908 2 16.3734 90.1783 57.4533
17223 1 20.9229 88.5454 58.6962
17271 1 18.1981 90.1592 58.7261
16934 1 20.0066 90.189 56.1754
22883 2 19.0981 88.5631 57.4228
16959 1 11.8258 91.8053 56.2087
17285 1 12.7476 93.3871 58.79
22927 2 10.9233 93.4084 57.5181
22909 2 13.6485 91.7934 57.4852
16957 1 14.5569 93.4215 56.2428
17256 1 15.473 91.7732 58.7575
16935 1 17.282 91.8053 56.2087
22911 2 16.3795 93.4084 57.5181
17222 1 20.9292 91.7732 58.7575
17254 1 18.2039 93.3871 58.79
16937 1 20.0131 93.4215 56.2428
22870 2 19.1048 91.7934 57.4852
16881 1 13.6425 75.64 61.1253
22537 2 11.8167 75.6401 59.8481
22923 2 14.5453 77.2519 59.8511
22913 2 12.7396 77.2493 62.4132
17290 1 10.9149 77.2496 61.1281
17273 1 16.3711 77.2496 61.1281
22489 2 17.273 75.6401 59.8481
22487 2 15.4673 75.6411 62.4107
22886 2 20.0016 77.2519 59.8511
16845 1 19.0988 75.64 61.1253
22885 2 18.1958 77.2493 62.4132
22439 2 20.9236 75.6411 62.4107
17274 1 13.644 78.8592 61.135
17286 1 10.9174 80.469 61.1459
22917 2 11.8184 78.8637 59.8582
22915 2 14.5482 80.4755 59.8694
22914 2 12.7419 80.4661 62.43
17275 1 16.3737 80.469 61.1459
22887 2 17.2746 78.8637 59.8582
22877 2 15.4686 78.8576 62.4197
17229 1 19.1003 78.8592 61.135
22888 2 20.0044 80.4755 59.8694
22824 2 20.9249 78.8576 62.4197
22875 2 18.1981 80.4661 62.43
17266 1 13.6476 82.079 61.1605
17287 1 10.9218 83.6892 61.1785
22916 2 11.8222 82.0874 59.8844
22902 2 12.7458 83.6837 62.461
22918 2 14.5529 83.6994 59.9029
17264 1 16.3781 83.6892 61.1785
22881 2 17.2785 82.0874 59.8844
22876 2 15.4718 82.0748 62.4438
17228 1 19.1038 82.079 61.1605
22879 2 20.0092 83.6994 59.9029
22823 2 20.928 82.0748 62.4438
22878 2 18.2021 83.6837 62.461
17265 1 13.6526 85.2997 61.1997
17282 1 10.9273 86.9105 61.2237
22906 2 11.8277 85.3115 59.9245
22903 2 12.7508 86.9024 62.5043
17267 1 16.3836 86.9105 61.2237
22880 2 17.2839 85.3115 59.9245
22904 2 14.5588 86.9238 59.949
22863 2 15.4764 85.2929 62.4813
17221 1 19.1088 85.2997 61.1997
22882 2 20.0151 86.9238 59.949
22822 2 20.9326 85.2929 62.4813
22861 2 18.207 86.9024 62.5043
17252 1 13.6583 88.5216 61.25
17283 1 10.9331 90.133 61.2783
22905 2 11.8338 88.5362 59.9758
22894 2 12.7561 90.1224 62.5569
17250 1 16.3893 90.133 61.2783
22867 2 17.29 88.5362 59.9758
22907 2 14.5649 90.1488 60.0046
22862 2 15.4816 88.5122 62.5296
17220 1 19.1146 88.5216 61.25
22865 2 20.0211 90.1488 60.0046
22815 2 20.9378 88.5122 62.5296
22864 2 18.2123 90.1224 62.5569
17251 1 13.6639 91.7446 61.3082
17281 1 10.9383 93.3565 61.3394
22898 2 11.8396 91.7616 60.0349
17253 1 16.3945 93.3565 61.3394
22866 2 17.2958 91.7616 60.0349
22896 2 14.5703 93.3744 60.0663
22848 2 15.4867 91.7328 62.5859
17206 1 19.1201 91.7446 61.3082
22868 2 20.0266 93.3744 60.0663
22814 2 20.943 91.7328 62.5859
22912 2 10.9325 77.2475 64.9745
16879 1 11.8361 75.6414 63.6887
22473 2 13.6603 75.6425 64.9724
17272 1 14.5646 77.2478 63.6911
22872 2 16.3887 77.2475 64.9745
16826 1 17.2924 75.6414 63.6887
17225 1 20.0208 77.2478 63.6911
22437 2 19.1166 75.6425 64.9724
17262 1 11.8373 78.8543 63.6973
22873 2 13.6614 78.8526 64.9804
22900 2 10.9344 80.4579 64.9898
17226 1 17.2935 78.8543 63.6973
17260 1 14.5667 80.4611 63.7073
22874 2 16.3906 80.4579 64.9898
17227 1 20.0229 80.4611 63.7073
22821 2 19.1176 78.8526 64.9804
17261 1 11.8403 82.0681 63.7208
22859 2 13.664 82.0635 65.0027
22901 2 10.9378 83.6694 65.0189
17218 1 17.2965 82.0681 63.7208
17263 1 14.5704 83.6755 63.7377
22857 2 16.394 83.6694 65.0189
17216 1 20.0266 83.6755 63.7377
22820 2 19.1203 82.0635 65.0027
17248 1 11.8445 85.2832 63.7575
22858 2 13.668 85.2757 65.0379
22892 2 10.9421 86.8825 65.0597
17217 1 17.3008 85.2832 63.7575
17246 1 14.5751 86.8914 63.7801
22860 2 16.3983 86.8825 65.0597
17219 1 20.0313 86.8914 63.7801
22813 2 19.1242 85.2757 65.0379
17247 1 11.8495 88.4999 63.8051
22844 2 13.6726 88.4897 65.0838
22893 2 10.9468 90.0973 65.11
17203 1 17.3057 88.4999 63.8051
17249 1 14.5801 90.1089 63.8321
22842 2 16.4031 90.0973 65.11
17201 1 20.0364 90.1089 63.8321
22812 2 19.1288 88.4897 65.0838
17240 1 11.8545 91.7183 63.8608
22843 2 13.6773 91.7054 65.1378
22891 2 10.9514 93.314 65.167
22895 2 12.761 93.3435 62.6161
17202 1 17.3107 91.7183 63.8608
17238 1 14.5849 93.328 63.8908
22845 2 16.4076 93.314 65.167
22846 2 18.2172 93.3435 62.6161
17204 1 20.0411 93.328 63.8908
22798 2 19.1335 91.7054 65.1378
17258 1 12.7568 77.2467 66.2548
22471 2 11.852 75.6444 67.5323
17257 1 10.9477 77.2462 68.8229
16812 1 13.6757 75.6458 68.8211
22871 2 14.5803 77.2461 67.5341
16824 1 15.4847 75.6432 66.2528
22420 2 17.3082 75.6444 67.5323
17209 1 16.404 77.2462 68.8229
17224 1 18.213 77.2467 66.2548
22817 2 20.0366 77.2461 67.5341
16785 1 20.9409 75.6432 66.2528
16783 1 19.1319 75.6458 68.8211
17259 1 12.7586 80.4541 66.2698
22855 2 11.8528 78.8479 67.5394
17210 1 13.6764 78.8468 68.8282
17242 1 10.9492 80.4476 68.8369
17214 1 15.4856 78.8503 66.2605
22818 2 17.309 78.8479 67.5394
22853 2 14.5819 80.45 67.5482
17211 1 16.4055 80.4476 68.8369
17166 1 20.9418 78.8503 66.2605
17212 1 18.2148 80.4541 66.2698
22819 2 20.0381 80.45 67.5482
17163 1 19.1327 78.8468 68.8282
17244 1 12.7617 83.6627 66.2983
22854 2 11.8551 82.0524 67.5603
17195 1 13.6786 82.0488 68.8489
17243 1 10.952 83.6504 68.864
17213 1 15.4881 82.0582 66.2824
22810 2 17.3113 82.0524 67.5603
22856 2 14.5849 83.6553 67.5755
17193 1 16.4082 83.6504 68.864
17165 1 20.9443 82.0582 66.2824
17215 1 18.218 83.6627 66.2983
22808 2 20.0411 83.6553 67.5755
17162 1 19.1348 82.0488 68.8489
17245 1 12.7658 86.8732 66.3386
22840 2 11.8586 85.2586 67.5936
17194 1 13.6819 85.2525 68.8819
17234 1 10.9557 86.8553 68.9026
17199 1 15.4918 85.2677 66.3171
22809 2 17.3148 85.2586 67.5936
22838 2 14.5888 86.8625 67.6143
17196 1 16.4119 86.8553 68.9026
17164 1 20.9481 85.2677 66.3171
17197 1 18.2221 86.8732 66.3386
22811 2 20.045 86.8625 67.6143
17155 1 19.1381 85.2525 68.8819
17236 1 12.7704 90.0858 66.3883
22839 2 11.8628 88.467 67.6374
17181 1 13.6858 88.4587 68.9255
17235 1 10.9598 90.0627 68.9505
17198 1 15.4962 88.4792 66.3624
22795 2 17.3191 88.467 67.6374
22841 2 14.5932 90.0722 67.6626
17179 1 16.416 90.0627 68.9505
17157 1 20.9525 88.4792 66.3624
17200 1 18.2266 90.0858 66.3883
22793 2 20.0494 90.0722 67.6626
17154 1 19.142 88.4587 68.9255
17237 1 12.7748 93.3004 66.4451
22832 2 11.8673 91.6779 67.6895
17180 1 13.69 91.6675 68.9773
17233 1 10.9639 93.273 69.0056
17185 1 15.5007 91.6928 66.416
22794 2 17.3235 91.6779 67.6895
22830 2 14.5975 93.2844 67.7179
17182 1 16.4201 93.273 69.0056
17156 1 20.957 91.6928 66.416
17183 1 18.231 93.3004 66.4451
22796 2 20.0538 93.2844 67.7179
17144 1 19.1462 91.6675 68.9773
22851 2 12.7714 77.2441 70.0884
16810 1 11.8629 75.6477 71.4054
17208 1 14.5912 77.2449 71.4071
16774 1 17.3192 75.6477 71.4054
22418 2 15.4994 75.646 70.0867
17159 1 20.0475 77.2449 71.4071
22816 2 18.2277 77.2441 70.0884
22388 2 20.9556 75.646 70.0867
17191 1 11.8636 78.8422 71.4122
22852 2 12.7729 80.4411 70.1021
17160 1 17.3198 78.8422 71.4122
17189 1 14.5925 80.4398 71.4207
22806 2 15.5001 78.8425 70.0936
17161 1 20.0488 80.4398 71.4207
22764 2 20.9564 78.8425 70.0936
22804 2 18.2291 80.4411 70.1021
17190 1 11.8655 82.0378 71.4323
22836 2 12.7757 83.6397 70.1285
17152 1 17.3217 82.0378 71.4323
17192 1 14.5949 83.6364 71.4469
22805 2 15.5023 82.0401 70.1138
17150 1 20.0512 83.6364 71.4469
22763 2 20.9585 82.0401 70.1138
22807 2 18.2319 83.6397 70.1285
17177 1 11.8684 85.2357 71.4643
22837 2 12.7793 86.8408 70.1662
17151 1 17.3246 85.2357 71.4643
17175 1 14.5982 86.8356 71.4843
22791 2 15.5055 85.2399 70.1461
17153 1 20.0544 86.8356 71.4843
22762 2 20.9618 85.2399 70.1461
22789 2 18.2356 86.8408 70.1662
17176 1 11.8718 88.4364 71.5066
22828 2 12.7834 90.0451 70.2132
17141 1 17.3281 88.4364 71.5066
17178 1 14.6018 90.0381 71.531
22790 2 15.5095 88.4425 70.1887
17139 1 20.058 90.0381 71.531
22756 2 20.9657 88.4425 70.1887
22792 2 18.2397 90.0451 70.2132
17171 1 11.8755 91.6406 71.5571
22829 2 12.7876 93.2528 70.2673
17140 1 17.3317 91.6406 71.5571
17169 1 14.6054 93.2441 71.5846
22779 2 15.5136 91.6485 70.2395
17142 1 20.0616 93.2441 71.5846
22755 2 20.9699 91.6485 70.2395
22777 2 18.2438 93.2528 70.2673
17187 1 12.7474 77.2451 74.0657
22850 2 10.9602 77.2414 72.6295
22406 2 11.8608 75.6492 75.1182
22408 2 13.6881 75.6471 72.6278
22800 2 14.5891 77.2401 75.1198
22801 2 16.4164 77.2414 72.6295
16772 1 15.4756 75.6509 74.0641
22381 2 17.3171 75.6492 75.1182
17158 1 18.2037 77.2451 74.0657
22757 2 20.0453 77.2401 75.1198
16765 1 20.9318 75.6509 74.0641
22386 2 19.1444 75.6471 72.6278
17188 1 12.7474 80.4343 74.0791
22783 2 11.8613 78.8312 75.1246
22802 2 13.6889 78.8358 72.6345
22834 2 10.9616 80.4306 72.6428
17148 1 15.4756 78.8395 74.0708
22758 2 17.3176 78.8312 75.1246
22781 2 14.59 80.4228 75.1325
22803 2 16.4179 80.4306 72.6428
17130 1 20.9318 78.8395 74.0708
17146 1 18.2037 80.4343 74.0791
22759 2 20.0463 80.4228 75.1325
22761 2 19.1451 78.8358 72.6345
17173 1 12.7474 83.6257 74.1051
22782 2 11.8627 82.0151 75.1435
22787 2 13.691 82.026 72.6542
22835 2 10.9643 83.622 72.6685
17147 1 15.4755 82.0296 74.0906
22751 2 17.319 82.0151 75.1435
22784 2 14.5918 83.6082 75.1573
22785 2 16.4206 83.622 72.6685
17129 1 20.9318 82.0296 74.0906
17149 1 18.2037 83.6257 74.1051
22749 2 20.0481 83.6082 75.1573
22760 2 19.1472 82.026 72.6542
17174 1 12.7474 86.8202 74.1422
22771 2 11.8648 85.2023 75.1738
22786 2 13.6941 85.2189 72.6857
22826 2 10.9679 86.8167 72.7053
17137 1 15.4755 85.2225 74.1224
22750 2 17.3211 85.2023 75.1738
22769 2 14.5942 86.7976 75.1928
22788 2 16.4241 86.8167 72.7053
17128 1 20.9318 85.2225 74.1224
17135 1 18.2036 86.8202 74.1422
22752 2 20.0504 86.7976 75.1928
22754 2 19.1504 85.2189 72.6857
17167 1 12.7473 90.0188 74.1885
22770 2 11.8673 88.3942 75.2141
22775 2 13.698 88.4155 72.7273
22827 2 10.9719 90.0154 72.7513
17136 1 15.4755 88.419 74.1644
22744 2 17.3236 88.3942 75.2141
22772 2 14.5967 89.9921 75.2373
22773 2 16.4281 90.0154 72.7513
17127 1 20.9317 88.419 74.1644
17138 1 18.2036 90.0188 74.1885
22742 2 20.053 89.9921 75.2373
22753 2 19.1542 88.4155 72.7273
17168 1 12.7471 93.2217 74.2418
22767 2 11.8699 91.5914 75.2623
22774 2 13.702 91.6164 72.777
22825 2 10.9759 93.2187 72.8043
22776 2 16.4321 93.2187 72.8043
17133 1 15.4754 91.6197 74.2144
22743 2 17.3261 91.5914 75.2623
22765 2 14.5992 93.1921 75.2887
22747 2 19.1583 91.6164 72.777
22745 2 20.0555 93.1921 75.2887
17131 1 18.2034 93.2217 74.2418
17126 1 20.9316 91.6197 74.2144
5183 1 12.7675 94.6126 -2.88205
11625 2 11.8375 96.1982 -1.41827
11633 2 13.6619 96.2207 -3.91609
11640 2 10.9356 94.6373 -3.93697
5170 1 15.4923 96.1953 -2.86065
11595 2 17.2937 96.1982 -1.41827
11631 2 14.5666 94.6163 -1.43974
11632 2 16.3918 94.6373 -3.93697
5124 1 20.9485 96.1953 -2.86065
5172 1 18.2237 94.6126 -2.88205
11594 2 20.0229 94.6163 -1.43974
11598 2 19.1181 96.2207 -3.91609
5184 1 12.7608 97.7772 -2.83834
11624 2 11.8353 99.359 -1.37279
11629 2 13.6581 99.3843 -3.87182
11638 2 10.9318 97.8031 -3.89433
5169 1 15.4854 99.3581 -2.81528
11589 2 17.2915 99.359 -1.37279
11623 2 14.5645 97.7791 -1.39591
11634 2 16.3881 97.8031 -3.89433
5123 1 20.9417 99.3581 -2.81528
5168 1 18.217 97.7772 -2.83834
11596 2 20.0207 97.7791 -1.39591
11597 2 19.1143 99.3843 -3.87182
5180 1 12.7538 100.938 -2.79162
11614 2 11.8331 102.516 -1.32491
11628 2 13.6542 102.544 -3.82517
11639 2 10.928 100.964 -3.84872
5162 1 15.4784 102.517 -2.76751
11588 2 17.2894 102.516 -1.32491
11626 2 14.5623 100.938 -1.34907
11627 2 16.3843 100.964 -3.84872
5122 1 20.9346 102.517 -2.76751
5171 1 18.21 100.938 -2.79162
11587 2 20.0186 100.938 -1.34907
11592 2 19.1105 102.544 -3.82517
5181 1 12.7467 104.095 -2.7431
11613 2 11.831 105.669 -1.27587
11618 2 13.6504 105.698 -3.77732
11636 2 10.9242 104.121 -3.80133
5161 1 15.4713 105.672 -2.71856
11575 2 17.2872 105.669 -1.27587
11612 2 14.5602 104.093 -1.30046
11630 2 16.3804 104.121 -3.80133
5115 1 20.9276 105.672 -2.71856
5160 1 18.2029 104.095 -2.7431
11590 2 20.0164 104.093 -1.30046
11591 2 19.1066 105.698 -3.77732
5176 1 12.7397 107.249 -2.694
11606 2 11.8288 108.819 -1.22678
11617 2 13.6466 108.849 -3.72935
11637 2 10.9204 107.274 -3.75329
5148 1 15.4645 108.824 -2.66957
11574 2 17.285 108.819 -1.22678
11615 2 14.558 107.245 -1.25126
11616 2 16.3766 107.274 -3.75329
5114 1 20.9207 108.824 -2.66957
5163 1 18.196 107.249 -2.694
11573 2 20.0142 107.245 -1.25126
11578 2 19.1029 108.849 -3.72935
5177 1 12.7331 110.399 -2.64538
11605 2 11.8266 111.966 -1.17867
11607 2 13.643 111.996 -3.68226
11635 2 10.9167 110.423 -3.70564
5147 1 15.458 111.972 -2.62156
11557 2 17.2828 111.966 -1.17867
11604 2 14.5558 110.393 -1.20255
11619 2 16.3729 110.423 -3.70564
5099 1 20.9142 111.972 -2.62156
5146 1 18.1893 110.399 -2.64538
11576 2 20.0121 110.393 -1.20255
11577 2 19.0992 111.996 -3.68226
5154 1 11.8406 96.1547 2.39322
5166 1 13.6591 96.1787 -0.198414
5182 1 10.9323 94.5976 -0.220031
11621 2 12.7498 94.5899 1.10876
5118 1 17.2968 96.1547 2.39322
5164 1 14.5701 94.575 2.37108
5165 1 16.3886 94.5976 -0.220031
11585 2 15.4767 96.1703 1.13064
5117 1 20.0263 94.575 2.37108
5121 1 19.1153 96.1787 -0.198414
11532 2 20.9329 96.1703 1.13064
11593 2 18.206 94.5899 1.10876
5153 1 11.8378 99.312 2.4401
5158 1 13.6562 99.3385 -0.15258
5178 1 10.9295 97.7591 -0.175878
11622 2 12.7473 97.7499 1.15342
5110 1 17.2941 99.312 2.4401
5152 1 14.5673 97.7337 2.41628
5167 1 16.3858 97.7591 -0.175878
11584 2 15.4742 99.3287 1.17697
5119 1 20.0236 97.7337 2.41628
5120 1 19.1125 99.3385 -0.15258
11531 2 20.9305 99.3287 1.17697
11583 2 18.2036 97.7499 1.15342
5140 1 11.835 102.466 2.48937
5157 1 13.6533 102.495 -0.104329
5179 1 10.9267 100.917 -0.128678
11610 2 12.7448 100.907 1.2011
5109 1 17.2912 102.466 2.48937
5155 1 14.5645 100.89 2.46451
5156 1 16.3829 100.917 -0.128678
11571 2 15.4717 102.484 1.22567
5108 1 20.0208 100.89 2.46451
5113 1 19.1096 102.495 -0.104329
11530 2 20.9279 102.484 1.22567
11586 2 18.2011 100.907 1.2011
5139 1 11.832 105.618 2.53975
5144 1 13.6504 105.648 -0.0548944
5174 1 10.9237 104.072 -0.0796847
11611 2 12.7423 104.06 1.25052
5095 1 17.2883 105.618 2.53975
5138 1 14.5616 104.043 2.51449
5159 1 16.38 104.072 -0.0796847
11570 2 15.4691 105.636 1.27551
5111 1 20.0179 104.043 2.51449
5112 1 19.1066 105.648 -0.0548944
11523 2 20.9253 105.636 1.27551
11569 2 18.1985 104.06 1.25052
5143 1 13.6474 108.799 -0.00543356
5175 1 10.9208 107.224 -0.0300994
11602 2 12.7397 107.211 1.30048
5141 1 14.5587 107.193 2.56498
5142 1 16.377 107.224 -0.0300994
11556 2 15.4665 108.786 1.32531
5093 1 20.0149 107.193 2.56498
5098 1 19.1037 108.799 -0.00543356
11522 2 20.9227 108.786 1.32531
11572 2 18.1959 107.211 1.30048
5133 1 13.6445 111.946 0.0430219
5173 1 10.9178 110.373 0.0189785
11603 2 12.7371 110.36 1.34987
5145 1 16.3741 110.373 0.0189785
11555 2 15.4639 111.933 1.37405
5097 1 19.1007 111.946 0.0430219
11507 2 20.9201 111.933 1.37405
11554 2 18.1933 110.36 1.34987
5150 1 12.7527 94.554 4.94722
11581 2 13.6596 96.1452 3.69327
11620 2 10.9329 94.5663 3.67095
5106 1 15.4794 96.1323 4.96991
11580 2 16.3891 94.5663 3.67095
5052 1 20.9356 96.1323 4.96991
5116 1 18.209 94.554 4.94722
11529 2 19.1159 96.1452 3.69327
5151 1 12.7498 97.71 4.99352
11567 2 13.6568 99.3012 3.74048
11608 2 10.9301 97.7236 3.7165
5105 1 15.4761 99.2873 5.01859
11582 2 16.3863 97.7236 3.7165
5051 1 20.9324 99.2873 5.01859
5104 1 18.206 97.71 4.99352
11528 2 19.113 99.3012 3.74048
5136 1 12.7464 100.864 5.04354
11566 2 13.6538 102.455 3.79002
11609 2 10.9272 100.878 3.76504
5091 1 15.4729 102.44 5.06887
11565 2 16.3834 100.878 3.76504
5050 1 20.9291 102.44 5.06887
5107 1 18.2026 100.864 5.04354
11521 2 19.1101 102.455 3.79002
5137 1 12.7431 104.015 5.09445
11552 2 13.6508 105.606 3.84061
11600 2 10.9242 104.03 3.81526
5090 1 15.4696 105.59 5.12011
11568 2 16.3805 104.03 3.81526
5043 1 20.9259 105.59 5.12011
5089 1 18.1994 104.015 5.09445
11520 2 19.1071 105.606 3.84061
5132 1 11.8291 108.768 2.59006
5128 1 12.7399 107.165 5.1457
11551 2 13.6478 108.755 3.89106
11601 2 10.9212 107.18 3.86592
5094 1 17.2853 108.768 2.59006
5076 1 15.4663 108.739 5.17109
11550 2 16.3774 107.18 3.86592
5042 1 20.9226 108.739 5.17109
5092 1 18.1961 107.165 5.1457
11506 2 19.104 108.755 3.89106
5131 1 11.8261 111.916 2.63925
5129 1 12.7366 110.313 5.19615
11541 2 13.6448 111.902 3.94033
11599 2 10.9181 110.329 3.9159
5077 1 17.2824 111.916 2.63925
5130 1 14.5557 110.342 2.61485
5075 1 15.4631 111.887 5.22077
11553 2 16.3744 110.329 3.9159
5096 1 20.0119 110.342 2.61485
5028 1 20.9193 111.887 5.22077
5074 1 18.1928 110.313 5.19615
11505 2 19.101 111.902 3.94033
5102 1 13.6611 96.1116 7.54368
5149 1 10.9346 94.5348 7.52029
11559 2 12.7535 94.5254 8.80911
11563 2 11.8418 96.1227 6.26182
5101 1 16.3909 94.5348 7.52029
11514 2 15.4798 96.1015 8.83268
11526 2 17.298 96.1227 6.26182
11579 2 14.5715 94.5452 6.23893
5049 1 19.1173 96.1116 7.54368
11472 2 20.9361 96.1015 8.83268
11524 2 18.2097 94.5254 8.80911
11525 2 20.0277 94.5452 6.23893
5087 1 13.6576 99.2638 7.5931
5134 1 10.9313 97.6879 7.56801
11560 2 12.7499 97.6771 8.85713
11562 2 11.8386 99.2761 6.31017
5103 1 16.3875 97.6879 7.56801
11513 2 15.4762 99.2524 8.88221
11518 2 17.2948 99.2761 6.31017
11561 2 14.5683 97.6996 6.28564
5048 1 19.1139 99.2638 7.5931
11471 2 20.9324 99.2524 8.88221
11512 2 18.2061 97.6771 8.85713
11527 2 20.0245 97.6996 6.28564
5086 1 13.6541 102.414 7.64454
5135 1 10.9278 100.839 7.61869
11544 2 12.7462 100.827 8.9078
11548 2 11.8352 102.428 6.36068
5085 1 16.384 100.839 7.61869
11499 2 15.4725 102.402 8.93369
11517 2 17.2915 102.428 6.36068
11564 2 14.565 100.852 6.33526
5041 1 19.1103 102.414 7.64454
11470 2 20.9287 102.402 8.93369
11515 2 18.2025 100.827 8.9078
11516 2 20.0213 100.852 6.33526
5072 1 13.6505 105.564 7.69655
5126 1 10.9242 103.989 7.67054
11545 2 12.7424 103.976 8.95969
11547 2 11.8318 105.577 6.41197
5088 1 16.3804 103.989 7.67054
11498 2 15.4687 105.55 8.98567
11503 2 17.288 105.577 6.41197
11546 2 14.5616 104.003 6.3863
5040 1 19.1067 105.564 7.69655
11464 2 20.9249 105.55 8.98567
11497 2 18.1987 103.976 8.95969
11519 2 20.0179 104.003 6.3863
5071 1 13.6468 108.712 7.74804
5127 1 10.9205 107.138 7.72243
11536 2 12.7387 107.124 9.01148
11540 2 11.8284 108.726 6.4629
5070 1 16.3768 107.138 7.72243
11487 2 15.4649 108.698 9.037
11502 2 17.2846 108.726 6.4629
11549 2 14.5582 107.152 6.43755
5027 1 19.1031 108.712 7.74804
11463 2 20.9211 108.698 9.037
11500 2 18.1949 107.124 9.01148
11501 2 20.0145 107.152 6.43755
5061 1 13.6433 111.859 7.79801
5125 1 10.9169 110.285 7.77327
11537 2 12.7349 110.272 9.06211
11539 2 11.825 111.873 6.51245
5073 1 16.3731 110.285 7.77327
11486 2 15.4613 111.845 9.08672
11488 2 17.2813 111.873 6.51245
11538 2 14.5548 110.3 6.4879
5026 1 19.0995 111.859 7.79801
11456 2 20.9175 111.845 9.08672
11485 2 18.1912 110.272 9.06211
11504 2 20.0111 110.3 6.4879
5083 1 11.8427 96.0912 10.1166
11510 2 13.6613 96.0806 11.4048
11558 2 10.9352 94.5059 11.3804
11542 2 10.9311 97.6549 11.43
5046 1 17.2989 96.0912 10.1166
5100 1 14.5726 94.5159 10.0924
11509 2 16.3914 94.5059 11.3804
11511 2 16.3874 97.6549 11.43
5045 1 20.0289 94.5159 10.0924
11469 2 19.1175 96.0806 11.4048
5082 1 11.8388 99.2409 10.1672
11495 2 13.6572 99.2289 11.4557
11543 2 10.927 100.803 11.4818
5038 1 17.2951 99.2409 10.1672
5081 1 14.5689 97.6662 10.1416
11493 2 16.3832 100.803 11.4818
5047 1 20.0251 97.6662 10.1416
11468 2 19.1134 99.2289 11.4557
5068 1 11.8349 102.389 10.2196
11494 2 13.653 102.376 11.5082
11534 2 10.9228 103.95 11.5345
5037 1 17.2911 102.389 10.2196
5084 1 14.565 100.815 10.1933
11496 2 16.379 103.95 11.5345
5036 1 20.0212 100.815 10.1933
11462 2 19.1092 102.376 11.5082
5067 1 11.8308 105.537 10.2724
11483 2 13.6488 105.524 11.5608
11535 2 10.9186 107.097 11.5868
5024 1 17.2871 105.537 10.2724
5066 1 14.561 103.963 10.246
11481 2 16.3749 107.097 11.5868
5039 1 20.0172 103.963 10.246
11461 2 19.1051 105.524 11.5608
5060 1 11.8269 108.684 10.3242
11482 2 13.6447 108.671 11.6124
11533 2 10.9147 110.244 11.6375
5023 1 17.2831 108.684 10.3242
5069 1 14.557 107.111 10.2985
11484 2 16.3709 110.244 11.6375
5022 1 20.0132 107.111 10.2985
11455 2 19.101 108.671 11.6124
5059 1 11.8231 111.832 10.3743
11476 2 13.6409 111.818 11.6621
5484 1 14.5494 113.405 10.3984
5013 1 17.2793 111.832 10.3743
5058 1 14.5531 110.258 10.3495
11917 2 16.3672 113.392 11.686
5025 1 20.0093 110.258 10.3495
11454 2 19.0971 111.818 11.6621
5429 1 20.0056 113.405 10.3984
8702 2 21.8234 113.392 11.686
5030 1 13.661 96.0487 15.2636
11491 2 11.8423 96.059 13.9779
5062 1 10.9303 97.6209 15.2903
5080 1 12.7499 97.6442 12.7155
5034 1 15.4802 96.0706 12.6897
11466 2 17.2986 96.059 13.9779
5031 1 16.3866 97.6209 15.2903
11489 2 14.5681 97.632 14.0039
5001 1 19.1172 96.0487 15.2636
5004 1 20.9364 96.0706 12.6897
5032 1 18.2061 97.6442 12.7155
11467 2 20.0244 97.632 14.0039
5016 1 13.656 99.1931 15.3174
11490 2 11.8377 99.2048 14.0304
5063 1 10.9254 100.765 15.3447
5064 1 12.7455 100.791 12.7685
5033 1 15.4758 99.2176 12.7418
11459 2 17.2939 99.2048 14.0304
5014 1 16.3816 100.765 15.3447
11492 2 14.5634 100.778 14.0571
5000 1 19.1122 99.1931 15.3174
5003 1 20.932 99.2176 12.7418
5035 1 18.2017 100.791 12.7685
11457 2 20.0197 100.778 14.0571
5015 1 13.651 102.337 15.372
11479 2 11.833 102.35 14.0839
5054 1 10.9205 103.91 15.399
5065 1 12.741 103.937 12.8221
5020 1 15.4714 102.364 12.7953
11458 2 17.2892 102.35 14.0839
5017 1 16.3767 103.91 15.399
11477 2 14.5588 103.923 14.1106
4997 1 19.1073 102.337 15.372
5002 1 20.9276 102.364 12.7953
11460 2 20.015 103.923 14.1106
5018 1 18.1973 103.937 12.8221
5008 1 13.6462 105.482 15.4258
11478 2 11.8284 105.496 14.1371
5055 1 10.9158 107.055 15.4521
5056 1 12.7367 107.084 12.8749
5019 1 15.467 105.51 12.8486
11452 2 17.2847 105.496 14.1371
5006 1 16.3721 107.055 15.4521
11480 2 14.5543 107.069 14.1632
4996 1 19.1025 105.482 15.4258
4999 1 20.9232 105.51 12.8486
11450 2 20.0106 107.069 14.1632
5021 1 18.1929 107.084 12.8749
5007 1 13.6418 108.628 15.4778
11475 2 11.8241 108.643 14.1888
5057 1 12.7326 110.23 12.926
5012 1 15.4627 108.657 12.9007
11451 2 17.2803 108.643 14.1888
5009 1 16.3678 110.202 15.5029
11473 2 14.5502 110.216 14.2139
1981 1 21.824 110.202 15.5029
11453 2 20.0064 110.216 14.2139
4994 1 19.098 108.628 15.4778
4998 1 20.9189 108.657 12.9007
5010 1 18.1888 110.23 12.926
5005 1 13.6377 111.776 15.5274
11474 2 11.8201 111.79 14.2383
11916 2 14.5464 113.364 14.262
5463 1 12.7287 113.378 12.9746
5011 1 15.4587 111.804 12.9506
11449 2 17.2764 111.79 14.2383
5413 1 16.364 113.35 15.551
5428 1 18.185 113.378 12.9746
11873 2 20.0026 113.364 14.262
4995 1 20.915 111.804 12.9506
4993 1 19.0939 111.776 15.5274
2390 1 21.8202 113.35 15.551
11814 2 13.659 96.0093 19.1275
5374 1 11.8412 96.0245 17.8386
11832 2 12.7483 97.6072 16.579
11826 2 10.9278 97.5794 19.1554
11818 2 15.4791 96.0356 16.5521
5351 1 17.2974 96.0245 17.8386
11815 2 16.384 97.5794 19.1554
5372 1 14.5664 97.5953 17.8664
11769 2 19.1152 96.0093 19.1275
11772 2 20.9354 96.0356 16.5521
11816 2 18.2046 97.6072 16.579
5352 1 20.0227 97.5953 17.8664
5373 1 11.8355 99.1661 17.8943
11806 2 13.6529 99.1498 19.1835
11828 2 12.743 100.75 16.6336
11827 2 10.9218 100.721 19.2114
11817 2 15.4738 99.1788 16.6062
5347 1 17.2917 99.1661 17.8943
5375 1 14.5608 100.737 17.9222
11804 2 16.3781 100.721 19.2114
11768 2 19.1091 99.1498 19.1835
11771 2 20.93 99.1788 16.6062
11819 2 18.1993 100.75 16.6336
5345 1 20.017 100.737 17.9222
5367 1 11.8299 102.309 17.9498
11805 2 13.6471 102.292 19.2389
11829 2 12.7379 103.895 16.6878
11810 2 15.4686 102.322 16.6608
5346 1 17.2862 102.309 17.9498
5365 1 14.5554 103.88 17.9771
11761 2 19.1034 102.292 19.2389
11770 2 20.9248 102.322 16.6608
5348 1 20.0117 103.88 17.9771
11808 2 18.1942 103.895 16.6878
5366 1 11.8248 105.452 18.0039
11824 2 12.7332 107.04 16.7405
11809 2 15.4637 105.467 16.7144
5335 1 17.2811 105.452 18.0039
5368 1 14.5506 107.025 18.0301
11763 2 20.9199 105.467 16.7144
11811 2 18.1895 107.04 16.7405
5333 1 20.0068 107.025 18.0301
5360 1 11.8202 108.598 18.0556
11825 2 12.729 110.187 16.7909
5358 1 14.5463 110.172 18.0804
5334 1 17.2765 108.598 18.0556
11796 2 15.4592 108.613 16.766
11794 2 18.1852 110.187 16.7909
11762 2 20.9154 108.613 16.766
5336 1 20.0025 110.172 18.0804
5359 1 11.8162 111.746 18.1045
12239 2 12.7252 113.336 16.8384
5760 1 14.5426 113.321 18.1278
5317 1 17.2725 111.746 18.1045
11795 2 15.4551 111.761 16.815
12228 2 18.1815 113.336 16.8384
11747 2 20.9114 111.761 16.815
5734 1 19.9988 113.321 18.1278
11802 2 11.8379 95.9784 21.7044
5371 1 12.7454 97.5658 20.4439
5343 1 15.4768 95.9966 20.4151
11766 2 17.2941 95.9784 21.7044
11800 2 14.5625 97.5472 21.7334
5292 1 20.933 95.9966 20.4151
5341 1 18.2016 97.5658 20.4439
11767 2 20.0187 97.5472 21.7334
11801 2 11.831 99.1165 21.7622
5363 1 12.7391 100.706 20.501
5342 1 15.4703 99.1355 20.4726
11758 2 17.2872 99.1165 21.7622
11803 2 14.5559 100.687 21.7905
5291 1 20.9265 99.1355 20.4726
5344 1 18.1953 100.706 20.501
11756 2 20.0121 100.687 21.7905
11822 2 10.9163 103.863 19.2661
11788 2 11.8248 102.257 21.8182
5364 1 12.7334 103.848 20.5562
11807 2 16.3726 103.863 19.2661
5331 1 15.4643 102.276 20.5289
11757 2 17.281 102.257 21.8182
11786 2 14.5502 103.829 21.8453
5290 1 20.9205 102.276 20.5289
5329 1 18.1896 103.848 20.5562
11759 2 20.0064 103.829 21.8453
11792 2 13.6419 105.436 19.2926
11787 2 11.8195 105.401 21.8716
5356 1 12.7284 106.993 20.6088
11789 2 14.5453 106.974 21.8972
11790 2 16.3677 107.009 19.3186
5330 1 15.4589 105.42 20.5829
11743 2 17.2757 105.401 21.8716
5332 1 18.1847 106.993 20.6088
11760 2 19.0982 105.436 19.2926
5283 1 20.9152 105.42 20.5829
11741 2 20.0016 106.974 21.8972
8559 2 21.8239 107.009 19.3186
11791 2 13.6374 108.582 19.3438
11780 2 11.8151 108.548 21.922
5357 1 12.7243 110.14 20.6583
11778 2 14.5414 110.123 21.946
11793 2 16.3635 110.156 19.3683
5316 1 15.4544 108.566 20.6339
11742 2 17.2714 108.548 21.922
5314 1 18.1805 110.14 20.6583
11746 2 19.0936 108.582 19.3438
5282 1 20.9106 108.566 20.6339
11744 2 19.9976 110.123 21.946
8557 2 21.8197 110.156 19.3683
11781 2 13.6335 111.731 19.3921
11779 2 11.8116 111.699 21.9691
5754 1 12.7209 113.291 20.7045
12220 2 14.5382 113.275 21.9915
5315 1 15.4506 111.715 20.6818
11725 2 17.2678 111.699 21.9691
12221 2 16.36 113.306 19.415
5733 1 18.1771 113.291 20.7045
11745 2 19.0898 111.731 19.3921
5267 1 20.9068 111.715 20.6818
12173 2 19.9945 113.275 21.9915
8974 2 21.8162 113.306 19.415
5323 1 11.8319 95.9227 25.574
5339 1 13.6551 95.9633 22.9934
5361 1 10.9232 97.5312 23.0232
11799 2 12.7397 97.509 24.3131
5286 1 17.2881 95.9227 25.574
11754 2 15.4718 95.9414 24.2832
5321 1 14.5558 97.4894 25.6045
5340 1 16.3794 97.5312 23.0232
5289 1 19.1113 95.9633 22.9934
11700 2 20.928 95.9414 24.2832
5287 1 20.012 97.4894 25.6045
11752 2 18.1959 97.509 24.3131
5322 1 11.8239 99.0573 25.6341
5327 1 13.6478 99.0997 23.0526
5362 1 10.9163 100.669 23.0812
11784 2 12.7326 100.647 24.3708
5324 1 14.5486 100.627 25.6626
5278 1 17.2801 99.0573 25.6341
11753 2 15.4641 99.0776 24.3423
5325 1 16.3725 100.669 23.0812
5288 1 19.104 99.0997 23.0526
11699 2 20.9204 99.0776 24.3423
5276 1 20.0048 100.627 25.6626
11755 2 18.1889 100.647 24.3708
5308 1 11.8174 102.197 25.6901
5326 1 13.6413 102.24 23.1091
11785 2 12.7269 103.79 24.4251
5306 1 14.5429 103.769 25.7166
5277 1 17.2737 102.197 25.6901
11739 2 15.4577 102.218 24.3984
5328 1 16.3667 103.811 23.1362
11737 2 18.1831 103.79 24.4251
5281 1 19.0976 102.24 23.1091
11698 2 20.914 102.218 24.3984
5279 1 19.9991 103.769 25.7166
2282 1 21.8229 103.811 23.1362
5307 1 11.8125 105.343 25.7422
5312 1 13.636 105.383 23.1625
11776 2 12.7224 106.937 24.4759
5309 1 14.5386 106.917 25.7668
5263 1 17.2687 105.343 25.7422
11738 2 15.4526 105.363 24.4509
5310 1 16.3619 106.957 23.1879
11740 2 18.1786 106.937 24.4759
2283 1 21.8181 106.957 23.1879
5280 1 19.0923 105.383 23.1625
11691 2 20.9089 105.363 24.4509
5261 1 19.9949 106.917 25.7668
5300 1 11.8088 108.493 25.7905
5311 1 13.6318 108.531 23.2124
11777 2 12.719 110.088 24.5234
5298 1 14.5356 110.069 25.8134
5262 1 17.2651 108.493 25.7905
11724 2 15.4487 108.512 24.5001
5313 1 16.3581 110.106 23.2361
11722 2 18.1752 110.088 24.5234
2281 1 21.8144 110.106 23.2361
5266 1 19.088 108.531 23.2124
11690 2 20.9049 108.512 24.5001
5264 1 19.9918 110.069 25.8134
5299 1 11.8062 111.647 25.8355
5301 1 13.6285 111.682 23.259
12206 2 12.7164 113.242 24.5675
5721 1 14.5334 113.225 25.8568
5246 1 17.2625 111.647 25.8355
11723 2 15.4457 111.664 24.5458
5722 1 16.3552 113.259 23.281
12172 2 18.1727 113.242 24.5675
2681 1 21.8115 113.259 23.281
5669 1 19.9896 113.225 25.8568
5265 1 19.0847 111.682 23.259
11676 2 20.902 111.664 24.5458
11750 2 13.6477 95.8961 26.864
5320 1 12.7304 97.4386 28.1876
11782 2 10.9153 97.4631 26.8944
5274 1 15.4629 95.8722 28.1571
11751 2 16.3715 97.4631 26.8944
5272 1 18.1867 97.4386 28.1876
5226 1 20.9192 95.8722 28.1571
11697 2 19.1039 95.8961 26.864
11735 2 13.6396 99.0315 26.9236
5304 1 12.7234 100.577 28.2446
5273 1 15.4548 99.007 28.2167
11733 2 16.3645 100.602 26.9518
5275 1 18.1797 100.577 28.2446
5225 1 20.911 99.007 28.2167
11696 2 19.0959 99.0315 26.9236
8519 2 21.8207 100.602 26.9518
11734 2 13.6335 102.173 26.9789
5305 1 12.7185 103.723 28.2967
5259 1 15.4489 102.149 28.2712
11736 2 16.3592 103.746 27.0049
5257 1 18.1747 103.723 28.2967
8510 2 21.8154 103.746 27.0049
5224 1 20.9051 102.149 28.2712
11689 2 19.0897 102.173 26.9789
11720 2 13.629 105.32 27.03
5296 1 12.7152 106.874 28.3449
5258 1 15.4448 105.298 28.3213
11718 2 16.3554 106.896 27.0542
5260 1 18.1714 106.874 28.3449
8511 2 21.8116 106.896 27.0542
5217 1 20.901 105.298 28.3213
11688 2 19.0852 105.32 27.03
11719 2 13.6258 108.472 27.0775
5297 1 12.7131 110.03 28.3897
5245 1 15.4421 108.451 28.3677
11721 2 16.3528 110.05 27.1
5243 1 18.1693 110.03 28.3897
8509 2 21.809 110.05 27.1
5216 1 20.8983 108.451 28.3677
11675 2 19.0821 108.472 27.0775
11709 2 13.6237 111.628 27.1217
5703 1 12.7118 113.189 28.4315
5244 1 15.4404 111.609 28.411
12157 2 16.351 113.207 27.1426
5668 1 18.168 113.189 28.4315
5205 1 20.8967 111.609 28.411
11674 2 19.0799 111.628 27.1217
8941 2 21.8073 113.207 27.1426
5270 1 13.6356 95.8095 30.7419
11731 2 11.8215 95.8404 29.4465
11728 2 12.7181 97.3421 32.0585
11729 2 14.5455 97.4078 29.4767
11682 2 15.4497 95.7724 32.0293
11694 2 17.2778 95.8404 29.4465
5271 1 16.3596 97.3773 30.7714
11680 2 18.1743 97.3421 32.0585
2230 1 21.8158 97.3773 30.7714
5223 1 19.0918 95.8095 30.7419
11652 2 20.9059 95.7724 32.0293
11695 2 20.0017 97.4078 29.4767
5255 1 13.6282 98.9476 30.7993
11730 2 11.8139 98.9773 29.5054
11712 2 12.7133 100.489 32.1121
11732 2 14.5391 100.549 29.5327
11681 2 15.4435 98.9144 32.086
11686 2 17.2701 98.9773 29.5054
5253 1 16.3537 100.52 30.8258
11683 2 18.1696 100.489 32.1121
2231 1 21.8099 100.52 30.8258
5222 1 19.0844 98.9476 30.7993
11651 2 20.8997 98.9144 32.086
11684 2 19.9953 100.549 29.5327
5254 1 13.6236 102.095 30.8511
11716 2 11.8086 102.122 29.5589
11713 2 12.7107 103.643 32.161
11714 2 14.5348 103.697 29.5839
11668 2 15.4399 102.065 32.137
11685 2 17.2648 102.122 29.5589
5256 1 16.3502 103.671 30.8754
11666 2 18.1669 103.643 32.161
2222 1 21.8064 103.671 30.8754
5215 1 19.0798 102.095 30.8511
11650 2 20.8962 102.065 32.137
11687 2 19.9911 103.697 29.5839
5241 1 13.6209 105.248 30.8988
11715 2 11.8052 105.273 29.608
11704 2 12.7095 106.803 32.2062
11717 2 14.5322 106.851 29.6312
11667 2 15.4381 105.222 32.184
11672 2 17.2615 105.273 29.608
5239 1 16.3482 106.827 30.9214
11669 2 18.1657 106.803 32.2062
2223 1 21.8044 106.827 30.9214
5214 1 19.0771 105.248 30.8988
11647 2 20.8943 105.222 32.184
11670 2 19.9884 106.851 29.6312
5240 1 13.6195 108.407 30.9432
11708 2 11.8032 108.429 29.6536
11705 2 12.7091 109.966 32.2485
11706 2 14.5306 110.009 29.6753
11660 2 15.4373 108.384 32.2277
11671 2 17.2594 108.429 29.6536
5242 1 16.3472 109.988 30.9643
11658 2 18.1653 109.966 32.2485
2221 1 21.8035 109.988 30.9643
5204 1 19.0757 108.407 30.9432
11646 2 20.8935 108.384 32.2277
11673 2 19.9868 110.009 29.6753
5232 1 13.6189 111.569 30.9847
11707 2 11.802 111.589 29.6962
12135 2 12.7092 113.132 32.2883
12156 2 14.5298 113.171 29.7164
11659 2 15.4372 111.549 32.2687
11661 2 17.2582 111.589 29.6962
5653 1 16.3469 113.152 31.0045
12100 2 18.1654 113.132 32.2883
5203 1 19.0751 111.569 30.9847
11643 2 20.8934 111.549 32.2687
2630 1 21.8032 113.152 31.0045
12101 2 19.986 113.171 29.7164
5251 1 11.8063 95.7329 33.3266
11678 2 13.6207 95.6917 34.6098
5249 1 14.5314 97.3048 33.354
5220 1 17.2625 95.7329 33.3266
11679 2 16.3467 97.2663 34.6374
5208 1 15.4326 95.6425 35.9075
8446 2 21.803 97.2663 34.6374
11649 2 19.077 95.6917 34.6098
5221 1 19.9876 97.3048 33.354
5190 1 20.8888 95.6425 35.9075
5252 1 14.5277 100.456 33.4047
5250 1 11.8011 98.8794 33.3799
11664 2 13.6172 98.8435 34.6634
11662 2 16.3444 100.423 34.6882
5212 1 17.2573 98.8794 33.3799
8447 2 21.8007 100.423 34.6882
5210 1 19.9839 100.456 33.4047
11648 2 19.0734 98.8435 34.6634
5235 1 14.5261 103.614 33.4515
5237 1 11.7986 102.035 33.4285
11663 2 13.6158 102.003 34.7119
11665 2 16.3438 103.585 34.7347
5211 1 17.2548 102.035 33.4285
8438 2 21.8 103.585 34.7347
5213 1 19.9823 103.614 33.4515
11645 2 19.0721 102.003 34.7119
11656 2 13.6157 105.168 34.7568
5236 1 11.7977 105.195 33.4737
5238 1 14.5257 106.777 33.4952
5201 1 17.2539 105.195 33.4737
11654 2 16.344 106.752 34.7782
8439 2 21.8003 106.752 34.7782
11644 2 19.0719 105.168 34.7568
5199 1 19.9819 106.777 33.4952
5229 1 14.526 109.944 33.5365
5231 1 11.7977 108.36 33.5162
11655 2 13.6162 108.336 34.799
11657 2 16.3448 109.921 34.8192
5200 1 17.2539 108.36 33.5162
8437 2 21.801 109.921 34.8192
5202 1 19.9822 109.944 33.5365
11642 2 19.0725 108.336 34.799
11653 2 13.6172 111.507 34.8388
5230 1 11.7982 111.528 33.5562
5652 1 14.5267 113.113 33.5754
5194 1 17.2544 111.528 33.5562
12085 2 16.3458 113.093 34.8579
5603 1 19.983 113.113 33.5754
8870 2 21.8021 113.093 34.8579
11641 2 19.0734 111.507 34.8388
11854 2 11.7931 95.6 37.1839
17091 1 13.6041 95.5406 38.4791
11852 2 14.5208 97.1823 37.2102
5248 1 12.7033 97.222 35.9322
11843 2 17.2494 95.6 37.1839
17476 1 16.3338 97.1314 38.5022
5206 1 18.1596 97.222 35.9322
17061 1 19.0604 95.5406 38.4791
11844 2 19.9771 97.1823 37.2102
14664 1 21.79 97.1314 38.5022
11853 2 11.7927 98.7663 37.2351
17477 1 13.6071 98.7218 38.5249
5233 1 12.7027 100.386 35.9792
11855 2 14.5211 100.351 37.2589
11840 2 17.249 98.7663 37.2351
5207 1 15.431 98.8033 35.9561
17478 1 16.3365 100.312 38.5472
5209 1 18.159 100.386 35.9792
17442 1 19.0633 98.7218 38.5249
5189 1 20.8872 98.8033 35.9561
11838 2 19.9774 100.351 37.2589
14662 1 21.7927 100.312 38.5472
11850 2 11.7935 101.937 37.2818
17473 1 13.6096 101.902 38.5691
5234 1 12.7033 103.554 36.0235
11848 2 14.5223 103.524 37.304
11839 2 17.2498 101.937 37.2818
5197 1 15.4311 101.97 36.0017
17471 1 16.339 103.492 38.5905
5195 1 18.1596 103.554 36.0235
17441 1 19.0659 101.902 38.5691
5188 1 20.8873 101.97 36.0017
11841 2 19.9786 103.524 37.304
14663 1 21.7952 103.492 38.5905
11849 2 11.795 105.112 37.3255
17472 1 13.6121 105.082 38.6115
5227 1 12.7045 106.725 36.0657
11851 2 14.5239 106.699 37.3465
11836 2 17.2512 105.112 37.3255
5196 1 15.432 105.139 36.0449
17474 1 16.3415 106.672 38.632
5198 1 18.1608 106.725 36.0657
17436 1 19.0683 105.082 38.6115
5187 1 20.8882 105.139 36.0449
11834 2 19.9802 106.699 37.3465
14660 1 21.7977 106.672 38.632
11847 2 11.7967 108.287 37.3669
17462 1 13.6146 108.262 38.6521
5228 1 12.706 109.898 36.1058
11845 2 14.5257 109.876 37.3868
11835 2 17.2529 108.287 37.3669
17460 1 16.3439 109.852 38.6717
5193 1 15.4334 108.312 36.086
5191 1 18.1623 109.898 36.1058
17435 1 19.0708 108.262 38.6521
5186 1 20.8896 108.312 36.086
11837 2 19.9819 109.876 37.3868
14661 1 21.8001 109.852 38.6717
12264 2 14.5275 113.053 37.4249
5631 1 12.7076 113.073 36.1438
11846 2 11.7985 111.464 37.4061
17461 1 13.6169 111.442 38.6909
5602 1 18.1639 113.073 36.1438
11833 2 17.2547 111.464 37.4061
17463 1 16.3461 113.032 38.7095
5192 1 15.4349 111.486 36.1251
12250 2 19.9837 113.053 37.4249
17422 1 19.0731 111.442 38.6909
5185 1 20.8912 111.486 36.1251
14659 1 21.8024 113.032 38.7095
23099 2 12.6986 97.0939 39.774
17089 1 11.7817 95.4372 41.037
22689 2 13.6073 95.405 42.3
17475 1 14.5128 97.0393 41.0612
23081 2 16.337 97.0065 42.3282
17041 1 17.2379 95.4372 41.037
22703 2 15.4259 95.5018 39.7475
23088 2 18.1549 97.0939 39.774
17438 1 19.9691 97.0393 41.0612
22653 2 19.0636 95.405 42.3
22655 2 20.8821 95.5018 39.7475
20278 2 21.7933 97.0065 42.3282
23100 2 12.7008 100.278 39.8228
23082 2 13.6104 98.6064 42.3546
17469 1 11.7872 98.6389 41.0847
17467 1 14.5174 100.237 41.1077
23086 2 15.4278 98.686 39.799
23083 2 16.34 100.205 42.3796
17439 1 17.2434 98.6389 41.0847
23084 2 18.157 100.278 39.8228
17440 1 19.9736 100.237 41.1077
23037 2 19.0667 98.6064 42.3546
23040 2 20.884 98.686 39.799
20274 2 21.7963 100.205 42.3796
23096 2 12.7033 103.462 39.868
17468 1 11.7912 101.833 41.13
23074 2 13.6134 101.803 42.4035
17470 1 14.5211 103.429 41.1519
23085 2 15.4301 101.87 39.8458
17433 1 17.2474 101.833 41.13
23072 2 16.343 103.4 42.4265
23087 2 18.1595 103.462 39.868
17431 1 19.9773 103.429 41.1519
23036 2 19.0697 101.803 42.4035
23039 2 20.8864 101.87 39.8458
20275 2 21.7993 103.4 42.4265
23097 2 12.7058 106.646 39.9106
17458 1 11.7946 105.023 41.1732
23073 2 13.6164 104.996 42.4488
17456 1 14.5243 106.618 41.194
23078 2 15.4326 105.054 39.8896
17432 1 17.2508 105.023 41.1732
23075 2 16.3459 106.592 42.4704
23076 2 18.162 106.646 39.9106
17434 1 19.9805 106.618 41.194
23029 2 19.0726 104.996 42.4488
23038 2 20.8889 105.054 39.8896
20270 2 21.8021 106.592 42.4704
23092 2 12.7082 109.829 39.9509
17457 1 11.7976 108.212 41.2144
23060 2 13.6192 108.187 42.4913
17459 1 14.5272 109.805 41.2342
23077 2 15.4351 108.237 39.931
17419 1 17.2539 108.212 41.2144
23058 2 16.3487 109.782 42.5117
23079 2 18.1644 109.829 39.9509
17417 1 19.9834 109.805 41.2342
23028 2 19.0754 108.187 42.4913
23031 2 20.8913 108.237 39.931
20271 2 21.8049 109.782 42.5117
23093 2 12.7105 113.012 39.9892
17450 1 11.8004 111.398 41.2536
23059 2 13.6218 111.377 42.5314
17448 1 14.5298 112.992 41.2724
17418 1 17.2567 111.398 41.2536
23061 2 16.3512 112.971 42.5506
23064 2 15.4375 111.421 39.9703
23062 2 18.1667 113.012 39.9892
17420 1 19.9861 112.992 41.2724
23014 2 19.0781 111.377 42.5314
23030 2 20.8937 111.421 39.9703
20269 2 21.8074 112.971 42.5506
17465 1 12.6971 96.9523 43.61
22687 2 11.7927 95.3153 44.8442
23080 2 14.5227 96.9242 44.8748
17039 1 15.4222 95.3419 43.5826
22634 2 17.249 95.3153 44.8442
17437 1 18.1534 96.9523 43.61
23033 2 19.9789 96.9242 44.8748
16991 1 20.8784 95.3419 43.5826
17466 1 12.702 100.164 43.6607
23070 2 11.7962 98.5305 44.9033
23068 2 14.5259 100.135 44.9302
17429 1 15.4278 98.5592 43.6359
23034 2 17.2525 98.5305 44.9033
17427 1 18.1582 100.164 43.6607
17376 1 20.8841 98.5592 43.6359
23035 2 19.9822 100.135 44.9302
17454 1 12.7058 103.366 43.7076
23069 2 11.7993 101.738 44.9557
23071 2 14.5289 103.339 44.9801
17428 1 15.4321 101.766 43.6846
23026 2 17.2556 101.738 44.9557
17430 1 18.1621 103.366 43.7076
17375 1 20.8883 101.766 43.6846
23024 2 19.9852 103.339 44.9801
17455 1 12.7092 106.564 43.7517
23056 2 11.8023 104.94 45.0036
23054 2 14.5318 106.539 45.0262
17415 1 15.4357 104.966 43.73
23025 2 17.2585 104.94 45.0036
17413 1 18.1655 106.564 43.7517
17374 1 20.8919 104.966 43.73
23027 2 19.988 106.539 45.0262
17446 1 12.7123 109.758 43.7932
23055 2 11.8051 108.138 45.048
23057 2 14.5345 109.736 45.0692
17414 1 15.4389 108.162 43.7727
23011 2 17.2613 108.138 45.048
17416 1 18.1685 109.758 43.7932
17367 1 20.8951 108.162 43.7727
23009 2 19.9908 109.736 45.0692
17447 1 12.715 112.951 43.8325
23048 2 11.8077 111.334 45.0896
23046 2 14.5371 112.931 45.1094
17400 1 15.4418 111.355 43.8131
23010 2 17.2639 111.334 45.0896
17398 1 18.1713 112.951 43.8325
17366 1 20.898 111.355 43.8131
23012 2 19.9933 112.931 45.1094
23066 2 12.7108 96.8497 47.4169
17023 1 11.802 95.1879 48.6567
17025 1 13.6111 95.2586 46.1208
17423 1 14.5321 96.8053 48.6902
17424 1 16.3417 96.8739 46.1517
16972 1 17.2582 95.1879 48.6567
22632 2 15.4369 95.2361 47.3841
23032 2 18.167 96.8497 47.4169
17369 1 19.9883 96.8053 48.6902
16989 1 19.0673 95.2586 46.1208
22593 2 20.8932 95.2361 47.3841
14644 1 21.7979 96.8739 46.1517
17407 1 11.8057 98.4199 48.7217
17425 1 13.6157 98.4858 46.1806
23067 2 12.714 100.069 47.4763
17405 1 14.5354 100.032 48.7513
17370 1 17.2619 98.4199 48.7217
17426 1 16.3458 100.095 46.2079
23022 2 15.4406 98.4606 47.4475
23020 2 18.1702 100.069 47.4763
17371 1 19.9916 100.032 48.7513
17373 1 19.072 98.4858 46.1806
22974 2 20.8968 98.4606 47.4475
14632 1 21.802 100.095 46.2079
17406 1 11.8087 101.642 48.7793
17411 1 13.6195 101.702 46.2338
23052 2 12.7167 103.282 47.5297
17408 1 14.5382 103.25 48.806
17362 1 17.2649 101.642 48.7793
17409 1 16.3492 103.306 46.2586
23021 2 15.4435 101.676 47.5036
23023 2 18.173 103.282 47.5297
17360 1 19.9944 103.25 48.806
17372 1 19.0757 101.702 46.2338
22973 2 20.8998 101.676 47.5036
14633 1 21.8055 103.306 46.2586
17392 1 11.8114 104.856 48.8316
17410 1 13.6227 104.91 46.2824
23053 2 12.7193 106.488 47.5786
17390 1 14.5408 106.461 48.8561
17361 1 17.2676 104.856 48.8316
17412 1 16.3523 106.512 46.3054
23007 2 15.4462 104.885 47.5546
23005 2 18.1756 106.488 47.5786
17363 1 19.9971 106.461 48.8561
17365 1 19.079 104.91 46.2824
22972 2 20.9024 104.885 47.5546
14624 1 21.8086 106.512 46.3054
17391 1 11.8139 108.065 48.8796
17396 1 13.6257 108.112 46.3276
23044 2 12.7218 109.691 47.6238
17393 1 14.5433 109.667 48.9023
17347 1 17.2702 108.065 48.8796
17394 1 16.3552 109.712 46.3491
23006 2 15.4487 108.09 47.6016
23008 2 18.1781 109.691 47.6238
17345 1 19.9995 109.667 48.9023
17364 1 19.0819 108.112 46.3276
22965 2 20.905 108.09 47.6016
14625 1 21.8114 109.712 46.3491
17384 1 11.8163 111.269 48.9241
17395 1 13.6284 111.312 46.3698
23045 2 12.7242 112.891 47.6657
17382 1 14.5456 112.87 48.945
17346 1 17.2726 111.269 48.9241
17397 1 16.3578 112.91 46.3899
22993 2 15.4511 111.291 47.6451
22991 2 18.1804 112.891 47.6657
17348 1 20.0018 112.87 48.945
17350 1 19.0847 111.312 46.3698
22964 2 20.9074 111.291 47.6451
14623 1 21.8141 112.91 46.3899
17403 1 12.7231 96.7463 51.2287
22620 2 13.6263 95.1683 49.9232
22618 2 11.8165 95.1115 52.4636
23016 2 14.5467 96.7278 52.4979
23017 2 16.3565 96.7842 49.9572
16970 1 15.4494 95.1287 51.1939
17368 1 18.1794 96.7463 51.2287
22582 2 17.2727 95.1115 52.4636
16940 1 20.9057 95.1287 51.1939
22591 2 19.0826 95.1683 49.9232
22967 2 20.003 96.7278 52.4979
20245 2 21.8128 96.7842 49.9572
17404 1 12.726 99.9757 51.293
23018 2 13.6301 98.3979 49.9894
22999 2 11.8203 98.3424 52.5309
22997 2 14.5499 99.9554 52.5626
17358 1 15.4528 98.362 51.2617
23019 2 16.3597 100.009 50.0199
17356 1 18.1822 99.9757 51.293
22968 2 17.2765 98.3424 52.5309
20230 2 21.8159 100.009 50.0199
17316 1 20.909 98.362 51.2617
22971 2 19.0863 98.3979 49.9894
22969 2 20.0061 99.9554 52.5626
17388 1 12.7283 103.198 51.3513
23003 2 13.6328 101.619 50.0489
22998 2 11.823 101.567 52.5929
17357 1 15.4553 101.588 51.3229
23001 2 16.3622 103.227 50.0766
17359 1 18.1845 103.198 51.3513
22960 2 17.2792 101.567 52.5929
20231 2 21.8184 103.227 50.0766
17315 1 20.9115 101.588 51.3229
22970 2 19.0891 101.619 50.0489
17389 1 12.7304 106.413 51.4045
23002 2 13.6352 104.834 50.103
17343 1 15.4575 104.806 51.3785
23004 2 16.3644 106.439 50.1284
17341 1 18.1867 106.413 51.4045
20222 2 21.8207 106.439 50.1284
17314 1 20.9137 104.806 51.3785
22963 2 19.0914 104.834 50.103
17380 1 12.7324 109.624 51.4533
22989 2 13.6374 108.043 50.1527
17342 1 15.4595 108.019 51.4294
22987 2 16.3666 109.647 50.176
20223 2 21.8228 109.647 50.176
17308 1 20.9158 108.019 51.4294
17344 1 18.1887 109.624 51.4533
22962 2 19.0936 108.043 50.1527
17381 1 12.7344 112.831 51.4983
22988 2 13.6395 111.249 50.1985
17331 1 15.4615 111.228 51.4763
22990 2 16.3686 112.851 50.22
17307 1 20.9178 111.228 51.4763
17329 1 18.1906 112.831 51.4983
22952 2 19.0957 111.249 50.1985
20221 2 21.8249 112.851 50.22
17402 1 10.9142 96.696 53.7688
22995 2 12.7372 96.6794 55.0403
16960 1 13.6404 95.0792 53.734
17353 1 16.3704 96.696 53.7688
22580 2 15.4632 95.0638 55.0063
22966 2 18.1935 96.6794 55.0403
16938 1 19.0966 95.0792 53.734
22573 2 20.9194 95.0638 55.0063
17354 1 13.6438 98.3115 53.8024
17386 1 10.9169 99.9256 53.8348
22996 2 12.7404 99.9071 55.1057
17355 1 16.3732 99.9256 53.8348
22956 2 15.4671 98.2938 55.0734
17313 1 19.1001 98.3115 53.8024
22938 2 20.9233 98.2938 55.0734
22954 2 18.1966 99.9071 55.1057
17339 1 13.6461 101.538 53.8659
17387 1 10.919 103.149 53.8957
22981 2 12.7426 103.13 55.1669
17337 1 16.3752 103.149 53.8957
22955 2 15.4697 101.519 55.1369
23000 2 14.5522 103.177 52.6219
17312 1 19.1024 101.538 53.8659
22937 2 20.926 101.519 55.1369
22957 2 18.1989 103.13 55.1669
22958 2 20.0084 103.177 52.6219
17338 1 13.648 104.759 53.9243
17378 1 10.9207 106.368 53.9516
22982 2 12.7444 106.349 55.2237
22985 2 11.8251 104.785 52.6498
17340 1 16.377 106.368 53.9516
22945 2 15.4717 104.74 55.1959
22959 2 17.2813 104.785 52.6498
22983 2 14.5541 106.393 52.6765
17306 1 19.1042 104.759 53.9243
22936 2 20.9279 104.74 55.1959
22943 2 18.2006 106.349 55.2237
22961 2 20.0104 106.393 52.6765
22984 2 11.8269 107.999 52.702
22975 2 12.7459 109.563 55.2761
17379 1 10.9223 109.582 54.003
17327 1 13.6497 107.976 53.9779
22986 2 14.5559 109.604 52.7266
22949 2 17.2832 107.999 52.702
22944 2 15.4733 107.957 55.2504
17325 1 16.3786 109.582 54.003
22947 2 20.0122 109.604 52.7266
22946 2 18.2022 109.563 55.2761
22935 2 20.9295 107.957 55.2504
17305 1 19.1059 107.976 53.9779
22979 2 11.8287 111.209 52.7501
22976 2 12.7474 112.775 55.3241
17377 1 10.9239 112.793 54.0502
17326 1 13.6512 111.188 54.0271
22977 2 14.5577 112.813 52.7726
22948 2 17.2849 111.209 52.7501
22941 2 15.4748 111.17 55.3006
17328 1 16.3801 112.793 54.0502
17299 1 19.1075 111.188 54.0271
22950 2 20.0139 112.813 52.7726
22939 2 18.2036 112.775 55.3241
22934 2 20.931 111.17 55.3006
17651 1 12.7519 96.6147 58.8565
23292 2 10.9278 96.6373 57.5846
16958 1 11.8312 95.0374 56.2772
22899 2 13.6539 95.0231 57.5513
17352 1 14.5613 96.6527 56.3114
23284 2 16.3841 96.6373 57.5846
17255 1 15.4781 95.001 58.8231
16933 1 17.2874 95.0374 56.2772
17309 1 20.0175 96.6527 56.3114
17640 1 18.2082 96.6147 58.8565
17207 1 20.9343 95.001 58.8231
22869 2 19.1101 95.0231 57.5513
17335 1 11.8347 98.2673 56.345
17652 1 12.7549 99.8409 58.9224
23290 2 10.931 99.8638 57.6499
23285 2 13.6577 98.2509 57.6176
17333 1 14.5641 99.881 56.3777
17310 1 17.291 98.2673 56.345
17638 1 15.4817 98.2281 58.8896
23286 2 16.3873 99.8638 57.6499
17592 1 20.9379 98.2281 58.8896
17311 1 20.0204 99.881 56.3777
17636 1 18.2112 99.8409 58.9224
23250 2 19.1139 98.2509 57.6176
17334 1 11.8371 101.494 56.4095
17648 1 12.7569 103.065 58.9857
23291 2 10.9333 103.087 57.7123
23281 2 13.6604 101.476 57.6816
17336 1 14.5661 103.105 56.4402
17637 1 15.4841 101.453 58.9544
17303 1 17.2933 101.494 56.4095
23279 2 16.3895 103.087 57.7123
17591 1 20.9404 101.453 58.9544
17639 1 18.2132 103.065 58.9857
17301 1 20.0223 103.105 56.4402
23249 2 19.1166 101.476 57.6816
17323 1 11.8388 104.716 56.4699
17649 1 12.7584 106.286 59.0453
23288 2 10.9349 106.307 57.7708
23280 2 13.6623 104.698 57.742
17321 1 14.5676 106.326 56.4983
17630 1 15.4858 104.676 59.016
17302 1 17.295 104.716 56.4699
23282 2 16.3912 106.307 57.7708
17590 1 20.9421 104.676 59.016
17628 1 18.2146 106.286 59.0453
17304 1 20.0239 106.326 56.4983
23244 2 19.1185 104.698 57.742
17322 1 11.8402 107.935 56.5257
17644 1 12.7596 109.504 59.1006
23289 2 10.9363 109.524 57.825
23270 2 13.6638 107.916 57.7984
17324 1 14.5689 109.542 56.5519
17629 1 15.4871 107.895 59.0735
17296 1 17.2964 107.935 56.5257
23268 2 16.3925 109.524 57.825
17583 1 20.9434 107.895 59.0735
17631 1 18.2158 109.504 59.1006
17294 1 20.0252 109.542 56.5519
23243 2 19.12 107.916 57.7984
17319 1 11.8414 111.15 56.577
17645 1 12.7606 112.72 59.1515
23287 2 10.9375 112.738 57.8749
23269 2 13.665 111.132 57.8505
17317 1 14.5702 112.756 56.6011
17616 1 15.4882 111.112 59.1266
17295 1 17.2977 111.15 56.577
23271 2 16.3937 112.738 57.8749
17582 1 20.9444 111.112 59.1266
17614 1 18.2168 112.72 59.1515
17297 1 20.0264 112.756 56.6011
23230 2 19.1213 111.132 57.8505
17650 1 10.9424 96.5804 61.4038
17241 1 13.6686 94.9684 61.3714
22897 2 11.8445 94.9872 60.0984
17633 1 16.3987 96.5804 61.4038
23283 2 14.5747 96.5999 60.1309
22849 2 17.3008 94.9872 60.0984
23246 2 20.0309 96.5999 60.1309
17205 1 19.1248 94.9684 61.3714
17634 1 13.6722 98.1923 61.4364
17646 1 10.9455 99.804 61.4689
23277 2 11.8483 98.2123 60.1635
17635 1 16.4017 99.804 61.4689
23247 2 17.3045 98.2123 60.1635
23275 2 14.5779 99.8244 60.1957
17589 1 19.1284 98.1923 61.4364
23248 2 20.0341 99.8244 60.1957
17626 1 13.6748 101.416 61.501
17647 1 10.9476 103.027 61.5324
23276 2 11.851 101.436 60.2275
17624 1 16.4039 103.027 61.5324
23241 2 17.3072 101.436 60.2275
23278 2 14.5801 103.047 60.2585
17588 1 19.131 101.416 61.501
23239 2 20.0364 103.047 60.2585
17625 1 13.6765 104.637 61.5632
17642 1 10.9491 106.248 61.593
23266 2 11.8529 104.658 60.2888
17627 1 16.4053 106.248 61.593
23240 2 17.3092 104.658 60.2888
23264 2 14.5818 106.268 60.3182
17581 1 19.1328 104.637 61.5632
23242 2 20.038 106.268 60.3182
17612 1 13.6778 107.858 61.6218
17643 1 10.9502 109.467 61.6497
23265 2 11.8544 107.877 60.3466
17610 1 16.4065 109.467 61.6497
23227 2 17.3106 107.877 60.3466
23267 2 14.5831 109.486 60.3739
17580 1 19.1341 107.858 61.6218
23225 2 20.0393 109.486 60.3739
17611 1 13.6788 111.076 61.6764
17641 1 10.9511 112.685 61.7019
23258 2 11.8555 111.095 60.4001
17613 1 16.4074 112.685 61.7019
23226 2 17.3118 111.095 60.4001
23256 2 14.5842 112.703 60.4253
17566 1 19.1351 111.076 61.6764
23228 2 20.0404 112.703 60.4253
23272 2 10.9554 96.5323 65.2283
23273 2 12.7651 96.5654 62.679
17239 1 11.8589 94.938 63.9218
22833 2 13.6816 94.923 65.1973
17632 1 14.5889 96.5482 63.9535
23232 2 16.4116 96.5323 65.2283
17186 1 17.3151 94.938 63.9218
22847 2 15.4913 94.9544 62.6473
17585 1 20.0451 96.5482 63.9535
23245 2 18.2214 96.5654 62.679
22797 2 19.1378 94.923 65.1973
22799 2 20.9475 94.9544 62.6473
17622 1 11.8624 98.1587 63.9855
23233 2 13.6852 98.1419 65.2598
23260 2 10.9586 99.7518 65.2914
23274 2 12.7683 99.7875 62.7429
17586 1 17.3187 98.1587 63.9855
17620 1 14.592 99.7692 64.0176
23234 2 16.4149 99.7518 65.2914
23237 2 15.495 98.1765 62.711
17587 1 20.0482 99.7692 64.0176
23181 2 19.1414 98.1419 65.2598
23184 2 20.9512 98.1765 62.711
23235 2 18.2246 99.7875 62.7429
17621 1 11.8651 101.38 64.0495
23219 2 13.6881 101.362 65.3229
23261 2 10.9611 102.972 65.3541
23262 2 12.7707 103.009 62.8059
17578 1 17.3213 101.38 64.0495
17623 1 14.5943 102.99 64.081
23217 2 16.4173 102.972 65.3541
23236 2 15.4977 101.398 62.7746
17576 1 20.0505 102.99 64.081
23180 2 19.1443 101.362 65.3229
23183 2 20.954 101.398 62.7746
23238 2 18.2269 103.009 62.8059
17608 1 11.867 104.601 64.1119
23218 2 13.6902 104.582 65.3847
23252 2 10.963 106.192 65.4147
23263 2 12.7724 106.23 62.8662
17577 1 17.3233 104.601 64.1119
17606 1 14.5959 106.211 64.142
23220 2 16.4192 106.192 65.4147
23223 2 15.4998 104.619 62.8364
17579 1 20.0521 106.211 64.142
23173 2 19.1465 104.582 65.3847
23182 2 20.956 104.619 62.8364
23221 2 18.2287 106.23 62.8662
17607 1 11.8684 107.821 64.1713
23204 2 13.6918 107.802 65.4439
23253 2 10.9643 109.412 65.4721
23254 2 12.7737 109.449 62.9229
17563 1 17.3247 107.821 64.1713
17609 1 14.5971 109.431 64.1995
23202 2 16.4206 109.412 65.4721
23222 2 15.5012 107.84 62.8951
17561 1 20.0533 109.431 64.1995
23172 2 19.1481 107.802 65.4439
23175 2 20.9575 107.84 62.8951
23224 2 18.23 109.449 62.9229
17600 1 11.8694 111.041 64.2267
23203 2 13.693 111.022 65.4993
23251 2 10.9654 112.632 65.5255
23255 2 12.7747 112.667 62.9755
17562 1 17.3257 111.041 64.2267
17598 1 14.598 112.65 64.2528
23205 2 16.4217 112.632 65.5255
23208 2 15.5024 111.058 62.9498
17564 1 20.0542 112.65 64.2528
23158 2 19.1493 111.022 65.4993
23174 2 20.9586 111.058 62.9498
23206 2 18.231 112.667 62.9755
17618 1 12.7787 96.517 66.5061
22831 2 11.8715 94.8914 67.7474
17617 1 10.9676 96.4859 69.0652
17172 1 13.6939 94.8791 69.0349
23231 2 14.6015 96.499 67.7777
17184 1 15.5049 94.9085 66.4752
22780 2 17.3277 94.8914 67.7474
17569 1 16.4239 96.4859 69.0652
17584 1 18.2349 96.517 66.5061
23177 2 20.0577 96.499 67.7777
17145 1 20.9612 94.9085 66.4752
17143 1 19.1502 94.8791 69.0349
17619 1 12.7818 99.7353 66.5692
23215 2 11.8751 98.1073 67.8086
17570 1 13.6974 98.0934 69.0959
17602 1 10.9707 99.7015 69.127
17574 1 15.5085 98.126 66.5375
23178 2 17.3314 98.1073 67.8086
23213 2 14.6048 99.716 67.8398
17571 1 16.427 99.7015 69.127
17526 1 20.9647 98.126 66.5375
17572 1 18.2381 99.7353 66.5692
23179 2 20.0611 99.716 67.8398
17523 1 19.1536 98.0934 69.0959
17604 1 12.7843 102.955 66.6322
23214 2 11.8781 101.325 67.8711
17555 1 13.7002 101.31 69.1583
17603 1 10.9733 102.919 69.1895
17573 1 15.5113 101.345 66.6008
23170 2 17.3344 101.325 67.8711
23216 2 14.6075 102.935 67.9021
17553 1 16.4295 102.919 69.1895
17525 1 20.9675 101.345 66.6008
17575 1 18.2405 102.955 66.6322
23168 2 20.0638 102.935 67.9021
17522 1 19.1565 101.31 69.1583
17605 1 12.7861 106.175 66.6934
23200 2 11.8805 104.545 67.9328
17554 1 13.7025 104.529 69.2203
17594 1 10.9753 106.139 69.2505
17559 1 15.5134 104.565 66.6631
23169 2 17.3368 104.545 67.9328
23198 2 14.6096 106.155 67.9629
17556 1 16.4315 106.139 69.2505
17524 1 20.9696 104.565 66.6631
17557 1 18.2423 106.175 66.6934
23171 2 20.0658 106.155 67.9629
17515 1 19.1587 104.529 69.2203
17596 1 12.7874 109.395 66.7513
23199 2 11.8823 107.765 67.9922
17558 1 15.5149 107.785 66.7228
23155 2 17.3385 107.765 67.9922
23201 2 14.6111 109.376 68.0206
17517 1 20.9712 107.785 66.7228
17560 1 18.2437 109.395 66.7513
23153 2 20.0674 109.376 68.0206
17597 1 12.7884 112.616 66.8052
23192 2 11.8836 110.986 68.048
17545 1 15.5161 111.005 66.7788
23154 2 17.3399 110.986 68.048
23190 2 14.6123 112.597 68.0744
17516 1 20.9723 111.005 66.7788
17543 1 18.2447 112.616 66.8052
23156 2 20.0686 112.597 68.0744
23211 2 12.7914 96.464 70.326
17170 1 11.879 94.8485 71.6133
17568 1 14.6087 96.4537 71.6429
17134 1 17.3352 94.8485 71.6133
22778 2 15.5176 94.858 70.2962
17519 1 20.065 96.4537 71.6429
23176 2 18.2476 96.464 70.326
22748 2 20.9739 94.858 70.2962
17551 1 11.8821 98.0598 71.673
23212 2 12.7946 99.6785 70.387
17520 1 17.3384 98.0598 71.673
17549 1 14.6116 99.6667 71.7035
23166 2 15.5212 98.0709 70.3564
17521 1 20.0679 99.6667 71.7035
23124 2 20.9774 98.0709 70.3564
23164 2 18.2508 99.6785 70.387
17550 1 11.8848 101.274 71.7339
23196 2 12.7974 102.896 70.4486
17512 1 17.341 101.274 71.7339
17552 1 14.614 102.883 71.7654
23165 2 15.5241 101.287 70.4179
17510 1 20.0702 102.883 71.7654
23123 2 20.9804 101.287 70.4179
23167 2 18.2536 102.896 70.4486
17537 1 11.8868 104.492 71.7962
23197 2 12.7995 106.116 70.5088
17511 1 17.343 104.492 71.7962
17535 1 14.6158 106.102 71.8262
23151 2 15.5266 104.506 70.479
17513 1 20.072 106.102 71.8262
23122 2 20.9829 104.506 70.479
23149 2 18.2558 106.116 70.5088
17536 1 11.8884 107.712 71.8555
17541 1 13.7042 107.749 69.28
17595 1 10.9768 109.359 69.3085
23188 2 12.8012 109.338 70.5663
17501 1 17.3447 107.712 71.8555
17538 1 14.6172 109.323 71.8839
17539 1 16.433 109.359 69.3085
23150 2 15.5285 107.727 70.538
17499 1 20.0735 109.323 71.8839
17514 1 19.1604 107.749 69.28
23116 2 20.9848 107.727 70.538
23152 2 18.2574 109.338 70.5663
17531 1 11.8898 110.935 71.9113
17540 1 13.7055 110.97 69.3361
17593 1 10.9779 112.581 69.3626
23189 2 12.8025 112.561 70.62
17500 1 17.346 110.935 71.9113
17529 1 14.6185 112.546 71.9378
17542 1 16.4342 112.581 69.3626
23139 2 15.53 110.949 70.5937
17502 1 20.0747 112.546 71.9378
17504 1 19.1617 110.97 69.3361
23115 2 20.9863 110.949 70.5937
23137 2 18.2588 112.561 70.62
17547 1 12.7468 96.4288 74.2997
23210 2 10.9795 96.4267 72.8619
22766 2 11.8723 94.7942 75.3163
22768 2 13.7059 94.8221 72.8326
23160 2 14.6014 96.3976 75.3449
23161 2 16.4358 96.4267 72.8619
17132 1 15.4751 94.8247 74.2703
22741 2 17.3285 94.7942 75.3163
17518 1 18.203 96.4288 74.2997
23117 2 20.0577 96.3976 75.3449
17125 1 20.9313 94.8247 74.2703
22746 2 19.1621 94.8221 72.8326
17548 1 12.7463 99.6397 74.3602
23143 2 11.8743 98.0024 75.3741
23162 2 13.7093 98.0324 72.8918
23194 2 10.9827 99.6392 72.9221
17508 1 15.4747 98.0338 74.3298
23118 2 17.3305 98.0024 75.3741
23141 2 14.6033 99.6085 75.4037
23163 2 16.4389 99.6392 72.9221
17490 1 20.9309 98.0338 74.3298
17506 1 18.2026 99.6397 74.3602
23119 2 20.0595 99.6085 75.4037
23121 2 19.1656 98.0324 72.8918
17533 1 12.7457 102.854 74.4206
23142 2 11.876 101.216 75.4335
23147 2 13.7121 101.247 72.9524
23195 2 10.9855 102.855 72.9825
17507 1 15.4743 101.246 74.3904
23111 2 17.3322 101.216 75.4335
23144 2 14.6049 102.824 75.4622
23145 2 16.4417 102.855 72.9825
17489 1 20.9306 101.246 74.3904
17509 1 18.202 102.854 74.4206
23109 2 20.0611 102.824 75.4622
23120 2 19.1684 101.247 72.9524
17534 1 12.7452 106.072 74.4797
23131 2 11.8774 104.434 75.4909
23146 2 13.7148 104.465 73.0124
23186 2 10.9877 106.076 73.0418
17497 1 15.4735 104.463 74.4504
23110 2 17.3337 104.434 75.4909
23129 2 14.6062 106.044 75.5195
23148 2 16.4439 106.076 73.0418
17488 1 20.9297 104.463 74.4504
17495 1 18.2014 106.072 74.4797
23112 2 20.0624 106.044 75.5195
23114 2 19.171 104.465 73.0124
17527 1 12.7449 109.294 74.5365
23130 2 11.8786 107.656 75.5475
23135 2 13.7167 107.687 73.0706
23187 2 10.9894 109.299 73.0986
17496 1 15.4731 107.683 74.5085
23104 2 17.3349 107.656 75.5475
23132 2 14.6073 109.268 75.575
23133 2 16.4457 109.299 73.0986
17487 1 20.9293 107.683 74.5085
17498 1 18.2011 109.294 74.5365
23102 2 20.0635 109.268 75.575
23113 2 19.173 107.687 73.0706
17528 1 12.7449 112.517 74.5898
23127 2 11.8797 110.881 75.6017
23134 2 13.7183 110.911 73.1257
23185 2 10.9909 112.524 73.1519
17493 1 15.473 110.905 74.5637
23103 2 17.3359 110.881 75.6017
23125 2 14.6083 112.494 75.6275
23136 2 16.4471 112.524 73.1519
17486 1 20.9292 110.905 74.5637
17491 1 18.2011 112.517 74.5898
23105 2 20.0645 112.494 75.6275
23107 2 19.1745 110.911 73.1257
5567 1 12.7268 113.545 -2.5982
12033 2 11.8244 115.11 -1.13241
12041 2 13.6395 115.139 -3.63688
12048 2 10.9131 113.568 -3.65931
5554 1 15.452 115.117 -2.57539
12003 2 17.2806 115.11 -1.13241
12039 2 14.5536 113.538 -1.15526
12040 2 16.3694 113.568 -3.65931
5556 1 18.1831 113.545 -2.5982
5508 1 20.9083 115.117 -2.57539
12002 2 20.0098 113.538 -1.15526
12006 2 19.0958 115.139 -3.63688
5568 1 12.7211 116.689 -2.55323
12032 2 11.8222 118.252 -1.08869
12037 2 13.6363 118.28 -3.59392
5553 1 15.4466 118.26 -2.53178
11997 2 17.2785 118.252 -1.08869
12031 2 14.5514 116.681 -1.1102
12042 2 16.366 116.71 -3.61506
5552 1 18.1774 116.689 -2.55323
5507 1 20.9029 118.26 -2.53178
12004 2 20.0077 116.681 -1.1102
12005 2 19.0925 118.28 -3.59392
8782 2 21.8222 116.71 -3.61506
5564 1 12.716 119.83 -2.5111
12022 2 11.8201 121.392 -1.04807
12036 2 13.6333 121.418 -3.55392
12034 2 14.5493 119.822 -1.06797
5546 1 15.4418 121.4 -2.49125
11996 2 17.2764 121.392 -1.04807
12035 2 16.3629 119.849 -3.57352
5555 1 18.1723 119.83 -2.5111
5506 1 20.8981 121.4 -2.49125
11995 2 20.0055 119.822 -1.06797
12000 2 19.0895 121.418 -3.55392
8783 2 21.8191 119.849 -3.57352
5565 1 12.7116 122.969 -2.47228
12021 2 11.8181 124.531 -1.01095
12026 2 13.6306 124.555 -3.51731
12020 2 14.5472 122.961 -1.02905
5545 1 15.4377 124.538 -2.45422
11983 2 17.2744 124.531 -1.01095
12038 2 16.36 122.987 -3.53517
5544 1 18.1678 122.969 -2.47228
5499 1 20.8939 124.538 -2.45422
11998 2 20.0035 122.961 -1.02905
11999 2 19.0868 124.555 -3.51731
8780 2 21.8163 122.987 -3.53517
5560 1 12.7077 126.107 -2.43711
12014 2 11.8163 127.668 -0.977614
12025 2 13.6282 127.689 -3.48438
12023 2 14.5453 126.099 -0.993795
5532 1 15.4341 127.675 -2.42097
11982 2 17.2725 127.668 -0.977614
12024 2 16.3575 126.122 -3.50037
5547 1 18.164 126.107 -2.43711
5498 1 20.8904 127.675 -2.42097
11981 2 20.0015 126.099 -0.993795
11986 2 19.0844 127.689 -3.48438
8781 2 21.8137 126.122 -3.50037
5561 1 12.7045 129.243 -2.40582
12013 2 11.8146 130.804 -0.948254
12015 2 13.6261 130.823 -3.45534
12012 2 14.5435 129.236 -0.962428
5531 1 15.4312 130.811 -2.39168
11965 2 17.2708 130.804 -0.948254
12027 2 16.3552 129.256 -3.46936
5530 1 18.1607 129.243 -2.40582
5483 1 20.8874 130.811 -2.39168
11984 2 19.9997 129.236 -0.962428
11985 2 19.0823 130.823 -3.45534
8779 2 21.8114 129.256 -3.46936
5550 1 13.6416 115.091 0.0895948
5566 1 10.9149 113.519 0.066592
12029 2 12.7344 113.506 1.39775
5549 1 16.3712 113.519 0.066592
11993 2 15.4613 115.078 1.42086
5505 1 19.0979 115.091 0.0895948
11940 2 20.9175 115.078 1.42086
12001 2 18.1907 113.506 1.39775
5542 1 13.6389 118.234 0.133575
12030 2 12.7319 116.65 1.44331
5551 1 16.3684 116.663 0.111947
11992 2 15.4587 118.222 1.46503
5504 1 19.0951 118.234 0.133575
11939 2 20.915 118.222 1.46503
11991 2 18.1881 116.65 1.44331
2490 1 21.8246 116.663 0.111947
5541 1 13.6363 121.376 0.174414
12018 2 12.7294 119.793 1.48595
5540 1 16.3657 119.805 0.154415
11979 2 15.4563 121.364 1.50602
11994 2 18.1856 119.793 1.48595
5497 1 19.0926 121.376 0.174414
11938 2 20.9126 121.364 1.50602
2491 1 21.8219 119.805 0.154415
5528 1 13.6339 124.516 0.211709
12019 2 12.7271 122.934 1.5252
5543 1 16.3632 122.946 0.193524
11978 2 15.4541 124.505 1.54344
11977 2 18.1833 122.934 1.5252
5496 1 19.0902 124.516 0.211709
11931 2 20.9103 124.505 1.54344
2486 1 21.8194 122.946 0.193524
5527 1 13.6317 127.655 0.24518
12010 2 12.7249 126.075 1.56072
5526 1 16.3609 126.086 0.228936
11964 2 15.452 127.645 1.57701
11980 2 18.1811 126.075 1.56072
5482 1 19.088 127.655 0.24518
11930 2 20.9082 127.645 1.57701
2487 1 21.8172 126.086 0.228936
5517 1 13.6298 130.793 0.274644
12011 2 12.7229 129.215 1.5923
5529 1 16.3589 129.224 0.260421
11963 2 15.4502 130.784 1.60655
11962 2 18.1792 129.215 1.5923
5481 1 19.0861 130.793 0.274644
11915 2 20.9064 130.784 1.60655
2485 1 21.8151 129.224 0.260421
5538 1 11.8232 115.061 2.68643
5534 1 12.7334 113.46 5.24486
11989 2 13.6418 115.048 3.98755
12028 2 10.9151 113.475 3.96424
5502 1 17.2794 115.061 2.68643
5548 1 14.5528 113.489 2.66314
5490 1 15.4599 115.033 5.26831
11988 2 16.3714 113.475 3.96424
5501 1 20.009 113.489 2.66314
5436 1 20.9161 115.033 5.26831
5500 1 18.1896 113.46 5.24486
11937 2 19.098 115.048 3.98755
5537 1 11.8204 118.206 2.73091
5536 1 14.5499 116.634 2.70905
5535 1 12.7303 116.606 5.29105
11975 2 13.6389 118.193 4.03203
5494 1 17.2767 118.206 2.73091
5489 1 15.4569 118.179 5.31301
11990 2 16.3685 116.621 4.01017
5488 1 18.1865 116.606 5.29105
5503 1 20.0062 116.634 2.70905
5435 1 20.9131 118.179 5.31301
11936 2 19.0952 118.193 4.03203
8752 2 21.8247 116.621 4.01017
5524 1 11.8178 121.349 2.77215
5539 1 14.5472 119.778 2.75196
5520 1 12.7273 119.751 5.33414
11974 2 13.6362 121.337 4.07326
5493 1 17.274 121.349 2.77215
5475 1 15.4541 121.324 5.35438
11973 2 16.3657 119.765 4.05308
5491 1 18.1836 119.751 5.33414
5492 1 20.0034 119.778 2.75196
5434 1 20.9103 121.324 5.35438
11929 2 19.0925 121.337 4.07326
8753 2 21.8219 119.765 4.05308
5523 1 11.8153 124.491 2.80976
5522 1 14.5447 122.92 2.79143
5521 1 12.7246 122.896 5.37371
11960 2 13.6338 124.48 4.11085
5479 1 17.2716 124.491 2.80976
5474 1 15.4515 124.468 5.39207
11976 2 16.3631 122.909 4.09253
5473 1 18.1809 122.896 5.37371
5495 1 20.0009 122.92 2.79143
5427 1 20.9077 124.468 5.39207
11928 2 19.09 124.48 4.11085
8744 2 21.8193 122.909 4.09253
5516 1 11.8131 127.633 2.84346
5525 1 14.5423 126.062 2.82711
5512 1 12.7222 126.04 5.40944
11959 2 13.6315 127.623 4.14454
5478 1 17.2694 127.633 2.84346
5460 1 15.4492 127.612 5.42581
11958 2 16.3607 126.052 4.12819
5476 1 18.1784 126.04 5.40944
5477 1 19.9986 126.062 2.82711
5426 1 20.9054 127.612 5.42581
11914 2 19.0878 127.623 4.14454
8745 2 21.817 126.052 4.12819
5515 1 11.8112 130.774 2.8731
5514 1 14.5402 129.203 2.8588
5513 1 12.72 129.184 5.44115
11949 2 13.6296 130.765 4.17415
5461 1 17.2674 130.774 2.8731
5459 1 15.4472 130.756 5.45546
11961 2 16.3586 129.194 4.15986
5458 1 18.1763 129.184 5.44115
5480 1 19.9965 129.203 2.8588
5412 1 20.9034 130.756 5.45546
11913 2 19.0858 130.765 4.17415
8743 2 21.8149 129.194 4.15986
5486 1 13.6399 115.006 7.84564
5533 1 10.9134 113.433 7.82216
11967 2 12.7314 113.419 9.11072
11971 2 11.8218 115.02 6.55981
5485 1 16.3697 113.433 7.82216
11922 2 15.4578 114.993 9.13405
11934 2 17.278 115.02 6.55981
11987 2 14.5515 113.447 6.53645
5433 1 19.0961 115.006 7.84564
11880 2 20.9141 114.993 9.13405
11932 2 18.1876 113.419 9.11072
11933 2 20.0077 113.447 6.53645
5471 1 13.6367 118.153 7.89033
11968 2 12.7281 116.566 9.15663
11970 2 11.8187 118.166 6.60432
11969 2 14.5483 116.593 6.58245
5487 1 16.3664 116.579 7.86839
11921 2 15.4546 118.14 9.17841
11926 2 17.275 118.166 6.60432
11920 2 18.1843 116.566 9.15663
5432 1 19.0929 118.153 7.89033
11879 2 20.9109 118.14 9.17841
11935 2 20.0046 116.593 6.58245
2446 1 21.8226 116.579 7.86839
5470 1 13.6338 121.299 7.93161
11952 2 12.725 119.713 9.19934
11956 2 11.8159 121.312 6.64551
11972 2 14.5454 119.739 6.62535
5469 1 16.3633 119.726 7.91142
11907 2 15.4517 121.287 9.21938
11925 2 17.2721 121.312 6.64551
11923 2 18.1812 119.713 9.19934
5425 1 19.09 121.299 7.93161
11878 2 20.908 121.287 9.21938
11924 2 20.0016 119.739 6.62535
2447 1 21.8195 119.726 7.91142
5456 1 13.6311 124.445 7.96916
11953 2 12.7223 122.861 9.2385
11955 2 11.8133 124.457 6.68301
11954 2 14.5427 122.884 6.66474
5472 1 16.3605 122.872 7.95087
11911 2 17.2695 124.457 6.68301
11905 2 18.1785 122.861 9.2385
5424 1 19.0874 124.445 7.96916
11927 2 19.9989 122.884 6.66474
2438 1 21.8168 122.872 7.95087
5455 1 13.6288 127.592 8.00277
11948 2 11.811 127.602 6.71661
11957 2 14.5402 126.029 6.70031
5454 1 16.358 126.018 7.98647
11910 2 17.2673 127.602 6.71661
5411 1 19.085 127.592 8.00277
11909 2 19.9965 126.029 6.70031
2439 1 21.8143 126.018 7.98647
5445 1 13.6268 130.738 8.03228
11947 2 11.809 130.747 6.74613
11946 2 14.5381 129.174 6.73188
5457 1 16.3559 129.165 8.01804
11896 2 17.2653 130.747 6.74613
5410 1 19.083 130.738 8.03228
11912 2 19.9943 129.174 6.73188
2437 1 21.8121 129.165 8.01804
5467 1 11.8195 114.979 10.4218
11918 2 13.6373 114.966 11.7092
5465 1 14.546 116.553 10.4444
5430 1 17.2758 114.979 10.4218
11919 2 16.3638 116.54 11.7317
11877 2 19.0936 114.966 11.7092
5431 1 20.0022 116.553 10.4444
8686 2 21.82 116.54 11.7317
5466 1 11.8162 118.127 10.4662
11903 2 13.6341 118.114 11.7533
5468 1 14.5428 119.701 10.4872
5422 1 17.2725 118.127 10.4662
11901 2 16.3607 119.688 11.774
11876 2 19.0903 118.114 11.7533
5420 1 19.9991 119.701 10.4872
8687 2 21.817 119.688 11.774
5452 1 11.8133 121.275 10.5072
11902 2 13.6312 121.263 11.7938
5450 1 14.5401 122.849 10.5263
5421 1 17.2695 121.275 10.5072
11904 2 16.358 122.837 11.8127
11870 2 19.0874 121.263 11.7938
5423 1 19.9963 122.849 10.5263
8678 2 21.8143 122.837 11.8127
5451 1 11.8107 124.423 10.5444
11891 2 13.6287 124.412 11.8307
5453 1 14.5376 125.997 10.5616
11906 2 15.4491 124.434 9.25666
5408 1 17.2669 124.423 10.5444
11889 2 16.3557 125.987 11.8477
11872 2 20.9054 124.434 9.25666
11869 2 19.0849 124.412 11.8307
5406 1 19.9939 125.997 10.5616
8679 2 21.8119 125.987 11.8477
11944 2 12.7198 126.008 9.27384
5444 1 11.8084 127.571 10.5777
11890 2 13.6265 127.562 11.8637
11945 2 12.7177 129.155 9.30519
5442 1 14.5355 129.146 10.5928
11895 2 15.4468 127.582 9.29002
11908 2 18.1761 126.008 9.27384
5407 1 17.2646 127.571 10.5777
11893 2 18.1739 129.155 9.30519
11892 2 16.3536 129.137 11.8787
11871 2 20.9031 127.582 9.29002
11863 2 19.0827 127.562 11.8637
5409 1 19.9917 129.146 10.5928
8677 2 21.8099 129.137 11.8787
5443 1 11.8065 130.72 10.607
11884 2 13.6246 130.712 11.8927
12375 2 12.7159 132.303 9.33245
5868 1 14.5337 132.295 10.62
11894 2 15.4449 130.729 9.31933
5397 1 17.2627 130.72 10.607
12340 2 18.1721 132.303 9.33245
12325 2 16.3519 132.287 11.9056
11864 2 20.9011 130.729 9.31933
11862 2 19.0809 130.712 11.8927
5813 1 19.99 132.295 10.62
9110 2 21.8082 132.287 11.9056
5414 1 13.6341 114.925 15.5739
11899 2 11.8165 114.938 14.285
5464 1 12.7253 116.526 13.0202
11897 2 14.543 116.513 14.3071
5418 1 15.4551 114.952 12.9978
11874 2 17.2728 114.938 14.285
5415 1 16.3606 116.5 15.596
5416 1 18.1815 116.526 13.0202
5385 1 19.0903 114.925 15.5739
5388 1 20.9113 114.952 12.9978
2374 1 21.8168 116.5 15.596
11875 2 19.9993 116.513 14.3071
5400 1 13.631 118.075 15.6172
11898 2 11.8134 118.088 14.3284
5448 1 12.7222 119.676 13.0624
11900 2 14.5401 119.663 14.3489
5417 1 15.4518 118.101 13.0417
11867 2 17.2696 118.088 14.3284
5398 1 16.3577 119.65 15.6375
5419 1 18.1785 119.676 13.0624
2375 1 21.8139 119.65 15.6375
5384 1 19.0872 118.075 15.6172
5387 1 20.9081 118.101 13.0417
11865 2 19.9963 119.663 14.3489
11885 2 14.5375 122.814 14.387
5399 1 13.6283 121.226 15.657
11887 2 11.8106 121.239 14.3684
5449 1 12.7195 122.826 13.101
5402 1 18.1758 122.826 13.101
5404 1 15.449 121.251 13.0822
11866 2 17.2668 121.239 14.3684
5401 1 16.3552 122.802 15.6755
11868 2 19.9937 122.814 14.387
2366 1 21.8114 122.802 15.6755
5381 1 19.0845 121.226 15.657
5386 1 20.9052 121.251 13.0822
11888 2 14.5353 125.966 14.4214
5440 1 12.7172 125.976 13.1358
5392 1 13.626 124.379 15.693
11886 2 11.8082 124.39 14.4047
5405 1 18.1735 125.976 13.1358
5390 1 16.3531 125.955 15.7096
11860 2 17.2645 124.39 14.4047
5403 1 15.4465 124.401 13.1189
11858 2 19.9915 125.966 14.4214
5383 1 20.9027 124.401 13.1189
5380 1 19.0822 124.379 15.693
2367 1 21.8093 125.955 15.7096
11881 2 14.5334 129.118 14.452
5441 1 12.7152 129.127 13.1667
11883 2 11.8062 127.542 14.4372
5391 1 13.624 127.532 15.7253
5394 1 18.1715 129.127 13.1667
5393 1 16.3513 129.109 15.7399
11859 2 17.2624 127.542 14.4372
5396 1 15.4443 127.552 13.1518
11861 2 19.9897 129.118 14.452
5382 1 20.9005 127.552 13.1518
5378 1 19.0803 127.532 15.7253
2365 1 21.8076 129.109 15.7399
11882 2 11.8045 130.695 14.4657
5389 1 13.6224 130.686 15.7536
5847 1 12.7136 132.279 13.1935
12324 2 14.5319 132.271 14.4785
5812 1 18.1698 132.279 13.1935
5797 1 16.3499 132.263 15.7663
11857 2 17.2607 130.695 14.4657
5395 1 15.4425 130.703 13.1806
12281 2 19.9881 132.271 14.4785
2774 1 21.8061 132.263 15.7663
5377 1 19.0787 130.686 15.7536
5379 1 20.8987 130.703 13.1806
5758 1 11.8128 114.896 18.1502
12240 2 12.722 116.486 16.8828
5756 1 14.5394 116.472 18.1718
12226 2 15.4517 114.911 16.861
5735 1 17.269 114.896 18.1502
12224 2 18.1782 116.486 16.8828
12180 2 20.9079 114.911 16.861
5736 1 19.9957 116.472 18.1718
5757 1 11.8099 118.048 18.1926
12236 2 12.7193 119.638 16.9238
5759 1 14.5368 119.625 18.2125
12225 2 15.4487 118.062 16.9037
5731 1 17.2662 118.048 18.1926
12227 2 18.1755 119.638 16.9238
12179 2 20.9049 118.062 16.9037
5729 1 19.993 119.625 18.2125
5751 1 11.8075 121.202 18.2315
12237 2 12.7169 122.791 16.9612
5749 1 14.5346 122.779 18.2495
12218 2 15.4462 121.214 16.9429
5730 1 17.2638 121.202 18.2315
12216 2 18.1732 122.791 16.9612
12178 2 20.9024 121.214 16.9429
5732 1 19.9909 122.779 18.2495
5750 1 11.8056 124.357 18.2667
12232 2 12.715 125.945 16.9949
5752 1 14.5328 125.934 18.283
12217 2 15.444 124.368 16.9785
5719 1 17.2618 124.357 18.2667
12219 2 18.1712 125.945 16.9949
12171 2 20.9003 124.368 16.9785
5717 1 19.989 125.934 18.283
5744 1 11.8039 127.512 18.2983
12233 2 12.7134 129.1 17.0249
5742 1 14.5313 129.091 18.3126
5718 1 17.2601 127.512 18.2983
12204 2 15.4423 127.522 17.0104
12202 2 18.1696 129.1 17.0249
12170 2 20.8985 127.522 17.0104
5720 1 19.9876 129.091 18.3126
5743 1 11.8026 130.669 18.3261
12647 2 12.712 132.255 17.0509
6144 1 14.5301 132.247 18.3385
5701 1 17.2588 130.669 18.3261
12203 2 15.4408 130.678 17.0384
12636 2 18.1683 132.255 17.0509
12155 2 20.897 130.678 17.0384
6118 1 19.9863 132.247 18.3385
12222 2 13.6303 114.882 19.4371
12210 2 11.8088 114.852 22.013
5755 1 12.7181 116.444 20.7475
12208 2 14.5358 116.429 22.0337
12223 2 16.357 116.458 19.4584
5727 1 15.4475 114.867 20.7264
12174 2 17.2651 114.852 22.013
5725 1 18.1743 116.444 20.7475
12177 2 19.0866 114.882 19.4371
5676 1 20.9038 114.867 20.7264
12175 2 19.992 116.429 22.0337
8970 2 21.8133 116.458 19.4584
12214 2 13.6277 118.035 19.4789
12209 2 11.8066 118.007 22.0536
5747 1 12.7159 119.599 20.7871
12211 2 14.5338 119.585 22.0727
12212 2 16.3546 119.612 19.4984
5726 1 15.4451 118.021 20.7677
12166 2 17.2629 118.007 22.0536
5728 1 18.1721 119.599 20.7871
12176 2 19.0839 118.035 19.4789
5675 1 20.9013 118.021 20.7677
12164 2 19.9901 119.585 22.0727
8971 2 21.8109 119.612 19.4984
12213 2 13.6255 121.189 19.5172
12196 2 11.8049 121.164 22.0909
5748 1 12.7141 122.755 20.8232
12194 2 14.5323 122.743 22.1083
12215 2 16.3527 122.767 19.535
5715 1 15.4431 121.177 20.8055
12165 2 17.2611 121.164 22.0909
5713 1 18.1704 122.755 20.8232
12169 2 19.0817 121.189 19.5172
5674 1 20.8993 121.177 20.8055
12167 2 19.9885 122.743 22.1083
8966 2 21.8089 122.767 19.535
12200 2 13.6237 124.345 19.5519
12195 2 11.8035 124.323 22.1248
5740 1 12.7127 125.913 20.8558
12197 2 14.5311 125.903 22.1404
12198 2 16.351 125.924 19.5679
5714 1 15.4415 124.334 20.8399
12151 2 17.2598 124.323 22.1248
5716 1 18.1689 125.913 20.8558
12168 2 19.0799 124.345 19.5519
5667 1 20.8977 124.334 20.8399
12149 2 19.9873 125.903 22.1404
8967 2 21.8073 125.924 19.5679
12199 2 13.6222 127.503 19.583
12188 2 11.8024 127.483 22.1551
5741 1 12.7115 129.072 20.8847
12186 2 14.5301 129.063 22.169
12201 2 16.3497 129.081 19.5972
5700 1 15.4402 127.493 20.8707
12150 2 17.2587 127.483 22.1551
5698 1 18.1678 129.072 20.8847
12154 2 19.0785 127.503 19.583
5666 1 20.8964 127.493 20.8707
12152 2 19.9864 129.063 22.169
8965 2 21.806 129.081 19.5972
12189 2 13.6211 130.661 19.6105
12187 2 11.8016 130.644 22.1819
6138 1 12.7106 132.232 20.91
12628 2 14.5294 132.224 22.1939
5699 1 15.4392 130.652 20.8978
12133 2 17.2578 130.644 22.1819
12629 2 16.3487 132.24 19.6228
6117 1 18.1669 132.232 20.91
12153 2 19.0773 130.661 19.6105
5651 1 20.8954 130.652 20.8978
12581 2 19.9856 132.224 22.1939
9382 2 21.8049 132.24 19.6228
5707 1 11.8044 114.804 25.8773
5723 1 13.6259 114.836 23.3023
12207 2 12.7146 116.399 24.6085
5705 1 14.5318 116.383 25.8971
5670 1 17.2606 114.804 25.8773
12162 2 15.4436 114.82 24.5884
5724 1 16.353 116.414 23.3227
12160 2 18.1708 116.399 24.6085
5673 1 19.0822 114.836 23.3023
12108 2 20.8998 114.82 24.5884
5671 1 19.9881 116.383 25.8971
2673 1 21.8093 116.414 23.3227
5706 1 11.8031 117.963 25.9161
5711 1 13.624 117.993 23.3423
12192 2 12.7132 119.558 24.6463
5662 1 17.2594 117.963 25.9161
12161 2 15.4419 117.978 24.6278
5709 1 16.3513 119.572 23.3611
12163 2 18.1694 119.558 24.6463
5672 1 19.0802 117.993 23.3423
12107 2 20.8982 117.978 24.6278
2674 1 21.8076 119.572 23.3611
5710 1 13.6225 121.151 23.379
12193 2 12.7122 122.719 24.6808
12147 2 15.4407 121.138 24.6639
5712 1 16.35 122.731 23.3962
12145 2 18.1684 122.719 24.6808
5665 1 19.0788 121.151 23.379
12106 2 20.897 121.138 24.6639
2666 1 21.8063 122.731 23.3962
5696 1 13.6214 124.311 23.4124
12184 2 12.7114 125.881 24.7121
12146 2 15.4399 124.3 24.6969
5694 1 16.349 125.892 23.4279
12148 2 18.1676 125.881 24.7121
5664 1 19.0776 124.311 23.4124
12099 2 20.8961 124.3 24.6969
2667 1 21.8053 125.892 23.4279
5695 1 13.6205 127.473 23.4424
12185 2 12.7108 129.044 24.7399
12132 2 15.4392 127.463 24.7264
5697 1 16.3483 129.054 23.4561
12130 2 18.1671 129.044 24.7399
5650 1 19.0768 127.473 23.4424
12098 2 20.8955 127.463 24.7264
2665 1 21.8045 129.054 23.4561
5685 1 13.6198 130.635 23.4689
12614 2 12.7104 132.209 24.7643
12131 2 15.4387 130.626 24.7526
6106 1 16.3477 132.216 23.4808
12580 2 18.1666 132.209 24.7643
5649 1 19.0761 130.635 23.4689
12084 2 20.895 130.626 24.7526
3065 1 21.8039 132.216 23.4808
12158 2 13.6223 114.787 27.1628
5704 1 12.711 116.351 28.4703
5658 1 15.4394 114.77 28.4513
12159 2 16.3499 116.367 27.1822
5656 1 18.1672 116.351 28.4703
8926 2 21.8061 116.367 27.1822
5610 1 20.8957 114.77 28.4513
12105 2 19.0785 114.787 27.1628
5708 1 14.5308 119.544 25.9343
12143 2 13.6213 117.948 27.2009
5688 1 12.7106 119.515 28.5063
5657 1 15.4389 117.933 28.4887
12141 2 16.3491 119.53 27.2188
5659 1 18.1669 119.515 28.5063
8927 2 21.8054 119.53 27.2188
5660 1 19.987 119.544 25.9343
5609 1 20.8951 117.933 28.4887
12104 2 19.0776 117.948 27.2009
5692 1 11.8022 121.125 25.9517
5690 1 14.53 122.706 25.9683
12142 2 13.6207 121.112 27.236
5689 1 12.7105 122.681 28.5394
5661 1 17.2585 121.125 25.9517
5643 1 15.4387 121.098 28.5232
12144 2 16.3487 122.694 27.2524
5641 1 18.1667 122.681 28.5394
8918 2 21.8049 122.694 27.2524
5663 1 19.9863 122.706 25.9683
5608 1 20.8949 121.098 28.5232
12097 2 19.077 121.112 27.236
5691 1 11.8016 124.288 25.9841
5693 1 14.5295 125.87 25.9991
12128 2 13.6204 124.276 27.268
5680 1 12.7105 125.848 28.5694
5647 1 17.2579 124.288 25.9841
5642 1 15.4386 124.264 28.5548
12126 2 16.3484 125.859 27.2828
5644 1 18.1667 125.848 28.5694
8919 2 21.8046 125.859 27.2828
5645 1 19.9858 125.87 25.9991
5601 1 20.8948 124.264 28.5548
12096 2 19.0766 124.276 27.268
5684 1 11.8012 127.452 26.0133
5682 1 14.5292 129.035 26.0267
12127 2 13.6202 127.442 27.2969
5681 1 12.7105 129.016 28.5963
5646 1 17.2575 127.452 26.0133
5629 1 15.4386 127.432 28.5833
12129 2 16.3482 129.026 27.31
5627 1 18.1668 129.016 28.5963
8917 2 21.8044 129.026 27.31
5648 1 19.9854 129.035 26.0267
5600 1 20.8948 127.432 28.5833
12083 2 19.0764 127.442 27.2969
5683 1 11.8009 130.618 26.0392
12117 2 13.62 130.609 27.3224
6105 1 14.5289 132.201 26.0508
6087 1 12.7106 132.185 28.6199
5630 1 17.2571 130.618 26.0392
5628 1 15.4387 130.6 28.6085
12565 2 16.3481 132.193 27.3339
6052 1 18.1668 132.185 28.6199
5589 1 20.8949 130.6 28.6085
12082 2 19.0763 130.609 27.3224
6053 1 19.9851 132.201 26.0508
9349 2 21.8043 132.193 27.3339
5654 1 13.6188 114.734 31.0236
12139 2 11.8014 114.752 29.7359
12136 2 12.7096 116.301 32.3255
12137 2 14.5294 116.335 29.7547
12090 2 15.4375 114.716 32.3072
12102 2 17.2576 114.752 29.7359
5655 1 16.347 116.318 31.0421
12088 2 18.1659 116.301 32.3255
2614 1 21.8033 116.318 31.0421
5607 1 19.0751 114.734 31.0236
12060 2 20.8937 114.716 32.3072
12103 2 19.9856 116.335 29.7547
5639 1 13.619 117.902 31.0599
12138 2 11.8012 117.917 29.7728
12120 2 12.7102 119.471 32.3601
12140 2 14.5293 119.501 29.7902
12089 2 15.438 117.886 32.3431
12094 2 17.2574 117.917 29.7728
5637 1 16.3473 119.486 31.077
12091 2 18.1665 119.471 32.3601
2615 1 21.8036 119.486 31.077
5606 1 19.0753 117.902 31.0599
12059 2 20.8943 117.886 32.3431
12092 2 19.9856 119.501 29.7902
5638 1 13.6194 121.07 31.0935
12124 2 11.8012 121.084 29.8069
12121 2 12.7109 122.642 32.392
12122 2 14.5294 122.668 29.8229
12076 2 15.4387 121.056 32.3764
12093 2 17.2575 121.084 29.8069
5640 1 16.3478 122.655 31.1092
12074 2 18.1671 122.642 32.392
2606 1 21.804 122.655 31.1092
5599 1 19.0757 121.07 31.0935
12058 2 20.8949 121.056 32.3764
12095 2 19.9857 122.668 29.8229
5625 1 13.6199 124.24 31.1243
12123 2 11.8014 124.252 29.8381
12112 2 12.7115 125.814 32.4211
12125 2 14.5296 125.837 29.8526
12075 2 15.4393 124.228 32.4069
12080 2 17.2576 124.252 29.8381
5623 1 16.3482 125.826 31.1386
12077 2 18.1677 125.814 32.4211
2607 1 21.8045 125.826 31.1386
5598 1 19.0761 124.24 31.1243
12055 2 20.8955 124.228 32.4069
12078 2 19.9859 125.837 29.8526
5624 1 13.6203 127.411 31.1521
12116 2 11.8016 127.422 29.8662
12113 2 12.7121 128.987 32.4472
12114 2 14.5299 129.007 29.8791
12068 2 15.4399 127.401 32.4345
12079 2 17.2579 127.422 29.8662
5626 1 16.3487 128.997 31.1649
12066 2 18.1683 128.987 32.4472
2605 1 21.8049 128.997 31.1649
5588 1 19.0766 127.411 31.1521
12054 2 20.8962 127.401 32.4345
12081 2 19.9861 129.007 29.8791
5616 1 13.6207 130.583 31.1769
12115 2 11.8018 130.592 29.8912
12543 2 12.7126 132.161 32.4701
12564 2 14.5301 132.177 29.9025
12067 2 15.4405 130.574 32.459
12069 2 17.2581 130.592 29.8912
6037 1 16.3491 132.169 31.188
12508 2 18.1688 132.161 32.4701
5587 1 19.077 130.583 31.1769
12051 2 20.8967 130.574 32.459
3014 1 21.8053 132.169 31.188
12509 2 19.9863 132.177 29.9025
5635 1 11.799 114.698 33.594
12086 2 13.6183 114.68 34.8764
5633 1 14.5276 116.284 33.612
5604 1 17.2553 114.698 33.594
12087 2 16.347 116.266 34.8943
8854 2 21.8033 116.266 34.8943
12057 2 19.0745 114.68 34.8764
5605 1 19.9839 116.284 33.612
5636 1 14.5286 119.456 33.6461
5634 1 11.8 117.87 33.6293
12072 2 13.6195 117.853 34.9115
12070 2 16.3482 119.441 34.9282
5596 1 17.2562 117.87 33.6293
8855 2 21.8044 119.441 34.9282
5594 1 19.9848 119.456 33.6461
12056 2 19.0757 117.853 34.9115
5619 1 14.5295 122.629 33.6777
5621 1 11.8009 121.042 33.6622
12071 2 13.6206 121.028 34.9442
12073 2 16.3493 122.616 34.9596
5595 1 17.2572 121.042 33.6622
8846 2 21.8055 122.616 34.9596
5597 1 19.9858 122.629 33.6777
12053 2 19.0769 121.028 34.9442
5622 1 14.5304 125.803 33.7065
12064 2 13.6217 124.204 34.9743
5620 1 11.8019 124.216 33.6924
12062 2 16.3503 125.792 34.9883
5585 1 17.2581 124.216 33.6924
8847 2 21.8066 125.792 34.9883
5583 1 19.9866 125.803 33.7065
12052 2 19.0779 124.204 34.9743
5613 1 14.5312 128.978 33.7323
12063 2 13.6227 127.38 35.0015
5615 1 11.8027 127.39 33.7198
12065 2 16.3512 128.968 35.014
5584 1 17.2589 127.39 33.7198
5586 1 19.9874 128.978 33.7323
12050 2 19.0789 127.38 35.0015
8845 2 21.8075 128.968 35.014
12061 2 13.6235 130.557 35.0257
5614 1 11.8034 130.565 33.7441
6036 1 14.5319 132.153 33.7551
5578 1 17.2597 130.565 33.7441
12493 2 16.352 132.145 35.0367
12049 2 19.0797 130.557 35.0257
9278 2 21.8082 132.145 35.0367
5987 1 19.9881 132.153 33.7551
12262 2 11.8003 114.642 37.4432
17451 1 13.6191 114.623 38.7277
5632 1 12.7092 116.249 36.1798
12260 2 14.5292 116.231 37.4609
12251 2 17.2565 114.642 37.4432
5592 1 15.4366 114.661 36.1621
17836 1 16.3482 116.213 38.7453
5590 1 18.1655 116.249 36.1798
5574 1 20.8928 114.661 36.1621
17421 1 19.0753 114.623 38.7277
12252 2 19.9855 116.231 37.4609
15024 1 21.8045 116.213 38.7453
12261 2 11.802 117.82 37.478
17837 1 13.6211 117.804 38.7623
5617 1 12.7107 119.425 36.2134
12263 2 14.5309 119.41 37.4945
12248 2 17.2582 117.82 37.478
5591 1 15.4381 117.837 36.1969
17838 1 16.3501 119.394 38.7787
5593 1 18.167 119.425 36.2134
17802 1 19.0773 117.804 38.7623
5573 1 20.8943 117.837 36.1969
12246 2 19.9871 119.41 37.4945
15022 1 21.8064 119.394 38.7787
12258 2 11.8035 120.999 37.5104
17833 1 13.6229 120.985 38.7946
5618 1 12.7121 122.602 36.2445
12256 2 14.5324 122.589 37.5256
12247 2 17.2598 120.999 37.5104
5581 1 15.4396 121.014 36.2293
17831 1 16.3519 122.576 38.8097
5579 1 18.1684 122.602 36.2445
17801 1 19.0791 120.985 38.7946
5572 1 20.8958 121.014 36.2293
12249 2 19.9886 122.589 37.5256
15023 1 21.8081 122.576 38.8097
12257 2 11.8049 124.179 37.5402
17832 1 13.6245 124.166 38.8242
5611 1 12.7133 125.78 36.273
12259 2 14.5337 125.769 37.5541
12244 2 17.2612 124.179 37.5402
5580 1 15.4409 124.191 36.2591
17834 1 16.3533 125.757 38.8381
5582 1 18.1696 125.78 36.273
17796 1 19.0807 124.166 38.8242
5571 1 20.8971 124.191 36.2591
12242 2 19.9899 125.769 37.5541
15020 1 21.8096 125.757 38.8381
12255 2 11.8062 127.359 37.5672
17822 1 13.6259 127.348 38.8512
5612 1 12.7144 128.958 36.2986
12253 2 14.5348 128.949 37.5796
12243 2 17.2624 127.359 37.5672
17820 1 16.3546 128.939 38.8635
5577 1 15.442 127.369 36.2861
5575 1 18.1707 128.958 36.2986
17795 1 19.0821 127.348 38.8512
5570 1 20.8983 127.369 36.2861
12245 2 19.9911 128.949 37.5796
15021 1 21.8109 128.939 38.8635
12254 2 11.8072 130.539 37.5912
17821 1 13.6271 130.53 38.8751
6015 1 12.7153 132.137 36.3211
12672 2 14.5358 132.129 37.6021
12241 2 17.2635 130.539 37.5912
17823 1 16.3557 132.121 38.886
5576 1 15.443 130.548 36.3102
5986 1 18.1716 132.137 36.3211
17782 1 19.0833 130.53 38.8751
5569 1 20.8993 130.548 36.3102
15019 1 21.8119 132.121 38.886
12658 2 19.992 132.129 37.6021
23459 2 12.7127 116.195 40.0252
17449 1 11.803 114.585 41.2907
23049 2 13.6243 114.566 42.5692
17835 1 14.5322 116.177 41.3084
23441 2 16.3535 116.16 42.5872
17401 1 17.2592 114.585 41.2907
23063 2 15.4397 114.604 40.0075
23448 2 18.1689 116.195 40.0252
17798 1 19.9885 116.177 41.3084
23013 2 19.0805 114.566 42.5692
23015 2 20.896 114.604 40.0075
20638 2 21.8098 116.16 42.5872
23460 2 12.7146 119.379 40.0589
17829 1 11.8052 117.77 41.3256
17827 1 14.5344 119.363 41.3421
23446 2 15.4418 117.787 40.0423
17799 1 17.2615 117.77 41.3256
23444 2 18.1708 119.379 40.0589
17800 1 19.9906 119.363 41.3421
23400 2 20.898 117.787 40.0423
23456 2 12.7164 122.562 40.09
17828 1 11.8073 120.956 41.358
17830 1 14.5363 122.548 41.3733
23445 2 15.4436 120.97 40.0748
17793 1 17.2635 120.956 41.358
23447 2 18.1726 122.562 40.09
17791 1 19.9925 122.548 41.3733
23399 2 20.8999 120.97 40.0748
23457 2 12.7179 125.745 40.1184
17818 1 11.809 124.141 41.3878
17816 1 14.538 125.734 41.4017
23438 2 15.4453 124.154 40.1046
17792 1 17.2653 124.141 41.3878
23436 2 18.1741 125.745 40.1184
17794 1 19.9942 125.734 41.4017
23398 2 20.9015 124.154 40.1046
23452 2 12.7192 128.929 40.1439
17817 1 11.8106 127.326 41.4148
17819 1 14.5394 128.919 41.4272
23437 2 15.4467 127.337 40.1315
17779 1 17.2668 127.326 41.4148
23439 2 18.1754 128.929 40.1439
17777 1 19.9956 128.919 41.4272
23391 2 20.9029 127.337 40.1315
23453 2 12.7203 132.113 40.1664
17810 1 11.8119 130.512 41.4388
17808 1 14.5406 132.104 41.4497
17778 1 17.2681 130.512 41.4388
23424 2 15.4479 130.521 40.1555
23422 2 18.1766 132.113 40.1664
17780 1 19.9968 132.104 41.4497
23390 2 20.9041 130.521 40.1555
17825 1 12.7175 116.142 43.8693
23047 2 11.8101 114.528 45.1285
23440 2 14.5394 116.124 45.1469
17399 1 15.4444 114.546 43.8512
22994 2 17.2664 114.528 45.1285
17797 1 18.1737 116.142 43.8693
23393 2 19.9956 116.124 45.1469
17351 1 20.9007 114.546 43.8512
23442 2 13.6265 117.754 42.6046
17826 1 12.7197 119.332 43.9036
23430 2 11.8124 117.72 45.1647
23428 2 14.5415 119.316 45.1818
23443 2 16.3557 119.347 42.6213
17789 1 15.4468 117.737 43.8867
23394 2 17.2686 117.72 45.1647
17787 1 18.176 119.332 43.9036
23397 2 19.0827 117.754 42.6046
17736 1 20.903 117.737 43.8867
23395 2 19.9977 119.316 45.1818
20634 2 21.8119 119.347 42.6213
23434 2 13.6285 120.941 42.6373
17814 1 12.7217 122.521 43.9352
23429 2 11.8144 120.912 45.1981
23431 2 14.5434 122.507 45.2138
23432 2 16.3575 122.535 42.6527
17788 1 15.4489 120.926 43.9197
23386 2 17.2706 120.912 45.1981
17790 1 18.1779 122.521 43.9352
23396 2 19.0847 120.941 42.6373
17735 1 20.9051 120.926 43.9197
23384 2 19.9996 122.507 45.2138
20635 2 21.8138 122.535 42.6527
23433 2 13.6303 124.128 42.6674
17815 1 12.7234 125.71 43.9639
23416 2 11.8161 124.103 45.2287
23414 2 14.5451 125.698 45.2428
23435 2 16.3592 125.722 42.6813
17775 1 15.4507 124.116 43.9499
23385 2 17.2724 124.103 45.2287
17773 1 18.1797 125.71 43.9639
23389 2 19.0865 124.128 42.6674
17734 1 20.907 124.116 43.9499
23387 2 20.0013 125.698 45.2428
20630 2 21.8154 125.722 42.6813
23420 2 13.6318 127.315 42.6945
17806 1 12.7249 128.899 43.9896
23415 2 11.8177 127.294 45.2561
23417 2 14.5465 128.889 45.2687
23418 2 16.3606 128.909 42.707
17774 1 15.4523 127.305 43.9771
23371 2 17.2739 127.294 45.2561
17776 1 18.1811 128.899 43.9896
23388 2 19.088 127.315 42.6945
17727 1 20.9085 127.305 43.9771
23369 2 20.0027 128.889 45.2687
20631 2 21.8168 128.909 42.707
23419 2 13.6331 130.503 42.7186
17807 1 12.7261 132.088 44.0122
23408 2 11.819 130.484 45.2805
23406 2 14.5477 132.079 45.2914
23421 2 16.3618 132.096 42.7295
17760 1 15.4537 130.494 44.0013
23370 2 17.2752 130.484 45.2805
17758 1 18.1824 132.088 44.0122
23374 2 19.0893 130.503 42.7186
17726 1 20.9099 130.494 44.0013
23372 2 20.0039 132.079 45.2914
20629 2 21.818 132.096 42.7295
23426 2 12.7264 116.088 47.7046
17383 1 11.8186 114.471 48.9652
17385 1 13.6309 114.508 46.4093
17783 1 14.5477 116.071 48.9846
17784 1 16.3602 116.106 46.4279
17332 1 17.2748 114.471 48.9652
22992 2 15.4534 114.49 47.6856
23392 2 18.1826 116.088 47.7046
17729 1 20.004 116.071 48.9846
17349 1 19.0872 114.508 46.4093
22953 2 20.9096 114.49 47.6856
15004 1 21.8164 116.106 46.4279
17767 1 11.8206 117.67 49.0032
17785 1 13.6332 117.703 46.4459
23427 2 12.7284 119.285 47.7405
17765 1 14.5497 119.269 49.021
17730 1 17.2769 117.67 49.0032
17786 1 16.3624 119.3 46.4631
23382 2 15.4555 117.687 47.7229
23380 2 18.1846 119.285 47.7405
17731 1 20.0059 119.269 49.021
17733 1 19.0894 117.703 46.4459
23334 2 20.9117 117.687 47.7229
14992 1 21.8186 119.3 46.4631
17766 1 11.8225 120.868 49.038
17771 1 13.6352 120.897 46.4797
23412 2 12.7302 122.48 47.7733
17722 1 17.2787 120.868 49.038
17768 1 14.5515 122.466 49.0542
17769 1 16.3643 122.494 46.4954
23381 2 15.4574 120.882 47.7573
23383 2 18.1864 122.48 47.7733
14993 1 21.8205 122.494 46.4954
17720 1 20.0077 122.466 49.0542
17732 1 19.0915 120.897 46.4797
23333 2 20.9136 120.882 47.7573
17752 1 11.8242 124.065 49.0696
17770 1 13.637 124.09 46.5104
23413 2 12.7318 125.675 47.8029
17721 1 17.2804 124.065 49.0696
17750 1 14.5531 125.663 49.0841
17772 1 16.366 125.687 46.5247
23367 2 15.4591 124.077 47.7885
14984 1 21.8222 125.687 46.5247
17723 1 20.0093 125.663 49.0841
17725 1 19.0933 124.09 46.5104
23332 2 20.9153 124.077 47.7885
23365 2 18.188 125.675 47.8029
17751 1 11.8257 127.261 49.0978
17756 1 13.6386 127.283 46.5381
23404 2 12.7332 128.869 47.8292
17707 1 17.2819 127.261 49.0978
17753 1 14.5544 128.859 49.1107
17754 1 16.3674 128.879 46.5507
23366 2 15.4606 127.272 47.8165
14985 1 21.8237 128.879 46.5507
17705 1 20.0107 128.859 49.1107
17724 1 19.0948 127.283 46.5381
23325 2 20.9168 127.272 47.8165
23368 2 18.1894 128.869 47.8292
17744 1 11.8269 130.457 49.1227
17755 1 13.6399 130.475 46.5626
23405 2 12.7344 132.063 47.8522
17706 1 17.2832 130.457 49.1227
17742 1 14.5556 132.054 49.1338
17757 1 16.3687 132.071 46.5736
23353 2 15.4619 130.466 47.8411
14983 1 21.8249 132.071 46.5736
17708 1 20.0119 132.054 49.1338
17710 1 19.0962 130.475 46.5626
23324 2 20.9181 130.466 47.8411
23351 2 18.1906 132.063 47.8522
17763 1 12.7362 116.036 51.5396
23425 2 10.9143 116.053 50.2605
22980 2 13.6415 114.453 50.2407
23377 2 16.3705 116.053 50.2605
17330 1 15.4634 114.434 51.5194
17728 1 18.1924 116.036 51.5396
17300 1 20.9196 114.434 51.5194
22951 2 19.0977 114.453 50.2407
17764 1 12.7379 119.238 51.5774
23378 2 13.6433 117.654 50.2795
23410 2 10.9161 119.254 50.2976
17718 1 15.4652 117.637 51.5589
23379 2 16.3723 119.254 50.2976
17676 1 20.9214 117.637 51.5589
17716 1 18.1941 119.238 51.5774
23331 2 19.0996 117.654 50.2795
17748 1 12.7395 122.439 51.6116
23363 2 13.6451 120.853 50.3149
23411 2 10.9177 122.453 50.3313
17717 1 15.4668 120.839 51.5949
23361 2 16.374 122.453 50.3313
17675 1 20.9231 120.839 51.5949
17719 1 18.1957 122.439 51.6116
23330 2 19.1013 120.853 50.3149
17749 1 12.7409 125.639 51.6423
23362 2 13.6466 124.052 50.3469
23402 2 10.9192 125.651 50.3617
17703 1 15.4683 124.039 51.6274
23364 2 16.3755 125.651 50.3617
17674 1 20.9246 124.039 51.6274
17701 1 18.1971 125.639 51.6423
23323 2 19.1029 124.052 50.3469
17740 1 12.7422 128.838 51.6694
23349 2 13.648 127.25 50.3755
23403 2 10.9205 128.848 50.3885
17702 1 15.4697 127.239 51.6563
23347 2 16.3768 128.848 50.3885
17668 1 20.9259 127.239 51.6563
17704 1 18.1984 128.838 51.6694
23322 2 19.1043 127.25 50.3755
17741 1 12.7433 132.037 51.693
23348 2 13.6492 130.447 50.4007
23401 2 10.9217 132.046 50.4119
17691 1 15.4709 130.438 51.6816
23350 2 16.3779 132.046 50.4119
17667 1 20.9271 130.438 51.6816
17689 1 18.1995 132.037 51.693
23312 2 19.1055 130.447 50.4007
17762 1 10.9254 116.001 54.0933
23355 2 12.7487 115.984 55.3681
17320 1 13.6528 114.397 54.0722
22978 2 11.8304 114.416 52.7942
17713 1 16.3816 116.001 54.0933
23376 2 14.5593 116.019 52.8149
22940 2 15.4762 114.38 55.3466
22942 2 17.2866 114.416 52.7942
23326 2 18.205 115.984 55.3681
23327 2 20.0155 116.019 52.8149
17298 1 19.109 114.397 54.0722
22933 2 20.9324 114.38 55.3466
17714 1 13.6542 117.604 54.1133
17746 1 10.9268 119.207 54.1324
23356 2 12.75 119.192 55.4079
23359 2 11.832 117.621 52.8346
17715 1 16.3831 119.207 54.1324
23316 2 15.4775 117.588 55.3885
23328 2 17.2882 117.621 52.8346
23357 2 14.5609 119.223 52.8533
17673 1 19.1105 117.604 54.1133
23298 2 20.9337 117.588 55.3885
23314 2 18.2063 119.192 55.4079
23329 2 20.0171 119.223 52.8533
17699 1 13.6556 120.809 54.1506
17747 1 10.9282 122.411 54.1678
23341 2 12.7513 122.398 55.4438
23358 2 11.8335 120.824 52.8712
17697 1 16.3844 122.411 54.1678
23315 2 15.4788 120.795 55.4264
23320 2 17.2897 120.824 52.8712
23360 2 14.5623 122.425 52.8881
17672 1 19.1119 120.809 54.1506
23297 2 20.935 120.795 55.4264
23317 2 18.2075 122.398 55.4438
23318 2 20.0185 122.425 52.8881
17698 1 13.6569 124.013 54.184
17738 1 10.9294 125.615 54.1993
23342 2 12.7524 125.603 55.4758
23345 2 11.8349 124.026 52.9042
17700 1 16.3857 125.615 54.1993
23305 2 15.48 124 55.4603
23319 2 17.2911 124.026 52.9042
23343 2 14.5636 125.627 52.9193
17666 1 19.1132 124.013 54.184
23296 2 20.9362 124 55.4603
23303 2 18.2087 125.603 55.4758
23321 2 20.0199 125.627 52.9193
17687 1 13.6581 127.216 54.2137
17739 1 10.9306 128.818 54.2271
23335 2 12.7535 128.807 55.5038
23344 2 11.8361 127.228 52.9334
23346 2 14.5648 128.828 52.9467
23309 2 17.2924 127.228 52.9334
17685 1 16.3868 128.818 54.2271
23304 2 15.4811 127.205 55.4903
23307 2 20.0211 128.828 52.9467
23306 2 18.2098 128.807 55.5038
23295 2 20.9374 127.205 55.4903
17665 1 19.1144 127.216 54.2137
23339 2 11.8373 130.428 52.9591
23336 2 12.7545 132.012 55.5281
17737 1 10.9316 132.02 54.2511
17686 1 13.6592 130.419 54.2395
23337 2 14.5659 132.029 52.9705
23308 2 17.2935 130.428 52.9591
23301 2 15.4821 130.41 55.5165
17688 1 16.3878 132.02 54.2511
23310 2 20.0221 132.029 52.9705
23299 2 18.2107 132.012 55.5281
23294 2 20.9384 130.41 55.5165
17659 1 19.1155 130.419 54.2395
18011 1 12.7615 115.934 59.1979
23652 2 10.9386 115.951 57.9204
17318 1 11.8427 114.362 56.624
23259 2 13.6662 114.345 57.8982
17712 1 14.5714 115.967 56.6459
23644 2 16.3949 115.951 57.9204
17615 1 15.4892 114.327 59.1753
17293 1 17.2989 114.362 56.624
17669 1 20.0276 115.967 56.6459
18000 1 18.2178 115.934 59.1979
17567 1 20.9454 114.327 59.1753
23229 2 19.1224 114.345 57.8982
17695 1 11.8438 117.572 56.6667
18012 1 12.7625 119.146 59.2398
23650 2 10.9397 119.161 57.9616
23645 2 13.6673 117.556 57.9415
17693 1 14.5726 119.176 56.6865
17670 1 17.3001 117.572 56.6667
17998 1 15.4901 117.54 59.2194
23646 2 16.396 119.161 57.9616
17952 1 20.9464 117.54 59.2194
17671 1 20.0288 119.176 56.6865
17996 1 18.2187 119.146 59.2398
23610 2 19.1235 117.556 57.9415
17694 1 11.845 120.78 56.7052
23651 2 10.9408 122.371 57.9985
23641 2 13.6684 120.766 57.9806
17696 1 14.5737 122.384 56.7229
17997 1 15.4911 120.752 59.259
17663 1 17.3012 120.78 56.7052
23639 2 16.397 122.371 57.9985
17951 1 20.9473 120.752 59.259
17661 1 20.0299 122.384 56.7229
23609 2 19.1246 120.766 57.9806
17683 1 11.8461 123.988 56.7396
23648 2 10.9418 125.579 58.0313
23640 2 13.6694 123.975 58.0154
17681 1 14.5748 125.591 56.7553
17662 1 17.3024 123.988 56.7396
23642 2 16.3981 125.579 58.0313
17664 1 20.031 125.591 56.7553
23604 2 19.1257 123.975 58.0154
17682 1 11.8472 127.194 56.77
23649 2 10.9428 128.787 58.06
23630 2 13.6704 127.183 58.0461
17684 1 14.5758 128.797 56.7837
17656 1 17.3034 127.194 56.77
23628 2 16.399 128.787 58.06
17654 1 20.032 128.797 56.7837
23603 2 19.1267 127.183 58.0461
17679 1 11.8482 130.4 56.7964
23647 2 10.9437 131.994 58.0847
23629 2 13.6714 130.391 58.0728
17677 1 14.5767 132.003 56.8082
17655 1 17.3044 130.4 56.7964
23631 2 16.3999 131.994 58.0847
17657 1 20.033 132.003 56.8082
23590 2 19.1276 130.391 58.0728
18010 1 10.952 115.901 61.7496
17601 1 13.6797 114.293 61.7263
23257 2 11.8565 114.31 60.4493
17993 1 16.4082 115.901 61.7496
23643 2 14.5851 115.917 60.4721
23209 2 17.3128 114.31 60.4493
23606 2 20.0414 115.917 60.4721
17565 1 19.1359 114.293 61.7263
17994 1 13.6805 117.508 61.7716
18006 1 10.9528 119.116 61.7925
23637 2 11.8575 117.524 60.4939
17995 1 16.4091 119.116 61.7925
23607 2 17.3137 117.524 60.4939
23635 2 14.5861 119.131 60.5145
17949 1 19.1368 117.508 61.7716
23608 2 20.0423 119.131 60.5145
18008 1 12.7635 122.357 59.2772
17986 1 13.6814 120.723 61.8123
18007 1 10.9537 122.33 61.8309
23636 2 11.8584 120.737 60.534
17984 1 16.4099 122.33 61.8309
23601 2 17.3147 120.737 60.534
23638 2 14.587 122.343 60.5524
17999 1 18.2197 122.357 59.2772
17948 1 19.1376 120.723 61.8123
23599 2 20.0433 122.343 60.5524
18009 1 12.7644 125.567 59.3104
17985 1 13.6822 123.937 61.8485
18002 1 10.9545 125.543 61.8649
23626 2 11.8594 123.949 60.5697
17990 1 15.4921 123.962 59.2944
17987 1 16.4108 125.543 61.8649
23600 2 17.3156 123.949 60.5697
23624 2 14.5879 125.555 60.5859
17950 1 20.9483 123.962 59.2944
17988 1 18.2207 125.567 59.3104
17941 1 19.1385 123.937 61.8485
23602 2 20.0442 125.555 60.5859
18004 1 12.7653 128.777 59.3394
17972 1 13.6831 127.15 61.8802
18003 1 10.9554 128.756 61.8944
23625 2 11.8603 127.161 60.6011
17989 1 15.493 127.172 59.3255
17970 1 16.4116 128.756 61.8944
23587 2 17.3165 127.161 60.6011
23627 2 14.5888 128.766 60.6152
17943 1 20.9492 127.172 59.3255
17991 1 18.2216 128.777 59.3394
17940 1 19.1393 127.15 61.8802
23585 2 20.0451 128.766 60.6152
18005 1 12.7662 131.986 59.3644
17971 1 13.6839 130.362 61.9076
18001 1 10.9562 131.968 61.9197
23618 2 11.8611 130.372 60.6283
17976 1 15.4939 130.381 59.3524
17973 1 16.4124 131.968 61.9197
23586 2 17.3174 130.372 60.6283
23616 2 14.5897 131.977 60.6403
17942 1 20.9501 130.381 59.3524
17974 1 18.2224 131.986 59.3644
17926 1 19.1401 130.362 61.9076
23588 2 20.0459 131.977 60.6403
23632 2 10.9663 115.852 65.5742
23633 2 12.7756 115.884 63.0234
17599 1 11.8703 114.259 64.2777
23193 2 13.694 114.242 65.5504
17992 1 14.5988 115.868 64.3014
23592 2 16.4226 115.852 65.5742
17546 1 17.3265 114.259 64.2777
23207 2 15.5033 114.276 63
17945 1 20.0551 115.868 64.3014
23605 2 18.2319 115.884 63.0234
23157 2 19.1502 114.242 65.5504
23159 2 20.9596 114.276 63
17982 1 11.8711 117.477 64.3239
23593 2 13.6949 117.461 65.5969
23620 2 10.9672 119.071 65.6183
23634 2 12.7765 119.101 63.0668
17946 1 17.3273 117.477 64.3239
17980 1 14.5996 119.086 64.3452
23594 2 16.4234 119.071 65.6183
23597 2 15.5042 117.493 63.0457
17947 1 20.0558 119.086 64.3452
23541 2 19.1511 117.461 65.5969
23544 2 20.9604 117.493 63.0457
23595 2 18.2328 119.101 63.0668
17981 1 11.8719 120.694 64.3654
23579 2 13.6958 120.68 65.6386
23621 2 10.9681 122.289 65.6577
23622 2 12.7774 122.316 63.1055
17938 1 17.3281 120.694 64.3654
17983 1 14.6004 122.303 64.3844
23577 2 16.4243 122.289 65.6577
23596 2 15.5051 120.709 63.0867
17936 1 20.0566 122.303 64.3844
23540 2 19.152 120.68 65.6386
23543 2 20.9613 120.709 63.0867
23598 2 18.2336 122.316 63.1055
17968 1 11.8727 123.911 64.4022
23578 2 13.6966 123.898 65.6756
23612 2 10.9689 125.507 65.6924
23623 2 12.7782 125.531 63.1397
17937 1 17.3289 123.911 64.4022
17966 1 14.6012 125.519 64.4189
23580 2 16.4252 125.507 65.6924
23583 2 15.5059 123.924 63.1231
17939 1 20.0575 125.519 64.4189
23533 2 19.1529 123.898 65.6756
23542 2 20.9622 123.924 63.1231
23581 2 18.2345 125.531 63.1397
17967 1 11.8735 127.127 64.4345
23564 2 13.6975 127.116 65.708
23613 2 10.9698 128.725 65.7226
23614 2 12.7791 128.745 63.1695
17923 1 17.3298 127.127 64.4345
17969 1 14.6021 128.735 64.4489
23562 2 16.426 128.725 65.7226
23582 2 15.5068 127.138 63.1551
17921 1 20.0583 128.735 64.4489
23532 2 19.1537 127.116 65.708
23535 2 20.963 127.138 63.1551
23584 2 18.2353 128.745 63.1695
17960 1 11.8743 130.343 64.4623
23563 2 13.6983 130.333 65.736
23611 2 10.9706 131.942 65.7484
23615 2 12.7799 131.959 63.1949
17922 1 17.3306 130.343 64.4623
17958 1 14.6029 131.951 64.4746
23565 2 16.4269 131.942 65.7484
23568 2 15.5076 130.352 63.1827
17924 1 20.0591 131.951 64.4746
23518 2 19.1546 130.333 65.736
23534 2 20.9639 130.352 63.1827
23566 2 18.2362 131.959 63.1949
17978 1 12.7894 115.836 66.8542
23191 2 11.8847 114.208 68.0997
23591 2 14.6133 115.819 68.1237
17544 1 15.517 114.226 66.8304
23140 2 17.341 114.208 68.0997
17944 1 18.2456 115.836 66.8542
23537 2 20.0696 115.819 68.1237
17505 1 20.9732 114.226 66.8304
17979 1 12.7902 119.056 66.8988
23575 2 11.8857 117.429 68.1466
17934 1 15.5179 117.446 66.8771
23538 2 17.3419 117.429 68.1466
23573 2 14.6143 119.04 68.1683
17886 1 20.9742 117.446 66.8771
17932 1 18.2464 119.056 66.8988
23539 2 20.0705 119.04 68.1683
17964 1 12.791 122.276 66.9386
23574 2 11.8866 120.651 68.1888
17933 1 15.5187 120.666 66.9193
23530 2 17.3429 120.651 68.1888
23576 2 14.6152 122.262 68.2082
17885 1 20.975 120.666 66.9193
17935 1 18.2473 122.276 66.9386
23528 2 20.0714 122.262 68.2082
17965 1 12.7919 125.496 66.9736
23560 2 11.8876 123.872 68.2263
17919 1 15.5196 123.886 66.9567
23529 2 17.3438 123.872 68.2263
23558 2 14.6161 125.483 68.2432
17884 1 20.9758 123.886 66.9567
17917 1 18.2481 125.496 66.9736
23531 2 20.0724 125.483 68.2432
17956 1 12.7927 128.715 67.004
23559 2 11.8885 127.093 68.2591
17918 1 15.5204 127.105 66.9893
23515 2 17.3447 127.093 68.2591
23561 2 14.6171 128.704 68.2737
17877 1 20.9767 127.105 66.9893
17920 1 18.249 128.715 67.004
23513 2 20.0733 128.704 68.2737
17957 1 12.7936 131.934 67.0299
23552 2 11.8894 130.314 68.2873
17905 1 15.5213 130.324 67.0175
23514 2 17.3456 130.314 68.2873
23550 2 14.618 131.925 68.2998
17876 1 20.9775 130.324 67.0175
17903 1 18.2498 131.934 67.0299
23516 2 20.0742 131.925 68.2998
17977 1 10.9789 115.804 69.4121
23571 2 12.8037 115.785 70.6694
17530 1 11.8909 114.158 71.9631
17532 1 13.7065 114.192 69.3879
17928 1 14.6196 115.771 71.9873
17929 1 16.4352 115.804 69.4121
17494 1 17.3472 114.158 71.9631
23138 2 15.5313 114.173 70.6453
17879 1 20.0759 115.771 71.9873
23536 2 18.2599 115.785 70.6694
17503 1 19.1628 114.192 69.3879
23108 2 20.9875 114.173 70.6453
17911 1 11.8921 117.383 72.0103
17930 1 13.7075 117.415 69.4351
17962 1 10.9799 119.026 69.457
23572 2 12.8048 119.009 70.7141
17880 1 17.3483 117.383 72.0103
17909 1 14.6208 118.996 72.0322
17931 1 16.4361 119.026 69.457
23526 2 15.5324 117.397 70.6924
17881 1 20.077 118.996 72.0322
17883 1 19.1638 117.415 69.4351
23484 2 20.9886 117.397 70.6924
23524 2 18.261 119.009 70.7141
17910 1 11.8932 120.608 72.0528
17915 1 13.7085 120.637 69.4776
17963 1 10.9809 122.249 69.497
23556 2 12.8059 122.234 70.7541
17872 1 17.3495 120.608 72.0528
17912 1 14.622 122.221 72.0723
17913 1 16.4371 122.249 69.497
23525 2 15.5335 120.622 70.7347
17870 1 20.0782 122.221 72.0723
17882 1 19.1647 120.637 69.4776
23483 2 20.9897 120.622 70.7347
23527 2 18.2621 122.234 70.7541
17897 1 11.8945 123.834 72.0906
17914 1 13.7095 123.86 69.5152
17954 1 10.9819 125.471 69.5322
23557 2 12.807 125.458 70.7894
17871 1 17.3507 123.834 72.0906
17895 1 14.6232 125.447 72.1077
17916 1 16.4381 125.471 69.5322
23511 2 15.5345 123.846 70.7723
17873 1 20.0794 125.447 72.1077
17875 1 19.1657 123.86 69.5152
23482 2 20.9908 123.846 70.7723
23509 2 18.2632 125.458 70.7894
17896 1 11.8957 127.06 72.1236
17901 1 13.7105 127.083 69.5481
17955 1 10.9829 128.694 69.5629
23548 2 12.808 128.683 70.82
17861 1 17.3519 127.06 72.1236
17898 1 14.6244 128.673 72.1384
17899 1 16.4391 128.694 69.5629
23510 2 15.5356 127.071 70.8053
17859 1 20.0806 128.673 72.1384
17874 1 19.1667 127.083 69.5481
23476 2 20.9919 127.071 70.8053
23512 2 18.2643 128.683 70.82
17891 1 11.8968 130.285 72.1521
17900 1 13.7115 130.305 69.5765
17953 1 10.9838 131.916 69.589
23549 2 12.809 131.907 70.8463
17860 1 17.3531 130.285 72.1521
17889 1 14.6255 131.898 72.1647
17902 1 16.44 131.916 69.589
23499 2 15.5366 130.295 70.8337
17862 1 20.0818 131.898 72.1647
17864 1 19.1677 130.305 69.5765
23475 2 20.9929 130.295 70.8337
23497 2 18.2653 131.907 70.8463
17907 1 12.7454 115.742 74.639
23570 2 10.9922 115.751 73.2011
23126 2 11.8807 114.108 75.6524
23128 2 13.7196 114.137 73.1771
23520 2 14.6094 115.722 75.6761
23521 2 16.4484 115.751 73.2011
17492 1 15.4732 114.129 74.615
23101 2 17.3369 114.108 75.6524
17878 1 18.2016 115.742 74.639
23477 2 20.0656 115.722 75.6761
17485 1 20.9294 114.129 74.615
23106 2 19.1759 114.137 73.1771
17908 1 12.7463 118.968 74.6836
23503 2 11.8819 117.336 75.6989
23522 2 13.7209 117.365 73.224
23554 2 10.9934 118.978 73.2458
17868 1 15.4739 117.355 74.6619
23478 2 17.3382 117.336 75.6989
23501 2 14.6107 118.951 75.7204
23523 2 16.4497 118.978 73.2458
17850 1 20.9301 117.355 74.6619
17866 1 18.2025 118.968 74.6836
23479 2 20.0669 118.951 75.7204
23481 2 19.1772 117.365 73.224
17893 1 12.7475 122.195 74.7236
23502 2 11.8833 120.566 75.7409
23507 2 13.7222 120.592 73.2663
23555 2 10.9947 122.206 73.2857
17867 1 15.475 120.581 74.7042
23471 2 17.3395 120.566 75.7409
23504 2 14.6121 122.181 75.7602
23505 2 16.451 122.206 73.2857
17849 1 20.9312 120.581 74.7042
17869 1 18.2038 122.195 74.7236
23469 2 20.0684 122.181 75.7602
23480 2 19.1784 120.592 73.2663
17894 1 12.749 125.423 74.7589
23491 2 11.8848 123.796 75.7784
23506 2 13.7235 123.82 73.304
23546 2 10.996 125.434 73.3211
17857 1 15.4763 123.809 74.7418
23470 2 17.341 123.796 75.7784
23489 2 14.6137 125.411 75.7954
23508 2 16.4522 125.434 73.3211
17848 1 20.9326 123.809 74.7418
17855 1 18.2052 125.423 74.7589
23472 2 20.0699 125.411 75.7954
23474 2 19.1797 123.82 73.304
17887 1 12.7505 128.651 74.7896
23490 2 11.8863 127.026 75.8113
23495 2 13.7247 127.048 73.337
23547 2 10.9972 128.662 73.3518
17856 1 15.4778 127.037 74.7748
23464 2 17.3425 127.026 75.8113
23492 2 14.6152 128.641 75.8261
23493 2 16.4535 128.662 73.3518
17847 1 20.9341 127.037 74.7748
17858 1 18.2067 128.651 74.7896
23462 2 20.0714 128.641 75.8261
23473 2 19.181 127.048 73.337
17888 1 12.7519 131.88 74.8159
23487 2 11.8878 130.257 75.8398
23494 2 13.7259 130.275 73.3655
23545 2 10.9984 131.889 73.3781
17853 1 15.4793 130.265 74.8033
23463 2 17.344 130.257 75.8398
23485 2 14.6166 131.872 75.8524
23496 2 16.4546 131.889 73.3781
17846 1 20.9356 130.265 74.8033
17851 1 18.2082 131.88 74.8159
23465 2 20.0728 131.872 75.8524
23467 2 19.1822 130.275 73.3655
5951 1 12.7017 132.378 -2.37854
12441 2 11.8131 133.94 -0.923009
12449 2 13.6243 133.956 -3.43033
12447 2 14.5419 132.372 -0.935108
5938 1 15.4287 133.946 -2.36644
12411 2 17.2693 133.94 -0.923009
12448 2 16.3533 132.39 -3.44232
5940 1 18.158 132.378 -2.37854
5892 1 20.885 133.946 -2.36644
12410 2 19.9982 132.372 -0.935108
12414 2 19.0805 133.956 -3.43033
9192 2 21.8095 132.39 -3.44232
5952 1 12.6997 135.513 -2.35548
12440 2 11.8118 137.076 -0.901999
12445 2 13.6229 137.088 -3.40947
12439 2 14.5405 135.508 -0.911974
5937 1 15.4271 137.08 -2.34559
12405 2 17.2681 137.076 -0.901999
12450 2 16.3517 135.522 -3.41938
5936 1 18.1559 135.513 -2.35548
5891 1 20.8833 137.08 -2.34559
12412 2 19.9968 135.508 -0.911974
12413 2 19.0791 137.088 -3.40947
9190 2 21.8079 135.522 -3.41938
5948 1 12.6983 138.647 -2.33672
12430 2 11.8108 140.21 -0.885202
12444 2 13.6218 140.22 -3.39276
12442 2 14.5394 138.643 -0.893077
5930 1 15.4259 140.213 -2.32889
12404 2 17.267 140.21 -0.885202
12443 2 16.3504 138.654 -3.40059
5939 1 18.1546 138.647 -2.33672
5890 1 20.8821 140.213 -2.32889
12403 2 19.9956 138.643 -0.893077
12408 2 19.078 140.22 -3.39276
9191 2 21.8067 138.654 -3.40059
5949 1 12.6973 141.78 -2.3221
12429 2 11.81 143.345 -0.8726
12434 2 13.621 143.352 -3.38022
12428 2 14.5385 141.778 -0.878376
5929 1 15.425 143.347 -2.31636
12391 2 17.2662 143.345 -0.8726
12446 2 16.3495 141.786 -3.38597
5928 1 18.1535 141.78 -2.3221
5883 1 20.8812 143.347 -2.31636
12406 2 19.9947 141.778 -0.878376
12407 2 19.0772 143.352 -3.38022
9188 2 21.8057 141.786 -3.38597
5944 1 12.6966 144.913 -2.31165
12422 2 11.8095 146.48 -0.864196
12433 2 13.6204 146.483 -3.37185
12431 2 14.5378 144.913 -0.867873
5945 1 12.6961 148.046 -2.30538
12420 2 14.5374 148.047 -0.86157
5916 1 15.4244 146.48 -2.30799
12390 2 17.2657 146.48 -0.864196
12432 2 16.3488 144.918 -3.37551
5931 1 18.1528 144.913 -2.31165
12435 2 16.3484 148.049 -3.36924
5914 1 18.1524 148.046 -2.30538
5882 1 20.8807 146.48 -2.30799
12389 2 19.994 144.913 -0.867873
12394 2 19.0767 146.483 -3.37185
9189 2 21.805 144.918 -3.37551
12392 2 19.9936 148.047 -0.86157
9187 2 21.8046 148.049 -3.36924
12421 2 11.8092 149.614 -0.859994
12423 2 13.6201 149.615 -3.36767
3263 1 12.696 151.179 -2.30329
9591 2 14.5373 151.181 -0.859469
5915 1 15.4241 149.613 -2.30381
12373 2 17.2654 149.614 -0.859994
9592 2 16.3482 151.18 -3.36715
3252 1 18.1522 151.179 -2.30329
5867 1 20.8804 149.613 -2.30381
12393 2 19.0764 149.615 -3.36767
9554 2 19.9935 151.181 -0.859469
6336 2 21.8045 151.18 -3.36715
5934 1 13.6282 133.931 0.299961
12437 2 12.7212 132.354 1.61976
5933 1 16.3571 132.362 0.287831
12401 2 15.4486 133.923 1.63192
12409 2 18.1775 132.354 1.61976
5889 1 19.0844 133.931 0.299961
12348 2 20.9048 133.923 1.63192
2878 1 21.8133 132.362 0.287831
5926 1 13.6268 137.068 0.321006
12438 2 12.7197 135.493 1.64301
5935 1 16.3556 135.499 0.311018
12400 2 15.4472 137.062 1.65304
12399 2 18.176 135.493 1.64301
5888 1 19.083 137.068 0.321006
12347 2 20.9035 137.062 1.65304
2874 1 21.8118 135.499 0.311018
5925 1 13.6257 140.204 0.337818
12426 2 12.7185 138.631 1.66201
5924 1 16.3543 138.636 0.329937
12387 2 15.4461 140.2 1.66992
12402 2 18.1748 138.631 1.66201
5881 1 19.0819 140.204 0.337818
12346 2 20.9024 140.2 1.66992
2875 1 21.8106 138.636 0.329937
5912 1 13.6249 143.341 0.350429
12427 2 12.7176 141.769 1.67677
12418 2 12.7169 144.907 1.68731
5927 1 16.3534 141.773 0.344648
12386 2 15.4453 143.338 1.68257
12385 2 18.1738 141.769 1.67677
12388 2 18.1731 144.907 1.68731
5880 1 19.0811 143.341 0.350429
12339 2 20.9016 143.338 1.68257
2870 1 21.8096 141.773 0.344648
5911 1 13.6243 146.477 0.358838
12419 2 12.7165 148.045 1.69364
5910 1 16.3527 144.909 0.355159
12372 2 15.4448 146.476 1.691
5913 1 16.3523 148.045 0.361465
12370 2 18.1727 148.045 1.69364
5866 1 19.0806 146.477 0.358838
12338 2 20.901 146.476 1.691
2871 1 21.8089 144.909 0.355159
2869 1 21.8085 148.045 0.361465
5901 1 13.624 149.613 0.363042
9581 2 12.7163 151.182 1.69574
12371 2 15.4445 149.614 1.69522
3245 1 16.3521 151.181 0.363568
9553 2 18.1726 151.182 1.69574
5865 1 19.0803 149.613 0.363042
12323 2 20.9007 149.614 1.69522
190 1 21.8084 151.181 0.363568
5922 1 11.8095 133.914 2.89853
5932 1 14.5384 132.344 2.88635
5918 1 12.7182 132.327 5.46871
12397 2 13.6279 133.907 4.19957
5886 1 17.2657 133.914 2.89853
5874 1 15.4455 133.899 5.4809
12396 2 16.3568 132.336 4.18739
5884 1 18.1744 132.327 5.46871
5885 1 19.9947 132.344 2.88635
5820 1 20.9017 133.899 5.4809
12345 2 19.0841 133.907 4.19957
9172 2 21.8131 132.336 4.18739
5921 1 11.8081 137.055 2.9197
5920 1 14.5369 135.484 2.90965
5919 1 12.7166 135.471 5.49202
12383 2 13.6265 137.049 4.22074
5878 1 17.2643 137.055 2.9197
5873 1 15.444 137.042 5.50208
12398 2 16.3553 135.478 4.21069
5872 1 18.1728 135.471 5.49202
5887 1 19.9931 135.484 2.90965
5819 1 20.9003 137.042 5.50208
12344 2 19.0827 137.049 4.22074
9160 2 21.8115 135.478 4.21069
5908 1 11.807 140.194 2.93661
5923 1 14.5356 138.624 2.92869
5904 1 12.7153 138.614 5.51108
12382 2 13.6253 140.19 4.23766
5905 1 12.7143 141.757 5.52588
5877 1 17.2632 140.194 2.93661
5859 1 15.4429 140.185 5.51901
12381 2 16.354 138.619 4.22974
5875 1 18.1716 138.614 5.51108
5857 1 18.1706 141.757 5.52588
5876 1 19.9919 138.624 2.92869
5818 1 20.8991 140.185 5.51901
12337 2 19.0816 140.19 4.23766
9161 2 21.8102 138.619 4.22974
5907 1 11.8061 143.334 2.94927
5906 1 14.5346 141.764 2.94347
12368 2 13.6245 143.331 4.25034
5909 1 14.5339 144.904 2.95402
5896 1 12.7136 144.9 5.53644
5863 1 17.2624 143.334 2.94927
5858 1 15.4421 143.328 5.53169
12384 2 16.353 141.761 4.24453
12366 2 16.3523 144.902 4.25509
5860 1 18.1699 144.9 5.53644
5879 1 19.9909 141.764 2.94347
5811 1 20.8983 143.328 5.53169
12336 2 19.0807 143.331 4.25034
9152 2 21.8092 141.761 4.24453
5861 1 19.9902 144.904 2.95402
9153 2 21.8085 144.902 4.25509
5900 1 11.8056 146.474 2.95771
12367 2 13.6239 146.472 4.25878
5898 1 14.5335 148.043 2.96035
5897 1 12.7132 148.042 5.54278
5862 1 17.2618 146.474 2.95771
5844 1 15.4415 146.471 5.54014
12369 2 16.3519 148.043 4.26142
5842 1 18.1694 148.042 5.54278
5810 1 20.8977 146.471 5.54014
12322 2 19.0802 146.472 4.25878
5864 1 19.9898 148.043 2.96035
9151 2 21.8081 148.043 4.26142
5899 1 11.8053 149.613 2.96193
12357 2 13.6237 149.614 4.263
3244 1 14.5334 151.183 2.96246
3230 1 12.7131 151.185 5.5449
5845 1 17.2615 149.613 2.96193
5843 1 15.4412 149.614 5.54437
9540 2 16.3518 151.184 4.26353
3196 1 18.1693 151.185 5.5449
5796 1 20.8975 149.614 5.54437
12321 2 19.0799 149.614 4.263
3197 1 19.9896 151.183 2.96246
6316 2 21.808 151.184 4.26353
5870 1 13.6251 133.884 8.05761
12379 2 11.8073 133.892 6.77147
12395 2 14.5363 132.319 6.75933
5869 1 16.354 132.311 8.04547
12342 2 17.2636 133.892 6.77147
5817 1 19.0813 133.884 8.05761
12341 2 19.9925 132.319 6.75933
2845 1 21.8103 132.311 8.04547
5855 1 13.6237 137.03 8.07873
12378 2 11.8059 137.036 6.7926
12377 2 14.5347 135.464 6.78257
5871 1 16.3525 135.457 8.0687
12334 2 17.2622 137.036 6.7926
5853 1 16.3512 138.603 8.08769
5816 1 19.0799 137.03 8.07873
12343 2 19.9909 135.464 6.78257
2830 1 21.8087 135.457 8.0687
2831 1 21.8074 138.603 8.08769
5854 1 13.6226 140.176 8.09561
12364 2 11.8048 140.181 6.80949
12380 2 14.5334 138.609 6.80158
12362 2 14.5325 141.753 6.81635
12333 2 17.261 140.181 6.80949
5856 1 16.3502 141.749 8.10246
5809 1 19.0788 140.176 8.09561
12332 2 19.9897 138.609 6.80158
12335 2 19.9887 141.753 6.81635
2822 1 21.8065 141.749 8.10246
5840 1 13.6217 143.322 8.10826
12363 2 11.804 143.325 6.82215
12365 2 14.5318 144.897 6.8269
12319 2 17.2602 143.325 6.82215
5838 1 16.3495 144.895 8.113
5808 1 19.078 143.322 8.10826
12317 2 19.988 144.897 6.8269
2823 1 21.8058 144.895 8.113
5839 1 13.6212 146.468 8.11669
12356 2 11.8034 146.47 6.83059
12354 2 14.5314 148.042 6.83323
12318 2 17.2597 146.47 6.83059
5841 1 16.3491 148.041 8.11933
5795 1 19.0774 146.468 8.11669
12320 2 19.9876 148.042 6.83323
2821 1 21.8054 148.041 8.11933
5829 1 13.6209 149.614 8.12092
12355 2 11.8032 149.614 6.83481
9539 2 14.5312 151.186 6.83534
12304 2 17.2594 149.614 6.83481
3181 1 16.349 151.187 8.12145
5794 1 19.0772 149.614 8.12092
9485 2 19.9875 151.186 6.83534
157 1 21.8052 151.187 8.12145
5851 1 11.8048 133.869 10.6321
12326 2 13.623 133.862 11.9176
12376 2 12.7144 135.45 9.35554
5849 1 14.5322 135.444 10.6431
12330 2 15.4432 133.877 9.34452
5814 1 17.2611 133.869 10.6321
12328 2 18.1706 135.45 9.35554
12327 2 16.3505 135.437 11.9285
12288 2 20.8994 133.877 9.34452
12285 2 19.0793 133.862 11.9176
5815 1 19.9885 135.444 10.6431
9094 2 21.8067 135.437 11.9285
5850 1 11.8035 137.018 10.653
12311 2 13.6218 137.012 11.9384
12360 2 12.7132 138.598 9.37444
5852 1 14.531 138.593 10.6619
12329 2 15.4418 137.024 9.36552
5806 1 17.2597 137.018 10.653
12331 2 18.1694 138.598 9.37444
12309 2 16.3494 138.588 11.9472
12287 2 20.8981 137.024 9.36552
12284 2 19.078 137.012 11.9384
5804 1 19.9873 138.593 10.6619
9095 2 21.8056 138.588 11.9472
5836 1 11.8024 140.167 10.6698
12310 2 13.6208 140.163 11.955
12361 2 12.7122 141.746 9.38915
5834 1 14.5301 141.742 10.6766
12315 2 15.4408 140.172 9.38232
5805 1 17.2587 140.167 10.6698
12313 2 18.1685 141.746 9.38915
12312 2 16.3485 141.738 11.9618
12286 2 20.897 140.172 9.38232
12278 2 19.077 140.163 11.955
5807 1 19.9864 141.742 10.6766
9086 2 21.8047 141.738 11.9618
5835 1 11.8016 143.316 10.6824
12299 2 13.62 143.314 11.9675
12352 2 12.7116 144.893 9.39965
5837 1 14.5295 144.891 10.6871
12314 2 15.44 143.319 9.39492
5792 1 17.2579 143.316 10.6824
12316 2 18.1678 144.893 9.39965
12297 2 16.3479 144.889 11.9722
12280 2 20.8962 143.319 9.39492
12277 2 19.0763 143.314 11.9675
5790 1 19.9857 144.891 10.6871
9087 2 21.8041 144.889 11.9722
5828 1 11.8011 146.466 10.6908
12298 2 13.6196 146.464 11.9759
12353 2 12.7112 148.041 9.40596
5826 1 14.5291 148.04 10.6934
12303 2 15.4394 146.467 9.40333
5791 1 17.2574 146.466 10.6908
12301 2 18.1674 148.041 9.40596
12300 2 16.3475 148.04 11.9785
12279 2 20.8957 146.467 9.40333
12271 2 19.0758 146.464 11.9759
5793 1 19.9853 148.04 10.6934
9085 2 21.8038 148.04 11.9785
5827 1 11.8009 149.615 10.695
12292 2 13.6193 149.615 11.9801
9519 2 12.711 151.188 9.40808
3180 1 14.529 151.189 10.6955
12302 2 15.4392 149.614 9.40754
5781 1 17.2571 149.615 10.695
9484 2 18.1673 151.188 9.40808
9469 2 16.3474 151.19 11.9806
12272 2 20.8954 149.614 9.40754
12270 2 19.0756 149.615 11.9801
3125 1 19.9852 151.189 10.6955
6254 2 21.8037 151.19 11.9806
5798 1 13.6211 133.84 15.778
12307 2 11.8031 133.848 14.4903
5848 1 12.7122 135.431 13.2163
12305 2 14.5306 135.424 14.5011
5802 1 15.441 133.855 13.2054
12282 2 17.2593 133.848 14.4903
5799 1 16.3487 135.418 15.7887
5800 1 18.1685 135.431 13.2163
2758 1 21.8049 135.418 15.7887
5769 1 19.0773 133.84 15.778
5772 1 20.8972 133.855 13.2054
12283 2 19.9868 135.424 14.5011
5784 1 13.62 136.995 15.7984
12306 2 11.8019 137.001 14.5108
5832 1 12.7111 138.583 13.2349
12308 2 14.5296 138.578 14.5196
5801 1 15.4398 137.007 13.2261
12275 2 17.2582 137.001 14.5108
5782 1 16.3477 138.573 15.8071
5803 1 18.1674 138.583 13.2349
2759 1 21.8039 138.573 15.8071
5768 1 19.0763 136.995 15.7984
5771 1 20.896 137.007 13.2261
12273 2 19.9858 138.578 14.5196
12293 2 14.5288 141.731 14.534
5783 1 13.6192 140.15 15.8148
12295 2 11.8011 140.155 14.5273
5833 1 12.7103 141.735 13.2495
5785 1 16.347 141.728 15.8214
5788 1 15.4388 140.159 13.2427
12274 2 17.2573 140.155 14.5273
5786 1 18.1665 141.735 13.2495
12276 2 19.9851 141.731 14.534
2750 1 21.8032 141.728 15.8214
5765 1 19.0754 140.15 15.8148
5770 1 20.895 140.159 13.2427
12296 2 14.5283 144.885 14.5443
12294 2 11.8004 143.308 14.5396
5776 1 13.6186 143.305 15.8271
5824 1 12.7097 144.887 13.2599
5774 1 16.3465 144.883 15.8317
12268 2 17.2566 143.308 14.5396
5787 1 15.4381 143.311 13.2552
5789 1 18.1659 144.887 13.2599
12266 2 19.9845 144.885 14.5443
5767 1 20.8943 143.311 13.2552
5764 1 19.0748 143.305 15.8271
2751 1 21.8027 144.883 15.8317
12291 2 11.8 146.462 14.5479
5775 1 13.6182 146.461 15.8353
12289 2 14.528 148.039 14.5505
5825 1 12.7094 148.039 13.2661
5777 1 16.3462 148.038 15.8379
12267 2 17.2562 146.462 14.5479
5780 1 15.4376 146.463 13.2635
5778 1 18.1656 148.039 13.2661
2749 1 21.8024 148.038 15.8379
12269 2 19.9842 148.039 14.5505
5766 1 20.8939 146.463 13.2635
5762 1 19.0744 146.461 15.8353
12290 2 11.7998 149.616 14.5521
5773 1 13.618 149.616 15.8395
3159 1 12.7093 151.191 13.2682
9468 2 14.5279 151.193 14.5526
5779 1 15.4374 149.615 13.2677
12265 2 17.256 149.616 14.5521
3109 1 16.3461 151.194 15.84
3124 1 18.1655 151.191 13.2682
5761 1 19.0742 149.616 15.8395
5763 1 20.8936 149.615 13.2677
9425 2 19.9841 151.193 14.5526
86 1 21.8023 151.194 15.84
6142 1 11.8015 133.826 18.35
12648 2 12.7109 135.411 17.0731
6140 1 14.5291 135.405 18.3605
12634 2 15.4396 133.833 17.0625
6119 1 17.2577 133.826 18.35
12632 2 18.1672 135.411 17.0731
12588 2 20.8958 133.833 17.0625
6120 1 19.9854 135.405 18.3605
6141 1 11.8006 136.984 18.37
12644 2 12.7101 138.568 17.0913
6143 1 14.5283 138.563 18.3785
12633 2 15.4386 136.99 17.0827
6115 1 17.2568 136.984 18.37
12635 2 18.1663 138.568 17.0913
12587 2 20.8948 136.99 17.0827
6113 1 19.9846 138.563 18.3785
6135 1 11.7999 140.142 18.3861
12645 2 12.7094 141.724 17.1055
6133 1 14.5278 141.721 18.3927
12626 2 15.4379 140.146 17.0989
6114 1 17.2561 140.142 18.3861
12624 2 18.1657 141.724 17.1055
12586 2 20.8941 140.146 17.0989
6116 1 19.984 141.721 18.3927
6134 1 11.7994 143.3 18.3982
12640 2 12.709 144.881 17.1157
6136 1 14.5274 144.879 18.4028
12625 2 15.4373 143.303 17.1111
6103 1 17.2557 143.3 18.3982
12627 2 18.1652 144.881 17.1157
12579 2 20.8935 143.303 17.1111
6101 1 19.9836 144.879 18.4028
6128 1 11.7991 146.459 18.4063
12641 2 12.7087 148.038 17.1218
6126 1 14.5271 148.038 18.4089
6102 1 17.2553 146.459 18.4063
12612 2 15.4369 146.46 17.1193
12610 2 18.165 148.038 17.1218
12578 2 20.8932 146.46 17.1193
6104 1 19.9834 148.038 18.4089
6127 1 11.7989 149.617 18.4104
9791 2 12.7086 151.195 17.1239
3456 1 14.527 151.196 18.411
6085 1 17.2552 149.617 18.4104
12611 2 15.4368 149.616 17.1234
9780 2 18.1649 151.195 17.1239
12563 2 20.893 149.616 17.1234
3430 1 19.9833 151.196 18.411
12630 2 13.6201 133.819 19.6341
12618 2 11.8009 133.805 22.205
6139 1 12.7099 135.392 20.9315
12616 2 14.5287 135.386 22.2152
12631 2 16.3478 135.399 19.6445
6111 1 15.4383 133.812 20.9213
12582 2 17.2572 133.805 22.205
6109 1 18.1661 135.392 20.9315
12585 2 19.0763 133.819 19.6341
6060 1 20.8946 133.812 20.9213
12583 2 19.985 135.386 22.2152
9378 2 21.804 135.399 19.6445
12622 2 13.6193 136.978 19.6539
12617 2 11.8004 136.967 22.2244
6131 1 12.7093 138.553 20.9493
12619 2 14.5283 138.548 22.2327
12620 2 16.3471 138.558 19.6624
6110 1 15.4377 136.973 20.9409
12574 2 17.2566 136.967 22.2244
6112 1 18.1655 138.553 20.9493
12584 2 19.0756 136.978 19.6539
6059 1 20.8939 136.973 20.9409
12572 2 19.9845 138.548 22.2327
9379 2 21.8034 138.558 19.6624
12621 2 13.6187 140.138 19.6698
12604 2 11.8 140.13 22.2401
6132 1 12.7089 141.714 20.9631
12602 2 14.5279 141.711 22.2464
12623 2 16.3466 141.718 19.6763
6099 1 15.4372 140.134 20.9567
12573 2 17.2562 140.13 22.2401
6097 1 18.1651 141.714 20.9631
12577 2 19.075 140.138 19.6698
6058 1 20.8934 140.134 20.9567
12575 2 19.9842 141.711 22.2464
9374 2 21.8029 141.718 19.6763
12608 2 13.6183 143.298 19.6818
12603 2 11.7997 143.292 22.2519
6124 1 12.7086 144.876 20.9731
12605 2 14.5277 144.874 22.2563
12606 2 16.3463 144.877 19.6864
6098 1 15.4368 143.295 20.9686
12559 2 17.2559 143.292 22.2519
6100 1 18.1648 144.876 20.9731
12576 2 19.0745 143.298 19.6818
6051 1 20.8931 143.295 20.9686
12557 2 19.9839 144.874 22.2563
9375 2 21.8025 144.877 19.6864
12607 2 13.618 146.457 19.6899
12596 2 11.7995 146.455 22.2598
6125 1 12.7084 148.037 20.9791
12594 2 14.5275 148.037 22.2623
12609 2 16.3461 148.037 19.6924
6084 1 15.4366 146.456 20.9766
12558 2 17.2557 146.455 22.2598
6082 1 18.1646 148.037 20.9791
12562 2 19.0743 146.457 19.6899
6050 1 20.8928 146.456 20.9766
12560 2 19.9838 148.037 22.2623
9373 2 21.8023 148.037 19.6924
12597 2 13.6179 149.617 19.694
12595 2 11.7994 149.618 22.2638
3450 1 12.7083 151.199 20.9812
9772 2 14.5275 151.2 22.2644
6083 1 15.4365 149.618 20.9806
12541 2 17.2556 149.618 22.2638
9773 2 16.346 151.197 19.6945
3429 1 18.1646 151.199 20.9812
12561 2 19.0741 149.617 19.694
6035 1 20.8927 149.618 20.9806
9725 2 19.9837 151.2 22.2644
6526 2 21.8022 151.197 19.6945
6107 1 13.6193 133.798 23.4918
12615 2 12.7101 135.373 24.7852
12570 2 15.4383 133.791 24.7752
6108 1 16.3472 135.38 23.5019
12568 2 18.1663 135.373 24.7852
6057 1 19.0756 133.798 23.4918
12516 2 20.8946 133.791 24.7752
3057 1 21.8035 135.38 23.5019
6095 1 13.6189 136.962 23.511
12600 2 12.7098 138.539 24.8023
12569 2 15.438 136.956 24.7942
6093 1 16.3469 138.543 23.5192
12571 2 18.166 138.539 24.8023
6056 1 19.0751 136.962 23.511
12515 2 20.8943 136.956 24.7942
3058 1 21.8031 138.543 23.5192
6094 1 13.6186 140.126 23.5265
12601 2 12.7096 141.704 24.8158
12555 2 15.4378 140.122 24.8095
6096 1 16.3466 141.708 23.5328
12553 2 18.1659 141.704 24.8158
6049 1 19.0748 140.126 23.5265
12514 2 20.8941 140.122 24.8095
3050 1 21.8028 141.708 23.5328
6080 1 13.6184 143.29 23.5382
12592 2 12.7095 144.87 24.8255
12554 2 15.4377 143.287 24.8211
6078 1 16.3464 144.872 23.5426
12556 2 18.1657 144.87 24.8255
6048 1 19.0746 143.29 23.5382
12507 2 20.8939 143.287 24.8211
3051 1 21.8026 144.872 23.5426
6079 1 13.6182 146.454 23.5461
12593 2 12.7094 148.036 24.8314
12540 2 15.4376 146.453 24.8289
6081 1 16.3463 148.036 23.5486
12538 2 18.1656 148.036 24.8314
6034 1 19.0745 146.454 23.5461
12506 2 20.8938 146.453 24.8289
3049 1 21.8025 148.036 23.5486
6069 1 13.6181 149.619 23.5501
9758 2 12.7094 151.202 24.8334
12539 2 15.4375 149.619 24.8329
3418 1 16.3463 151.201 23.5506
9724 2 18.1656 151.202 24.8334
6033 1 19.0744 149.619 23.5501
12492 2 20.8938 149.619 24.8329
377 1 21.8025 151.201 23.5506
6091 1 11.8007 133.784 26.0615
6089 1 14.5287 135.367 26.0714
12566 2 13.62 133.777 27.3445
6088 1 12.7107 135.354 28.6401
6054 1 17.2569 133.784 26.0615
6042 1 15.4388 133.77 28.6304
12567 2 16.348 135.361 27.3543
6040 1 18.1669 135.354 28.6401
9334 2 21.8043 135.361 27.3543
6055 1 19.985 135.367 26.0714
5994 1 20.895 133.77 28.6304
12513 2 19.0762 133.777 27.3445
6090 1 11.8005 136.95 26.0804
6092 1 14.5286 138.534 26.0884
12551 2 13.6199 136.945 27.3632
6072 1 12.7108 138.524 28.6568
6046 1 17.2568 136.95 26.0804
6041 1 15.4388 136.939 28.6489
12549 2 16.348 138.529 27.3711
6043 1 18.167 138.524 28.6568
9335 2 21.8042 138.529 27.3711
6044 1 19.9848 138.534 26.0884
5993 1 20.8951 136.939 28.6489
12512 2 19.0761 136.945 27.3632
6076 1 11.8004 140.117 26.0956
6074 1 14.5285 141.701 26.1018
12550 2 13.6199 140.113 27.3782
6073 1 12.7108 141.694 28.6699
6045 1 17.2566 140.117 26.0956
6027 1 15.4389 140.109 28.6638
12552 2 16.348 141.698 27.3843
6025 1 18.167 141.694 28.6699
9326 2 21.8042 141.698 27.3843
6047 1 19.9847 141.701 26.1018
5992 1 20.8951 140.109 28.6638
12505 2 19.0761 140.113 27.3782
6075 1 11.8003 143.285 26.1071
6077 1 14.5284 144.868 26.1114
12536 2 13.6198 143.282 27.3896
6064 1 12.7108 144.865 28.6794
6031 1 17.2566 143.285 26.1071
6026 1 15.4389 143.28 28.6751
12534 2 16.348 144.867 27.3939
6028 1 18.1671 144.865 28.6794
9327 2 21.8042 144.867 27.3939
6029 1 19.9846 144.868 26.1114
5985 1 20.8952 143.28 28.6751
12504 2 19.0761 143.282 27.3896
6068 1 11.8003 146.452 26.1148
6066 1 14.5284 148.036 26.1172
12535 2 13.6198 146.451 27.3973
6065 1 12.7109 148.035 28.6851
6030 1 17.2565 146.452 26.1148
6013 1 15.439 146.45 28.6827
12537 2 16.3479 148.036 27.3997
6011 1 18.1671 148.035 28.6851
9325 2 21.8042 148.036 27.3997
6032 1 19.9846 148.036 26.1172
5984 1 20.8952 146.45 28.6827
12491 2 19.0761 146.451 27.3973
6067 1 11.8002 149.62 26.1187
12525 2 13.6198 149.62 27.4012
3417 1 14.5283 151.203 26.1193
3399 1 12.7109 151.206 28.6872
6014 1 17.2565 149.62 26.1187
6012 1 15.439 149.621 28.6866
9709 2 16.3479 151.205 27.4017
3364 1 18.1671 151.206 28.6872
5973 1 20.8952 149.621 28.6866
12490 2 19.0761 149.62 27.4012
3365 1 19.9846 151.203 26.1193
6493 2 21.8042 151.205 27.4017
6038 1 13.6211 133.755 31.1984
12547 2 11.8021 133.763 29.9129
12544 2 12.713 135.335 32.4898
12545 2 14.5303 135.348 29.9225
12498 2 15.441 133.748 32.4804
12510 2 17.2583 133.763 29.9129
6039 1 16.3494 135.342 31.2079
12496 2 18.1693 135.335 32.4898
2998 1 21.8056 135.342 31.2079
5991 1 19.0774 133.755 31.1984
12468 2 20.8972 133.748 32.4804
12511 2 19.9865 135.348 29.9225
6023 1 13.6214 136.928 31.2165
12546 2 11.8022 136.934 29.9312
12528 2 12.7134 138.51 32.5061
12548 2 14.5304 138.519 29.9391
12497 2 15.4413 136.923 32.4984
12502 2 17.2585 136.934 29.9312
6021 1 16.3497 138.515 31.2243
12499 2 18.1696 138.51 32.5061
2999 1 21.8059 138.515 31.2243
5990 1 19.0777 136.928 31.2165
12467 2 20.8976 136.923 32.4984
12500 2 19.9867 138.519 29.9391
6022 1 13.6217 140.101 31.2312
12532 2 11.8024 140.105 29.946
12529 2 12.7136 141.685 32.5189
12530 2 14.5306 141.691 29.9521
12484 2 15.4416 140.097 32.513
12501 2 17.2586 140.105 29.946
6024 1 16.3499 141.688 31.2372
12482 2 18.1699 141.685 32.5189
2990 1 21.8061 141.688 31.2372
5983 1 19.0779 140.101 31.2312
12466 2 20.8979 140.097 32.513
12503 2 19.9868 141.691 29.9521
6009 1 13.6218 143.275 31.2423
12531 2 11.8025 143.277 29.9572
12520 2 12.7138 144.86 32.5282
12533 2 14.5306 144.863 29.9615
12483 2 15.4419 143.272 32.524
12488 2 17.2587 143.277 29.9572
6007 1 16.35 144.861 31.2465
12485 2 18.1701 144.86 32.5282
2991 1 21.8062 144.861 31.2465
5982 1 19.0781 143.275 31.2423
12463 2 20.8981 143.272 32.524
12486 2 19.9869 144.863 29.9615
6008 1 13.6219 146.448 31.2498
12524 2 11.8026 146.449 29.9648
12521 2 12.7139 148.035 32.5339
12522 2 14.5307 148.035 29.9672
12476 2 15.442 146.447 32.5315
12487 2 17.2588 146.449 29.9648
6010 1 16.3501 148.035 31.2522
12474 2 18.1702 148.035 32.5339
2989 1 21.8063 148.035 31.2522
5972 1 19.0782 146.448 31.2498
12462 2 20.8982 146.447 32.5315
12489 2 19.9869 148.035 29.9672
6000 1 13.622 149.622 31.2537
12523 2 11.8026 149.621 29.9687
9708 2 14.5307 151.207 29.9692
12475 2 15.4421 149.622 32.5353
12477 2 17.2588 149.621 29.9687
5971 1 19.0782 149.622 31.2537
12459 2 20.8983 149.622 32.5353
9653 2 19.9869 151.207 29.9692
6019 1 11.804 133.741 33.7653
12494 2 13.6242 133.734 35.0468
6017 1 14.5324 135.329 33.7747
5988 1 17.2603 133.741 33.7653
12495 2 16.3526 135.322 35.0561
9262 2 21.8089 135.322 35.0561
12465 2 19.0804 133.734 35.0468
5989 1 19.9887 135.329 33.7747
6020 1 14.5329 138.505 33.7909
6018 1 11.8045 136.917 33.7832
12480 2 13.6248 136.911 35.0646
12478 2 16.3531 138.5 35.0722
5980 1 17.2608 136.917 33.7832
9263 2 21.8094 138.5 35.0722
5978 1 19.9891 138.505 33.7909
12464 2 19.081 136.911 35.0646
6003 1 14.5332 141.681 33.8036
6005 1 11.8049 140.093 33.7977
12479 2 13.6252 140.089 35.079
12481 2 16.3535 141.678 35.0849
5979 1 17.2612 140.093 33.7977
9254 2 21.8098 141.678 35.0849
5981 1 19.9894 141.681 33.8036
12461 2 19.0815 140.089 35.079
6006 1 14.5334 144.858 33.8128
12472 2 13.6255 143.267 35.0899
6004 1 11.8052 143.27 33.8087
12470 2 16.3538 144.856 35.0941
5969 1 17.2615 143.27 33.8087
9255 2 21.81 144.856 35.0941
5967 1 19.9897 144.858 33.8128
12460 2 19.0818 143.267 35.0899
5997 1 14.5336 148.035 33.8184
12471 2 13.6257 146.445 35.0973
5999 1 11.8054 146.446 33.8161
12473 2 16.3539 148.034 35.0997
5968 1 17.2616 146.446 33.8161
5970 1 19.9898 148.035 33.8184
12458 2 19.082 146.445 35.0973
9253 2 21.8102 148.034 35.0997
12469 2 13.6258 149.623 35.1011
5998 1 11.8055 149.623 33.8199
5962 1 17.2617 149.623 33.8199
12457 2 19.0821 149.623 35.1011
12670 2 11.8081 133.719 37.6121
17811 1 13.6281 133.712 38.896
6016 1 12.7161 135.316 36.3405
12668 2 14.5366 135.31 37.6214
12659 2 17.2643 133.719 37.6121
18165 1 16.3566 135.303 38.9052
5976 1 15.4438 133.726 36.3312
5974 1 18.1723 135.316 36.3405
5958 1 20.9001 133.726 36.3312
17781 1 19.0843 133.712 38.896
12660 2 19.9928 135.31 37.6214
15352 1 21.8128 135.303 38.9052
12669 2 11.8088 136.9 37.6298
18166 1 13.6288 136.894 38.9136
6001 1 12.7167 138.495 36.3565
12671 2 14.5372 138.49 37.6374
12656 2 17.2651 136.9 37.6298
18167 1 16.3573 138.485 38.9212
5975 1 15.4445 136.906 36.3489
5977 1 18.1729 138.495 36.3565
18137 1 19.0851 136.894 38.9136
5957 1 20.9007 136.906 36.3489
12654 2 19.9935 138.49 37.6374
15350 1 21.8135 138.485 38.9212
12666 2 11.8094 140.081 37.6441
18162 1 13.6295 140.077 38.9279
6002 1 12.7171 141.675 36.3691
12664 2 14.5377 141.671 37.65
12655 2 17.2656 140.081 37.6441
18160 1 16.3578 141.668 38.9337
5965 1 15.445 140.085 36.3632
5963 1 18.1733 141.675 36.3691
18136 1 19.0857 140.077 38.9279
5956 1 20.9013 140.085 36.3632
12657 2 19.9939 141.671 37.65
15351 1 21.814 141.668 38.9337
12665 2 11.8098 143.262 37.6549
18161 1 13.6299 143.259 38.9387
5995 1 12.7174 144.854 36.3782
12667 2 14.538 144.853 37.6591
12652 2 17.266 143.262 37.6549
18163 1 16.3582 144.851 38.9428
5964 1 15.4454 143.265 36.3741
5966 1 18.1736 144.854 36.3782
18131 1 19.0861 143.259 38.9387
5955 1 20.9016 143.265 36.3741
12650 2 19.9943 144.853 37.6591
15348 1 21.8144 144.851 38.9428
12663 2 11.81 146.443 37.6623
18152 1 13.6302 146.442 38.946
5996 1 12.7176 148.034 36.3838
12661 2 14.5382 148.034 37.6646
12651 2 17.2663 146.443 37.6623
18150 1 16.3584 148.034 38.9483
5961 1 15.4456 146.444 36.3815
5959 1 18.1738 148.034 36.3838
18130 1 19.0864 146.442 38.946
5954 1 20.9019 146.444 36.3815
12653 2 19.9945 148.034 37.6646
15349 1 21.8146 148.034 38.9483
12662 2 11.8101 149.624 37.6661
18151 1 13.6303 149.625 38.9498
12649 2 17.2664 149.624 37.6661
5960 1 15.4457 149.624 36.3853
18117 1 19.0865 149.625 38.9498
5953 1 20.902 149.624 36.3853
23791 2 12.7212 135.296 40.1856
17809 1 11.813 133.697 41.4597
18164 1 14.5415 135.29 41.4689
17761 1 17.2692 133.697 41.4597
23423 2 15.4489 133.705 40.1764
23782 2 18.1775 135.296 40.1856
18133 1 19.9978 135.29 41.4689
23375 2 20.9052 133.705 40.1764
23792 2 12.7219 138.48 40.2015
18158 1 11.8138 136.883 41.4773
18156 1 14.5423 138.476 41.4848
23780 2 15.4497 136.888 40.194
18134 1 17.2701 136.883 41.4773
23778 2 18.1782 138.48 40.2015
18135 1 19.9985 138.476 41.4848
23742 2 20.906 136.888 40.194
23788 2 12.7225 141.665 40.2141
18157 1 11.8145 140.068 41.4915
18159 1 14.5429 141.661 41.4973
23779 2 15.4504 140.073 40.2082
18128 1 17.2707 140.068 41.4915
23781 2 18.1787 141.665 40.2141
18126 1 19.9991 141.661 41.4973
23741 2 20.9066 140.073 40.2082
23789 2 12.7229 144.849 40.2231
18148 1 11.815 143.254 41.5023
18146 1 14.5433 144.847 41.5064
18127 1 17.2712 143.254 41.5023
23772 2 15.4508 143.257 40.219
23770 2 18.1791 144.849 40.2231
18129 1 19.9995 144.847 41.5064
23740 2 20.9071 143.257 40.219
23785 2 12.7231 148.033 40.2287
18147 1 11.8153 146.44 41.5096
18149 1 14.5435 148.033 41.5119
18116 1 17.2715 146.44 41.5096
23771 2 15.4511 146.441 40.2263
23773 2 18.1793 148.033 40.2287
18114 1 19.9998 148.033 41.5119
23733 2 20.9074 146.441 40.2263
18141 1 11.8154 149.626 41.5133
18115 1 17.2717 149.626 41.5133
23758 2 15.4513 149.626 40.2301
23732 2 20.9075 149.626 40.2301
23409 2 13.6342 133.69 42.7395
18154 1 12.7271 135.277 44.0315
23407 2 11.8201 133.675 45.3015
23774 2 14.5487 135.27 45.3108
23775 2 16.3628 135.283 42.7488
17759 1 15.4548 133.682 44.0223
23354 2 17.2764 133.675 45.3015
18132 1 18.1834 135.277 44.0315
23373 2 19.0904 133.69 42.7395
23735 2 20.005 135.27 45.3108
17711 1 20.911 133.682 44.0223
20970 2 21.819 135.283 42.7488
23776 2 13.635 136.877 42.7572
18155 1 12.728 138.466 44.0475
23764 2 11.821 136.865 45.3193
23762 2 14.5495 138.46 45.3268
23777 2 16.3635 138.471 42.7647
18124 1 15.4557 136.871 44.0399
23736 2 17.2773 136.865 45.3193
18122 1 18.1842 138.466 44.0475
20966 2 21.8198 138.471 42.7647
23739 2 19.0913 136.877 42.7572
18082 1 20.9119 136.871 44.0399
23737 2 20.0058 138.46 45.3268
23768 2 13.6357 140.064 42.7714
18144 1 12.7286 141.655 44.06
23763 2 11.8217 140.056 45.3336
23766 2 16.3641 141.658 42.7772
18123 1 15.4564 140.06 44.0542
23728 2 17.278 140.056 45.3336
23765 2 14.5501 141.651 45.3394
18125 1 18.1848 141.655 44.06
20967 2 21.8204 141.658 42.7772
23738 2 19.092 140.064 42.7714
18081 1 20.9126 140.06 44.0542
23726 2 20.0064 141.651 45.3394
23767 2 13.6362 143.252 42.7822
18145 1 12.729 144.844 44.0691
23753 2 11.8222 143.246 45.3444
23769 2 16.3645 144.845 42.7863
18112 1 15.4569 143.249 44.065
23727 2 17.2785 143.246 45.3444
23751 2 14.5506 144.842 45.3485
18110 1 18.1852 144.844 44.0691
20963 2 21.8208 144.845 42.7863
23731 2 19.0925 143.252 42.7822
18080 1 20.9132 143.249 44.065
23729 2 20.0068 144.842 45.3485
23757 2 13.6366 146.439 42.7895
18140 1 12.7292 148.033 44.0746
23752 2 11.8226 146.437 45.3517
23755 2 16.3648 148.033 42.7918
18111 1 15.4573 146.438 44.0723
23716 2 17.2788 146.437 45.3517
23754 2 14.5508 148.032 45.354
18113 1 18.1855 148.033 44.0746
20964 2 21.821 148.033 42.7918
23730 2 19.0928 146.439 42.7895
18073 1 20.9135 146.438 44.0723
23714 2 20.007 148.032 45.354
23756 2 13.6367 149.627 42.7932
23746 2 11.8227 149.628 45.3554
18098 1 15.4574 149.627 44.076
23715 2 17.279 149.628 45.3554
23717 2 19.0929 149.627 42.7932
18072 1 20.9137 149.627 44.076
18153 1 10.9134 135.263 46.5931
23760 2 12.7353 135.257 47.8718
17743 1 11.828 133.652 49.1441
17745 1 13.6411 133.667 46.5837
18118 1 14.5566 135.25 49.1535
18119 1 16.3697 135.263 46.5931
17692 1 17.2843 133.652 49.1441
23352 2 15.463 133.66 47.8625
18075 1 20.0129 135.25 49.1535
23734 2 18.1916 135.257 47.8718
17709 1 19.0973 133.667 46.5837
23313 2 20.9192 133.66 47.8625
18104 1 11.8289 136.848 49.1621
18120 1 13.642 136.859 46.6015
18142 1 10.9143 138.455 46.6091
23761 2 12.7362 138.45 47.888
18076 1 17.2852 136.848 49.1621
18102 1 14.5574 138.445 49.1697
18121 1 16.3705 138.455 46.6091
23724 2 15.4639 136.853 47.8803
18077 1 20.0137 138.445 49.1697
18079 1 19.0982 136.859 46.6015
23687 2 20.9201 136.853 47.8803
23722 2 18.1924 138.45 47.888
18103 1 11.8296 140.043 49.1765
18108 1 13.6427 140.052 46.6159
18143 1 10.9149 141.648 46.6217
23749 2 12.7368 141.644 47.9006
18068 1 17.2859 140.043 49.1765
18105 1 14.5581 141.641 49.1824
18106 1 16.3711 141.648 46.6217
23723 2 15.4646 140.047 47.8947
18066 1 20.0143 141.641 49.1824
18078 1 19.099 140.052 46.6159
23686 2 20.9208 140.047 47.8947
23725 2 18.193 141.644 47.9006
18093 1 11.8302 143.238 49.1874
18107 1 13.6432 143.244 46.6267
18138 1 10.9153 144.84 46.6308
23750 2 12.7372 144.838 47.9097
18067 1 17.2864 143.238 49.1874
18091 1 14.5585 144.836 49.1915
18109 1 16.3716 144.84 46.6308
23712 2 15.4651 143.241 47.9056
18069 1 20.0147 144.836 49.1915
18071 1 19.0995 143.244 46.6267
23685 2 20.9214 143.241 47.9056
23710 2 18.1934 144.838 47.9097
18092 1 11.8305 146.434 49.1948
18097 1 13.6436 146.436 46.634
18139 1 10.9156 148.032 46.6363
23745 2 12.7374 148.032 47.9152
18056 1 17.2868 146.434 49.1948
18094 1 14.5587 148.031 49.1971
18095 1 16.3718 148.032 46.6363
23711 2 15.4655 146.435 47.9129
18054 1 20.015 148.031 49.1971
18070 1 19.0998 146.436 46.634
23678 2 20.9217 146.435 47.9129
23713 2 18.1937 148.032 47.9152
18086 1 11.8307 149.629 49.1985
18096 1 13.6437 149.628 46.6377
18055 1 17.2869 149.629 49.1985
23699 2 15.4656 149.629 47.9167
18057 1 19.1 149.628 46.6377
23677 2 20.9219 149.629 47.9167
18100 1 12.7442 135.236 51.713
23759 2 10.9226 135.243 50.4318
23340 2 13.6503 133.644 50.4223
23719 2 16.3789 135.243 50.4318
17690 1 15.4719 133.637 51.7034
18074 1 18.2005 135.236 51.713
17660 1 20.9281 133.637 51.7034
23311 2 19.1065 133.644 50.4223
18101 1 12.745 138.435 51.7294
23720 2 13.6512 136.841 50.4404
23747 2 10.9234 138.44 50.4481
18064 1 15.4728 136.836 51.7216
23721 2 16.3797 138.44 50.4481
18032 1 20.929 136.836 51.7216
18062 1 18.2012 138.435 51.7294
23684 2 19.1074 136.841 50.4404
18089 1 12.7456 141.634 51.7421
23708 2 13.6519 140.038 50.4549
23748 2 10.924 141.637 50.4608
18063 1 15.4734 140.034 51.7362
23706 2 16.3803 141.637 50.4608
18031 1 20.9297 140.034 51.7362
18065 1 18.2018 141.634 51.7421
23683 2 19.1081 140.038 50.4549
18090 1 12.746 144.832 51.7513
23707 2 13.6524 143.236 50.4658
23743 2 10.9244 144.834 50.47
18052 1 15.474 143.233 51.7472
23709 2 16.3807 144.834 50.47
18030 1 20.9302 143.233 51.7472
18050 1 18.2023 144.832 51.7513
23676 2 19.1086 143.236 50.4658
18085 1 12.7463 148.031 51.7569
23698 2 13.6527 146.433 50.4732
23744 2 10.9247 148.031 50.4755
18051 1 15.4743 146.431 51.7546
23696 2 16.3809 148.031 50.4755
18024 1 20.9305 146.431 51.7546
18053 1 18.2025 148.031 51.7569
23675 2 19.1089 146.433 50.4732
23697 2 13.6529 149.63 50.477
18041 1 15.4745 149.63 51.7583
18023 1 20.9307 149.63 51.7583
23666 2 19.1091 149.63 50.477
18099 1 10.9325 135.222 54.2714
23700 2 12.7553 135.215 55.5486
17680 1 13.6602 133.621 54.2617
23338 2 11.8382 133.629 52.9811
18059 1 16.3887 135.222 54.2714
23718 2 14.5668 135.229 52.9907
23300 2 15.4831 133.613 55.5388
23302 2 17.2945 133.629 52.9811
23679 2 18.2116 135.215 55.5486
23680 2 20.023 135.229 52.9907
17658 1 19.1164 133.621 54.2617
23293 2 20.9393 133.613 55.5388
18060 1 13.661 136.823 54.2801
18087 1 10.9332 138.424 54.288
23701 2 12.7561 138.419 55.5653
23704 2 11.8391 136.829 52.9994
18061 1 16.3894 138.424 54.288
23669 2 15.4838 136.817 55.5574
23681 2 17.2953 136.829 52.9994
23702 2 14.5675 138.43 53.0072
18029 1 19.1172 136.823 54.2801
23657 2 20.9401 136.817 55.5574
23667 2 18.2123 138.419 55.5653
23682 2 20.0238 138.43 53.0072
18048 1 13.6616 140.025 54.2949
18088 1 10.9338 141.626 54.3009
23690 2 12.7566 141.623 55.5783
23703 2 11.8397 140.03 53.0141
18046 1 16.39 141.626 54.3009
23668 2 15.4845 140.021 55.5722
23673 2 17.296 140.03 53.0141
23705 2 14.5681 141.63 53.02
18028 1 19.1179 140.025 54.2949
23656 2 20.9407 140.021 55.5722
23670 2 18.2129 141.623 55.5783
23671 2 20.0244 141.63 53.02
18047 1 13.6621 143.227 54.306
18083 1 10.9342 144.828 54.3101
23691 2 12.757 144.826 55.5876
23694 2 11.8402 143.23 53.0251
18049 1 16.3904 144.828 54.3101
23661 2 15.485 143.224 55.5834
23672 2 17.2965 143.23 53.0251
23692 2 14.5685 144.83 53.0293
18022 1 19.1184 143.227 54.306
23655 2 20.9412 143.224 55.5834
23659 2 18.2133 144.826 55.5876
23674 2 20.0248 144.83 53.0293
18040 1 13.6624 146.429 54.3134
18084 1 10.9344 148.03 54.3157
23688 2 12.7573 148.03 55.5932
23693 2 11.8406 146.43 53.0325
18038 1 16.3907 148.03 54.3157
23660 2 15.4853 146.428 55.5908
23665 2 17.2968 146.43 53.0325
23695 2 14.5688 148.03 53.0348
23663 2 20.025 148.03 53.0348
23662 2 18.2135 148.03 55.5932
23654 2 20.9415 146.428 55.5908
18021 1 19.1187 146.429 54.3134
23689 2 11.8407 149.631 53.0363
18039 1 13.6626 149.631 54.3172
23664 2 17.297 149.631 53.0363
23658 2 15.4854 149.631 55.5946
23653 2 20.9417 149.631 55.5946
18016 1 19.1188 149.631 54.3172
23952 2 10.9445 135.201 58.1055
17678 1 11.849 133.606 56.819
23619 2 13.6722 133.598 58.0956
23945 2 16.4007 135.201 58.1055
18058 1 14.5775 135.208 56.8288
17653 1 17.3053 133.606 56.819
18025 1 20.0338 135.208 56.8288
23589 2 19.1285 133.598 58.0956
23946 2 13.673 136.805 58.1144
23950 2 10.9452 138.408 58.1224
18044 1 11.8498 136.811 56.8377
23947 2 16.4014 138.408 58.1224
18026 1 17.306 136.811 56.8377
18042 1 14.5782 138.414 56.8456
23917 2 19.1292 136.805 58.1144
18027 1 20.0345 138.414 56.8456
23942 2 13.6736 140.012 58.1294
23951 2 10.9457 141.615 58.1355
18043 1 11.8504 140.016 56.8526
23940 2 16.4019 141.615 58.1355
18019 1 17.3067 140.016 56.8526
18045 1 14.5788 141.619 56.8587
23916 2 19.1298 140.012 58.1294
18017 1 20.035 141.619 56.8587
23941 2 13.674 143.219 58.1407
23948 2 10.9461 144.822 58.1449
18036 1 11.8509 143.222 56.8638
23943 2 16.4023 144.822 58.1449
18018 1 17.3071 143.222 56.8638
18034 1 14.5792 144.824 56.868
23911 2 19.1303 143.219 58.1407
18020 1 20.0354 144.824 56.868
23932 2 13.6743 146.426 58.1482
23949 2 10.9463 148.029 58.1506
18035 1 11.8512 146.427 56.8713
23930 2 16.4026 148.029 58.1506
18015 1 17.3074 146.427 56.8713
18037 1 14.5794 148.029 56.8736
23910 2 19.1306 146.426 58.1482
18013 1 20.0357 148.029 56.8736
23931 2 13.6745 149.632 58.152
18033 1 11.8514 149.632 56.8751
18014 1 17.3076 149.632 56.8751
23897 2 19.1307 149.632 58.152
18311 1 12.767 135.194 59.3853
18310 1 10.9569 135.18 61.9409
17961 1 13.6847 133.574 61.9308
23617 2 11.8619 133.582 60.6514
17975 1 15.4947 133.59 59.3753
18295 1 16.4132 135.18 61.9409
23944 2 14.5904 135.187 60.6614
23569 2 17.3182 133.582 60.6514
18302 1 18.2232 135.194 59.3853
17927 1 20.9509 133.59 59.3753
23913 2 20.0467 135.187 60.6614
17925 1 19.1409 133.574 61.9308
18312 1 12.7676 138.403 59.4023
18296 1 13.6854 136.786 61.95
18306 1 10.9576 138.392 61.9582
23938 2 11.8626 136.793 60.6705
18300 1 15.4954 136.799 59.3943
18297 1 16.4138 138.392 61.9582
23914 2 17.3189 136.793 60.6705
23936 2 14.5911 138.398 60.6785
18262 1 20.9517 136.799 59.3943
18298 1 18.2239 138.403 59.4023
18259 1 19.1416 136.786 61.95
23915 2 20.0473 138.398 60.6785
18308 1 12.7682 141.612 59.4155
18288 1 13.686 139.998 61.9653
18307 1 10.9581 141.604 61.9715
23937 2 11.8632 140.003 60.6856
18299 1 15.496 140.007 59.4094
18286 1 16.4143 141.604 61.9715
23908 2 17.3195 140.003 60.6856
23939 2 14.5916 141.608 60.6918
18261 1 20.9523 140.007 59.4094
18301 1 18.2244 141.612 59.4155
18258 1 19.1422 139.998 61.9653
23906 2 20.0478 141.608 60.6918
18309 1 12.7685 144.82 59.4249
18287 1 13.6864 143.21 61.9767
18303 1 10.9585 144.816 61.981
23928 2 11.8637 143.213 60.697
18292 1 15.4965 143.216 59.4207
18289 1 16.4147 144.816 61.981
23907 2 17.3199 143.213 60.697
23926 2 14.592 144.818 60.7012
18260 1 20.9527 143.216 59.4207
18290 1 18.2248 144.82 59.4249
18251 1 19.1427 143.21 61.9767
23909 2 20.0482 144.818 60.7012
18305 1 12.7688 148.029 59.4306
18277 1 13.6867 146.422 61.9843
18304 1 10.9587 148.028 61.9866
23927 2 11.864 146.423 60.7045
18291 1 15.4968 146.424 59.4282
18275 1 16.415 148.028 61.9866
23896 2 17.3202 146.423 60.7045
23929 2 14.5922 148.028 60.7069
18253 1 20.953 146.424 59.4282
18293 1 18.225 148.029 59.4306
18250 1 19.143 146.422 61.9843
23894 2 20.0485 148.028 60.7069
18276 1 13.6869 149.634 61.9881
23921 2 11.8642 149.633 60.7084
18278 1 15.497 149.633 59.432
23895 2 17.3204 149.633 60.7084
18252 1 20.9532 149.633 59.432
18237 1 19.1431 149.634 61.9881
23933 2 10.9714 135.159 65.77
23934 2 12.7807 135.173 63.2163
17959 1 11.8751 133.559 64.4858
23553 2 13.6991 133.551 65.7597
18294 1 14.6036 135.166 64.4961
23899 2 16.4276 135.159 65.77
17906 1 17.3314 133.559 64.4858
23567 2 15.5084 133.566 63.2061
18255 1 20.0598 135.166 64.4961
23912 2 18.2369 135.173 63.2163
23517 2 19.1554 133.551 65.7597
23519 2 20.9647 133.566 63.2061
18284 1 11.8758 136.774 64.5053
23900 2 13.6999 136.768 65.7792
23922 2 10.9721 138.376 65.7874
23935 2 12.7813 138.387 63.2336
18256 1 17.3321 136.774 64.5053
18282 1 14.6043 138.382 64.5135
23901 2 16.4283 138.376 65.7874
23904 2 15.5091 136.78 63.2255
18257 1 20.0605 138.382 64.5135
23859 2 19.1561 136.768 65.7792
23862 2 20.9654 136.78 63.2255
23902 2 18.2375 138.387 63.2336
18283 1 11.8764 139.989 64.5207
23888 2 13.7005 139.985 65.7947
23923 2 10.9726 141.593 65.8009
23924 2 12.7818 141.6 63.247
18248 1 17.3327 139.989 64.5207
18285 1 14.6048 141.597 64.5269
23886 2 16.4288 141.593 65.8009
23903 2 15.5097 139.994 63.2408
18246 1 20.061 141.597 64.5269
23858 2 19.1567 139.985 65.7947
23861 2 20.9659 139.994 63.2408
23905 2 18.2381 141.6 63.247
18273 1 11.8769 143.204 64.5321
23887 2 13.7009 143.201 65.8062
23918 2 10.973 144.81 65.8105
23925 2 12.7822 144.814 63.2565
18247 1 17.3331 143.204 64.5321
18271 1 14.6052 144.812 64.5364
23889 2 16.4292 144.81 65.8105
23892 2 15.5102 143.207 63.2522
18249 1 20.0614 144.812 64.5364
23851 2 19.1572 143.201 65.8062
23860 2 20.9664 143.207 63.2522
23890 2 18.2385 144.814 63.2565
18272 1 11.8772 146.419 64.5398
23877 2 13.7013 146.418 65.8139
23919 2 10.9733 148.026 65.8163
23920 2 12.7825 148.027 63.2622
18236 1 17.3334 146.419 64.5398
18274 1 14.6054 148.027 64.5421
23875 2 16.4295 148.026 65.8163
23891 2 15.5105 146.421 63.2598
18234 1 20.0617 148.027 64.5421
23850 2 19.1575 146.418 65.8139
23853 2 20.9667 146.421 63.2598
23893 2 18.2387 148.027 63.2622
18266 1 11.8774 149.635 64.5436
23876 2 13.7014 149.635 65.8177
18235 1 17.3336 149.635 64.5436
23878 2 15.5106 149.634 63.2637
23837 2 19.1577 149.635 65.8177
23852 2 20.9669 149.634 63.2637
18280 1 12.7944 135.153 67.0516
23551 2 11.8902 133.535 68.3112
23898 2 14.6188 135.145 68.3216
17904 1 15.5221 133.543 67.0413
23500 2 17.3465 133.535 68.3112
18254 1 18.2506 135.153 67.0516
23855 2 20.075 135.145 68.3216
17865 1 20.9783 133.543 67.0413
18281 1 12.795 138.371 67.0692
23884 2 11.891 136.755 68.3309
18244 1 15.5228 136.762 67.0609
23856 2 17.3472 136.755 68.3309
23882 2 14.6195 138.365 68.3392
18207 1 20.9791 136.762 67.0609
18242 1 18.2513 138.371 67.0692
23857 2 20.0757 138.365 68.3392
18269 1 12.7956 141.59 67.0827
23883 2 11.8917 139.975 68.3465
18243 1 15.5235 139.981 67.0764
23848 2 17.3479 139.975 68.3465
23885 2 14.62 141.585 68.3528
18206 1 20.9797 139.981 67.0764
18245 1 18.2518 141.59 67.0827
23846 2 20.0763 141.585 68.3528
18270 1 12.796 144.808 67.0923
23873 2 11.8922 143.195 68.3581
18232 1 15.5239 143.199 67.088
23847 2 17.3484 143.195 68.3581
23871 2 14.6205 144.805 68.3624
18205 1 20.9802 143.199 67.088
18230 1 18.2523 144.808 67.0923
23849 2 20.0767 144.805 68.3624
18265 1 12.7963 148.027 67.098
23872 2 11.8925 146.415 68.3658
18231 1 15.5243 146.417 67.0956
23836 2 17.3487 146.415 68.3658
23874 2 14.6207 148.025 68.3682
18198 1 20.9805 146.417 67.0956
18233 1 18.2525 148.027 67.098
23834 2 20.077 148.025 68.3682
23866 2 11.8927 149.635 68.3696
18219 1 15.5245 149.636 67.0995
23835 2 17.3489 149.635 68.3696
18197 1 20.9807 149.636 67.0995
18279 1 10.9847 135.138 69.6109
23880 2 12.8099 135.131 70.8682
17890 1 11.8979 133.511 72.1763
17892 1 13.7124 133.527 69.6005
18238 1 14.6265 135.124 72.1867
18239 1 16.4409 135.138 69.6109
17854 1 17.3542 133.511 72.1763
23498 2 15.5376 133.519 70.8577
18200 1 20.0828 135.124 72.1867
23854 2 18.2662 135.131 70.8682
17863 1 19.1686 133.527 69.6005
23468 2 20.9938 133.519 70.8577
18224 1 11.8989 136.736 72.1961
18240 1 13.7132 136.749 69.6202
18267 1 10.9854 138.36 69.6286
23881 2 12.8107 138.354 70.8859
18201 1 17.3551 136.736 72.1961
18222 1 14.6274 138.349 72.2045
18241 1 16.4417 138.36 69.6286
23844 2 15.5384 136.742 70.8775
18202 1 20.0836 138.349 72.2045
18204 1 19.1694 136.749 69.6202
23812 2 20.9947 136.742 70.8775
23842 2 18.2669 138.354 70.8859
18223 1 11.8996 139.962 72.2119
18228 1 13.7139 139.971 69.6359
18268 1 10.986 141.582 69.6422
23869 2 12.8113 141.577 70.8996
18193 1 17.3559 139.962 72.2119
18225 1 14.6281 141.574 72.2182
18226 1 16.4423 141.582 69.6422
23843 2 15.5391 139.966 70.8932
18191 1 20.0843 141.574 72.2182
18203 1 19.1701 139.971 69.6359
23811 2 20.9954 139.966 70.8932
23845 2 18.2675 141.577 70.8996
18214 1 11.9002 143.187 72.2236
18227 1 13.7144 143.193 69.6475
18263 1 10.9865 144.804 69.6519
23870 2 12.8118 144.801 70.9093
18192 1 17.3565 143.187 72.2236
18212 1 14.6286 144.799 72.2279
18229 1 16.4427 144.804 69.6519
23832 2 15.5397 143.189 70.9049
18194 1 20.0848 144.799 72.2279
18196 1 19.1706 143.193 69.6475
23810 2 20.9959 143.189 70.9049
23830 2 18.268 144.801 70.9093
18213 1 11.9006 146.412 72.2313
18218 1 13.7148 146.415 69.6552
18264 1 10.9867 148.026 69.6576
23865 2 12.812 148.024 70.9151
18185 1 17.3569 146.412 72.2313
18215 1 14.6289 148.025 72.2338
18216 1 16.443 148.026 69.6576
23831 2 15.54 146.412 70.9126
18183 1 20.0851 148.025 72.2338
18195 1 19.171 146.415 69.6552
23804 2 20.9963 146.412 70.9126
23833 2 18.2683 148.024 70.9151
18209 1 11.9009 149.637 72.2352
18217 1 13.7149 149.636 69.6591
18184 1 17.3571 149.637 72.2352
23821 2 15.5402 149.635 70.9165
18186 1 19.1712 149.636 69.6591
23803 2 20.9965 149.635 70.9165
18220 1 12.7532 135.109 74.8379
23879 2 10.9994 135.116 73.4001
23486 2 11.8891 133.487 75.864
23488 2 13.727 133.502 73.3896
23838 2 14.6178 135.102 75.8745
23839 2 16.4556 135.116 73.4001
17852 1 15.4807 133.494 74.8274
23461 2 17.3453 133.487 75.864
18199 1 18.2095 135.109 74.8379
23805 2 20.0741 135.102 75.8745
17845 1 20.937 133.494 74.8274
23466 2 19.1832 133.502 73.3896
18221 1 12.7544 138.338 74.8558
23824 2 11.8902 136.717 75.8839
23840 2 13.728 136.729 73.4095
23867 2 11.0002 138.343 73.4179
18189 1 15.4819 136.724 74.8474
23806 2 17.3465 136.717 75.8839
23822 2 14.6189 138.332 75.8924
23841 2 16.4565 138.343 73.4179
18177 1 20.9382 136.724 74.8474
18187 1 18.2106 138.338 74.8558
23807 2 20.0751 138.332 75.8924
23809 2 19.1842 136.729 73.4095
18210 1 12.7553 141.567 74.8695
23823 2 11.8912 139.947 75.8998
23828 2 13.7287 139.956 73.4253
23868 2 11.0009 141.569 73.4317
18188 1 15.483 139.953 74.8631
23799 2 17.3474 139.947 75.8998
23825 2 14.6197 141.562 75.9062
23826 2 16.4572 141.569 73.4317
18176 1 20.9392 139.953 74.8631
18190 1 18.2115 141.567 74.8695
23797 2 20.0759 141.562 75.9062
23808 2 19.185 139.956 73.4253
18211 1 12.7559 144.797 74.8793
23816 2 11.8919 143.177 75.9116
23827 2 13.7293 143.182 73.437
23863 2 11.0014 144.796 73.4414
18181 1 15.4837 143.182 74.8749
23798 2 17.3481 143.177 75.9116
23814 2 14.6203 144.792 75.916
23829 2 16.4577 144.796 73.4414
18175 1 20.94 143.182 74.8749
18179 1 18.2121 144.797 74.8793
23800 2 20.0765 144.792 75.916
23802 2 19.1856 143.182 73.437
18208 1 12.7563 148.026 74.8851
23815 2 11.8924 146.407 75.9194
23820 2 13.7297 146.409 73.4448
23864 2 11.0017 148.022 73.4473
18180 1 15.4843 146.412 74.8827
23795 2 17.3486 146.407 75.9194
23817 2 14.6206 148.022 75.9219
23818 2 16.458 148.022 73.4473
18174 1 20.9405 146.412 74.8827
18182 1 18.2125 148.026 74.8851
23793 2 20.0769 148.022 75.9219
23801 2 19.186 146.409 73.4448
23813 2 11.8926 149.637 75.9233
23819 2 13.7299 149.635 73.4487
18178 1 15.4845 149.641 74.8866
23794 2 17.3489 149.637 75.9233
18173 1 20.9408 149.641 74.8866
23796 2 19.1862 149.635 73.4487
