ITEM: TIMESTEP
0
ITEM: NUMBER OF ATOMS
23952
ITEM: BOX BOUNDS pp pp ss
0.0000000000000000e+00 2.1824953608198122e+01
0.0000000000000000e+00 1.5120771408893131e+02
-4.0801162962028874e+00 7.5931819214235091e+01
ITEM: ATOMS id type x y z
6321 2 0.896713 1.50773 -0.859994
6329 2 2.70766 1.50351 -3.36767
192 1 1.78364 3.06907 -2.30538
6319 2 3.62493 3.0749 -0.86157
178 1 4.51165 1.50261 -2.30381
6291 2 6.35295 1.50773 -0.859994
6330 2 5.43589 3.06912 -3.36924
176 1 7.23988 3.06907 -2.30538
132 1 9.96789 1.50261 -2.30381
6294 2 8.1639 1.50351 -3.36767
6292 2 9.08117 3.0749 -0.86157
9598 2 10.8921 3.06912 -3.36924
6320 2 0.896977 4.64206 -0.864196
6325 2 2.70794 4.63473 -3.37185
188 1 1.78408 6.20201 -2.31165
6322 2 3.62533 6.20923 -0.867873
177 1 4.51194 4.63554 -2.30799
6285 2 6.35322 4.64206 -0.864196
6323 2 5.4363 6.20035 -3.37551
179 1 7.24032 6.20201 -2.31165
131 1 9.96818 4.63554 -2.30799
6293 2 8.16418 4.63473 -3.37185
6283 2 9.08157 6.20923 -0.867873
9599 2 10.8925 6.20035 -3.37551
6310 2 0.897505 7.77641 -0.8726
6324 2 2.70849 7.76598 -3.38022
189 1 1.78481 9.33503 -2.3221
6308 2 3.62599 9.34361 -0.878376
170 1 4.51253 7.76851 -2.31636
6284 2 6.35374 7.77641 -0.8726
6326 2 5.43698 9.33164 -3.38597
168 1 7.24105 9.33503 -2.3221
130 1 9.96877 7.76851 -2.31636
6288 2 8.16473 7.76598 -3.38022
6286 2 9.08222 9.34361 -0.878376
9596 2 10.8932 9.33164 -3.38597
6309 2 0.898294 10.9108 -0.885202
6314 2 2.70931 10.8973 -3.39276
184 1 1.78585 12.4682 -2.33672
6311 2 3.6269 12.4781 -0.893077
169 1 4.51341 10.9016 -2.32889
6271 2 6.35453 10.9108 -0.885202
6312 2 5.43794 12.4631 -3.40059
171 1 7.24208 12.4682 -2.33672
123 1 9.96965 10.9016 -2.32889
6287 2 8.16555 10.8973 -3.39276
6269 2 9.08314 12.4781 -0.893077
9597 2 10.8942 12.4631 -3.40059
6302 2 0.899339 14.0454 -0.902
6313 2 2.71041 14.0289 -3.40947
185 1 1.78723 15.6016 -2.35548
6300 2 3.62807 15.6128 -0.911974
156 1 4.5146 14.0349 -2.34559
6270 2 6.35558 14.0454 -0.902
6315 2 5.43919 15.5947 -3.41938
154 1 7.24347 15.6016 -2.35548
122 1 9.97084 14.0349 -2.34559
6274 2 8.16665 14.0289 -3.40947
6272 2 9.08431 15.6128 -0.911974
9595 2 10.8954 15.5947 -3.41938
6301 2 0.90062 17.1802 -0.92301
6303 2 2.71183 17.1606 -3.43033
575 1 1.78927 18.7355 -2.37854
6735 2 3.62945 18.7478 -0.935108
155 1 4.51627 17.1685 -2.36644
6253 2 6.35686 17.1802 -0.92301
6736 2 5.44079 18.7266 -3.44232
564 1 7.24551 18.7355 -2.37854
107 1 9.97251 17.1685 -2.36644
6273 2 8.16807 17.1606 -3.43033
6698 2 9.08569 18.7478 -0.935108
10008 2 10.897 18.7266 -3.44232
174 1 2.71156 1.50814 0.363042
6318 2 1.804 3.08056 1.69364
6281 2 4.53202 1.51173 1.69522
175 1 5.43978 3.07616 0.361465
6279 2 7.26024 3.08056 1.69364
129 1 8.1678 1.50814 0.363042
6228 2 9.98826 1.51173 1.69522
3258 1 10.896 3.07616 0.361465
166 1 2.71184 4.64417 0.358837
6306 2 1.80441 6.2182 1.68731
6280 2 4.53229 4.64938 1.691
164 1 5.4402 6.21219 0.355159
6282 2 7.26065 6.2182 1.68731
128 1 8.16808 4.64417 0.358837
6227 2 9.98853 4.64938 1.691
3259 1 10.8964 6.21219 0.355159
165 1 2.71239 7.78022 0.350429
6307 2 1.80509 9.35586 1.67677
6267 2 4.53284 7.78703 1.68257
167 1 5.44088 9.34826 0.344648
6265 2 7.26133 9.35586 1.67677
121 1 8.16862 7.78022 0.350429
6226 2 9.98907 7.78703 1.68257
3254 1 10.8971 9.34826 0.344648
152 1 2.71321 10.9163 0.337817
6298 2 1.80605 12.4936 1.66201
6266 2 4.53366 10.9247 1.66992
150 1 5.44184 12.4844 0.329937
6268 2 7.26229 12.4936 1.66201
120 1 8.16945 10.9163 0.337817
6219 2 9.98989 10.9247 1.66992
3255 1 10.8981 12.4844 0.329937
151 1 2.71431 14.0526 0.321006
6299 2 1.80727 15.6315 1.64301
6252 2 4.53475 14.0625 1.65304
153 1 5.44308 15.6208 0.311018
6250 2 7.26351 15.6315 1.64301
106 1 8.17054 14.0526 0.321006
6218 2 9.99098 14.0625 1.65304
3253 1 10.8993 15.6208 0.311018
141 1 2.71568 17.1892 0.29996
6725 2 1.80875 18.7696 1.61976
6251 2 4.5361 17.2005 1.63192
557 1 5.4446 18.7576 0.28783
6697 2 7.26498 18.7696 1.61976
105 1 8.17192 17.1892 0.29996
6203 2 9.99233 17.2005 1.63192
3646 1 10.9008 18.7576 0.28783
162 1 0.892815 1.51311 2.96193
160 1 3.62104 3.08278 2.96035
6277 2 2.71119 1.51671 4.263
159 1 1.80074 3.09074 5.54279
126 1 6.34905 1.51311 2.96193
114 1 4.52875 1.51944 5.54437
6278 2 5.43941 3.08718 4.26142
112 1 7.25698 3.09074 5.54279
127 1 9.07728 3.08278 2.96035
60 1 9.98499 1.51944 5.54437
6225 2 8.16743 1.51671 4.263
9568 2 10.8957 3.08718 4.26142
161 1 0.893094 4.65244 2.95771
163 1 3.62146 6.2221 2.95402
6263 2 2.71147 4.65765 4.25878
144 1 1.80117 6.2333 5.53647
118 1 6.34933 4.65244 2.95771
113 1 4.52904 4.66203 5.54016
6261 2 5.43983 6.2281 4.25509
115 1 7.25741 6.2333 5.53647
116 1 9.0777 6.2221 2.95402
59 1 9.98528 4.66203 5.54016
6224 2 8.16771 4.65765 4.25878
9569 2 10.8961 6.2281 4.25509
148 1 0.893654 7.79176 2.94927
146 1 3.62216 9.36143 2.94347
6262 2 2.71203 7.79856 4.25034
145 1 1.80188 9.37584 5.52591
117 1 6.34989 7.79176 2.94927
99 1 4.52961 7.80457 5.53172
6264 2 5.44053 9.36901 4.24453
97 1 7.25812 9.37584 5.52591
119 1 9.0784 9.36143 2.94347
58 1 9.98585 7.80457 5.53172
6217 2 8.16827 7.79856 4.25034
9560 2 10.8968 9.36901 4.24453
147 1 0.894497 10.9311 2.93661
149 1 3.62314 12.5008 2.92869
6248 2 2.71287 10.9395 4.23766
136 1 1.80289 12.5184 5.51111
103 1 6.35073 10.9311 2.93661
98 1 4.53047 10.9471 5.51904
6246 2 5.44152 12.5099 4.22974
100 1 7.25913 12.5184 5.51111
101 1 9.07938 12.5008 2.92869
51 1 9.98671 10.9471 5.51904
6216 2 8.16911 10.9395 4.23766
9561 2 10.8978 12.5099 4.22974
140 1 0.895623 14.0706 2.9197
138 1 3.62441 15.6404 2.90965
6247 2 2.714 14.0804 4.22074
137 1 1.80419 15.661 5.49204
102 1 6.35186 14.0706 2.9197
84 1 4.53162 14.0897 5.50211
6249 2 5.44279 15.651 4.21069
82 1 7.26043 15.661 5.49204
9559 2 10.899 15.651 4.21069
6202 2 8.17024 14.0804 4.22074
50 1 9.98786 14.0897 5.50211
104 1 9.08065 15.6404 2.90965
542 1 1.80579 18.8036 5.4687
556 1 3.62595 18.7801 2.88635
6237 2 2.71541 17.2215 4.19957
139 1 0.897029 17.2102 2.89853
508 1 7.26203 18.8036 5.4687
6684 2 5.44434 18.7921 4.18738
83 1 4.53307 17.2323 5.4809
85 1 6.35327 17.2102 2.89853
9988 2 10.9006 18.7921 4.18738
509 1 9.08219 18.7801 2.88635
6201 2 8.17165 17.2215 4.19957
36 1 9.98931 17.2323 5.4809
110 1 2.70846 1.52558 8.12093
6259 2 0.890681 1.52262 6.83482
6257 2 3.61891 3.09472 6.83325
6222 2 6.34692 1.52262 6.83482
111 1 5.43669 3.09849 8.11936
57 1 8.16469 1.52558 8.12093
6223 2 9.07515 3.09472 6.83325
3214 1 10.8929 3.09849 8.11936
95 1 2.70875 4.67138 8.11674
6258 2 0.890967 4.6668 6.83062
6260 2 3.61934 6.23886 6.82694
6214 2 6.34721 4.6668 6.83062
93 1 5.43711 6.24425 8.11307
56 1 8.16498 4.67138 8.11674
6212 2 9.07557 6.23886 6.82694
3215 1 10.8934 6.24425 8.11307
94 1 2.70932 7.81711 8.10834
6244 2 0.891535 7.81092 6.8222
6242 2 3.62005 9.38296 6.81641
6213 2 6.34777 7.81092 6.8222
96 1 5.43783 9.38995 8.10255
49 1 8.16555 7.81711 8.10834
6215 2 9.07628 9.38296 6.81641
3206 1 10.8941 9.38995 8.10255
80 1 2.71017 10.9628 8.0957
6243 2 0.892389 10.955 6.80955
6245 2 3.62105 12.527 6.80163
6199 2 6.34863 10.955 6.80955
78 1 5.43883 12.5356 8.08779
48 1 8.16641 10.9628 8.0957
6197 2 9.07728 12.527 6.80163
3207 1 10.8951 12.5356 8.08779
79 1 2.71133 14.1084 8.07882
6236 2 0.893536 14.099 6.79265
6234 2 3.62234 15.6711 6.78261
6198 2 6.34977 14.099 6.79265
81 1 5.44014 15.6811 8.06878
35 1 8.16757 14.1084 8.07882
6200 2 9.07858 15.6711 6.78261
3205 1 10.8964 15.6811 8.06878
69 1 2.71279 17.2539 8.05767
6235 2 0.894978 17.2431 6.7715
6683 2 3.62393 18.8151 6.75934
6184 2 6.35122 17.2431 6.7715
493 1 5.44175 18.8266 8.0455
34 1 8.16902 17.2539 8.05767
3613 1 10.898 18.8266 8.0455
6629 2 9.08017 18.8151 6.75934
91 1 0.888426 1.53171 10.695
6206 2 2.70686 1.53475 11.9801
6256 2 1.79872 3.10234 9.40601
89 1 3.61665 3.10621 10.6935
6210 2 4.52673 1.52864 9.40757
54 1 6.34466 1.53171 10.695
6208 2 7.25496 3.10234 9.40601
6207 2 5.43508 3.11003 11.9786
6168 2 9.98297 1.52864 9.40757
6165 2 8.1631 1.53475 11.9801
55 1 9.07289 3.10621 10.6935
9502 2 10.8913 3.11003 11.9786
90 1 0.888707 4.68068 10.6909
6191 2 2.70713 4.68527 11.976
6240 2 1.79914 6.24966 9.39974
92 1 3.61707 6.25513 10.6872
6209 2 4.52701 4.67601 9.4034
46 1 6.34495 4.68068 10.6909
6211 2 7.25538 6.24966 9.39974
6189 2 5.43548 6.26049 11.9724
6167 2 9.98325 4.67601 9.4034
6164 2 8.16337 4.68527 11.976
44 1 9.07331 6.25513 10.6872
9503 2 10.8917 6.26049 11.9724
6241 2 1.79984 9.3969 9.38927
76 1 0.889257 7.82955 10.6825
6190 2 2.70766 7.83567 11.9677
74 1 3.61775 9.40393 10.6768
6195 2 4.52757 7.82329 9.39503
6193 2 7.25607 9.3969 9.38927
45 1 6.3455 7.82955 10.6825
6192 2 5.43614 9.41082 11.962
6166 2 9.98381 7.82329 9.39503
6158 2 8.1639 7.83567 11.9677
47 1 9.07399 9.40393 10.6768
9494 2 10.8924 9.41082 11.962
6232 2 1.80082 12.544 9.37458
75 1 0.890084 10.9783 10.67
6179 2 2.70845 10.9859 11.9553
77 1 3.61872 12.5526 10.6621
6194 2 4.52841 10.9705 9.38245
6196 2 7.25706 12.544 9.37458
32 1 6.34632 10.9783 10.67
6177 2 5.43707 12.561 11.9475
6160 2 9.98465 10.9705 9.38245
6157 2 8.16469 10.9859 11.9553
30 1 9.07496 12.5526 10.6621
9495 2 10.8933 12.561 11.9475
6233 2 1.80209 15.691 9.35566
68 1 0.891201 14.1269 10.6532
6178 2 2.70952 14.136 11.9386
66 1 3.61999 15.7011 10.6432
6183 2 4.52954 14.1175 9.36565
6181 2 7.25833 15.691 9.35566
31 1 6.34744 14.1269 10.6532
6180 2 5.43828 15.7109 11.9287
6159 2 9.98578 14.1175 9.36565
6151 2 8.16576 14.136 11.9386
33 1 9.07623 15.7011 10.6432
9493 2 10.8945 15.7109 11.9287
67 1 0.892618 17.2753 10.6322
6172 2 2.71088 17.2858 11.9178
6663 2 1.80368 18.8379 9.33251
492 1 3.62156 18.8494 10.6202
6182 2 4.53096 17.2645 9.34461
21 1 6.34886 17.2753 10.6322
6628 2 7.25991 18.8379 9.33251
6613 2 5.43979 18.8606 11.9058
6152 2 9.9872 17.2645 9.34461
6150 2 8.16712 17.2858 11.9178
437 1 9.0778 18.8494 10.6202
9926 2 10.896 18.8606 11.9058
38 1 2.70555 1.54412 15.8395
6187 2 0.887308 1.54094 14.5521
88 1 1.79693 3.11395 13.2662
6185 2 3.61552 3.11777 14.5506
42 1 4.52494 1.53789 13.2677
6162 2 6.34355 1.54094 14.5521
39 1 5.43375 3.12174 15.838
40 1 7.25316 3.11395 13.2662
9 1 8.16178 1.54412 15.8395
12 1 9.98118 1.53789 13.2677
6163 2 9.07176 3.11777 14.5506
3142 1 10.89 3.12174 15.838
24 1 2.70578 4.69933 15.8355
6186 2 0.887554 4.69458 14.5481
72 1 1.79731 6.26599 13.2601
6188 2 3.61588 6.27134 14.5445
41 1 4.52521 4.68999 13.2637
6155 2 6.34379 4.69458 14.5481
22 1 5.43409 6.27687 15.832
43 1 7.25355 6.26599 13.2601
8 1 8.16202 4.69933 15.8355
11 1 9.98144 4.68999 13.2637
6153 2 9.07212 6.27134 14.5445
3143 1 10.8903 6.27687 15.832
23 1 2.70623 7.85437 15.8274
6175 2 0.88803 7.84806 14.5399
6173 2 3.61648 9.42474 14.5343
73 1 1.79795 9.41788 13.2497
28 1 4.52571 7.84196 13.2554
6154 2 6.34427 7.84806 14.5399
26 1 7.25418 9.41788 13.2497
25 1 5.43465 9.43182 15.8218
5 1 8.16246 7.85437 15.8274
10 1 9.98195 7.84196 13.2554
6156 2 9.07272 9.42474 14.5343
3134 1 10.8909 9.43182 15.8218
6174 2 0.888747 11.0014 14.5276
16 1 2.7069 11.0092 15.8152
6176 2 3.61732 12.5779 14.5199
64 1 1.79885 12.5696 13.2353
6148 2 6.34499 11.0014 14.5276
27 1 4.52648 10.9937 13.243
29 1 7.25508 12.5696 13.2353
14 1 5.43545 12.5865 15.8076
3135 1 10.8917 12.5865 15.8076
6146 2 9.07356 12.5779 14.5199
7 1 9.98272 10.9937 13.243
4 1 8.16314 11.0092 15.8152
65 1 1.80002 15.721 13.2166
6169 2 3.61842 15.7308 14.5014
6171 2 0.889719 14.1544 14.5112
15 1 2.70782 14.1637 15.7989
18 1 7.25626 15.721 13.2166
17 1 5.4365 15.7408 15.7892
6147 2 6.34596 14.1544 14.5112
20 1 4.52752 14.1453 13.2264
6149 2 9.07466 15.7308 14.5014
3133 1 10.8927 15.7408 15.7892
2 1 8.16406 14.1637 15.7989
6 1 9.98376 14.1453 13.2264
13 1 2.709 17.3179 15.7785
6170 2 0.890963 17.3071 14.4906
6612 2 3.61981 18.8833 14.4788
471 1 1.8015 18.8721 13.1938
6145 2 6.3472 17.3071 14.4906
19 1 4.52884 17.2966 13.2057
421 1 5.43782 18.8947 15.7667
436 1 7.25774 18.8721 13.1938
1 1 8.16524 17.3179 15.7785
3 1 9.98508 17.2966 13.2057
3542 1 10.8941 18.8947 15.7667
6569 2 9.07605 18.8833 14.4788
382 1 0.886482 1.55043 18.4105
6528 2 1.79628 3.12558 17.122
380 1 3.61468 3.12958 18.4091
6514 2 4.52432 1.5472 17.1235
359 1 6.34272 1.55043 18.4105
6512 2 7.25252 3.12558 17.122
6468 2 9.98056 1.5472 17.1235
360 1 9.07091 3.12958 18.4091
381 1 0.886675 4.70871 18.4066
6524 2 1.79659 6.28223 17.116
383 1 3.61496 6.28779 18.4031
6513 2 4.52453 4.70393 17.1195
355 1 6.34291 4.70871 18.4066
6515 2 7.25283 6.28223 17.116
6467 2 9.98077 4.70393 17.1195
353 1 9.0712 6.28779 18.4031
375 1 0.887047 7.86682 18.3986
6525 2 1.79711 9.43868 17.1059
373 1 3.61542 9.44578 18.3931
6506 2 4.52494 7.86048 17.1115
354 1 6.34329 7.86682 18.3986
6504 2 7.25334 9.43868 17.1059
6466 2 9.98118 7.86048 17.1115
356 1 9.07166 9.44578 18.3931
374 1 0.887609 11.0247 18.3866
6520 2 1.79783 12.5948 17.0918
6505 2 4.52556 11.0168 17.0994
343 1 6.34385 11.0247 18.3866
6507 2 7.25407 12.5948 17.0918
6459 2 9.9818 11.0168 17.0994
368 1 0.888375 14.1822 18.3706
376 1 3.61608 12.6035 18.3791
6521 2 1.79879 15.7506 17.0736
342 1 6.34461 14.1822 18.3706
6492 2 4.5264 14.1728 17.0832
6490 2 7.25502 15.7506 17.0736
341 1 9.07232 12.6035 18.3791
6458 2 9.98264 14.1728 17.0832
367 1 0.889367 17.3392 18.3506
366 1 3.61696 15.7608 18.3611
325 1 6.34561 17.3392 18.3506
6491 2 4.52748 17.3284 17.063
344 1 9.0732 15.7608 18.3611
6443 2 9.98372 17.3284 17.063
6510 2 2.70544 1.55354 19.6941
6498 2 0.886927 1.55994 22.2639
379 1 1.79595 3.13749 20.9793
6496 2 3.61509 3.14138 22.2625
351 1 4.52401 1.5568 20.9808
6462 2 6.34317 1.55994 22.2639
6511 2 5.43363 3.13345 19.6926
349 1 7.25219 3.13749 20.9793
6465 2 8.16168 1.55354 19.6941
300 1 9.98025 1.5568 20.9808
9786 2 10.8899 3.13345 19.6926
6463 2 9.07133 3.14138 22.2625
6502 2 2.70561 4.71333 19.6902
6497 2 0.887051 4.72279 22.2601
371 1 1.79616 6.29875 20.9735
350 1 4.52416 4.71814 20.9769
6454 2 6.34329 4.72279 22.2601
6500 2 5.43387 6.29317 19.6867
352 1 7.2524 6.29875 20.9735
6464 2 8.16185 4.71333 19.6902
299 1 9.9804 4.71814 20.9769
9787 2 10.8901 6.29317 19.6867
6501 2 2.70594 7.87294 19.6823
6484 2 0.887286 7.88546 22.2524
6499 2 3.61527 6.30415 22.2568
339 1 4.52444 7.8793 20.9691
6453 2 6.34352 7.88546 22.2524
6457 2 8.16218 7.87294 19.6823
298 1 9.98068 7.8793 20.9691
6452 2 9.07151 6.30415 22.2568
6488 2 2.70643 11.0323 19.6704
372 1 1.79652 9.45979 20.9637
6483 2 0.887642 11.0478 22.2408
6482 2 3.61557 9.46669 22.2471
6503 2 5.43428 9.45266 19.6769
338 1 4.52487 11.0402 20.9574
6439 2 6.34388 11.0478 22.2408
337 1 7.25276 9.45979 20.9637
6456 2 8.16267 11.0323 19.6704
291 1 9.98111 11.0402 20.9574
6455 2 9.07181 9.46669 22.2471
9782 2 10.8905 9.45266 19.6769
6487 2 2.70711 14.1913 19.6546
364 1 1.79702 12.6205 20.95
6476 2 0.888132 14.2098 22.2253
6485 2 3.61599 12.6289 22.2335
6486 2 5.43487 12.6118 19.663
324 1 4.52546 14.2007 20.9417
6438 2 6.34437 14.2098 22.2253
340 1 7.25326 12.6205 20.95
6442 2 8.16335 14.1913 19.6546
290 1 9.9817 14.2007 20.9417
6437 2 9.07223 12.6289 22.2335
9783 2 10.8911 12.6118 19.663
6477 2 2.70799 17.3498 19.6348
365 1 1.7977 15.7808 20.9324
6475 2 0.888776 17.3713 22.2059
6474 2 3.61655 15.7907 22.2161
6489 2 5.43564 15.7706 19.6452
323 1 4.52622 17.3607 20.9221
6421 2 6.34501 17.3713 22.2059
322 1 7.25394 15.7808 20.9324
6441 2 8.16422 17.3498 19.6348
275 1 9.98246 17.3607 20.9221
6440 2 9.07279 15.7907 22.2161
9781 2 10.8919 15.7706 19.6452
347 1 2.70568 1.56323 23.5502
6495 2 1.79695 3.14937 24.8316
6450 2 4.52504 1.56641 24.833
348 1 5.43384 3.14545 23.5488
6448 2 7.25319 3.14937 24.8316
297 1 8.16192 1.56323 23.5502
6396 2 9.98128 1.56641 24.833
3441 1 10.8901 3.14545 23.5488
335 1 2.70578 4.72763 23.5465
6449 2 4.52512 4.73231 24.8293
296 1 8.16202 4.72763 23.5465
6395 2 9.98136 4.73231 24.8293
334 1 2.70596 7.89184 23.5388
6480 2 1.79706 6.3152 24.826
333 1 5.43398 6.30977 23.5431
6435 2 4.52526 7.89803 24.8218
6451 2 7.2533 6.3152 24.826
289 1 8.1622 7.89184 23.5388
6394 2 9.98149 7.89803 24.8218
3442 1 10.8902 6.30977 23.5431
320 1 2.70625 11.0558 23.5273
6481 2 1.79723 9.48079 24.8166
336 1 5.43421 9.47385 23.5336
6434 2 4.52547 11.0635 24.8104
6433 2 7.25347 9.48079 24.8166
288 1 8.16248 11.0558 23.5273
6387 2 9.9817 11.0635 24.8104
3434 1 10.8904 9.47385 23.5336
319 1 2.70664 14.2193 23.512
6472 2 1.79748 12.6461 24.8033
6436 2 7.25372 12.6461 24.8033
6420 2 4.52576 14.2285 24.7952
318 1 5.43455 12.6376 23.5201
3435 1 10.8908 12.6376 23.5201
6386 2 9.982 14.2285 24.7952
274 1 8.16288 14.2193 23.512
6473 2 1.79782 15.8109 24.7862
309 1 2.70716 17.3823 23.4928
6418 2 7.25406 15.8109 24.7862
6419 2 4.52615 17.393 24.7763
321 1 5.435 15.8009 23.5029
3433 1 10.8912 15.8009 23.5029
6372 2 9.98239 17.393 24.7763
273 1 8.16339 17.3823 23.4928
331 1 0.887756 1.56973 26.1189
6446 2 2.70735 1.57293 27.4013
294 1 6.34399 1.56973 26.1189
282 1 4.52651 1.57628 28.6868
234 1 9.98275 1.57628 28.6868
6393 2 8.16359 1.57293 27.4013
330 1 0.887802 4.73718 26.1152
329 1 3.61589 3.15347 26.1175
328 1 1.79839 3.16155 28.6855
6431 2 2.70737 4.74189 27.3977
286 1 6.34404 4.73718 26.1152
281 1 4.5265 4.74679 28.6832
6447 2 5.43548 3.15743 27.4
280 1 7.25463 3.16155 28.6855
295 1 9.07213 3.15347 26.1175
233 1 9.98274 4.74679 28.6832
6392 2 8.16361 4.74189 27.3977
9742 2 10.8917 3.15743 27.4
316 1 0.887888 7.90445 26.1078
332 1 3.61596 6.32084 26.112
312 1 1.79838 6.33198 28.68
6430 2 2.70741 7.91067 27.3903
285 1 6.34413 7.90445 26.1078
267 1 4.52649 7.91712 28.6759
6429 2 5.43551 6.3263 27.3945
283 1 7.25462 6.33198 28.68
284 1 9.0722 6.32084 26.112
232 1 9.98273 7.91712 28.6759
6385 2 8.16365 7.91067 27.3903
9743 2 10.8917 6.3263 27.3945
315 1 0.88802 11.0714 26.0965
314 1 3.61607 9.48798 26.1026
313 1 1.79837 9.50219 28.6708
6416 2 2.70747 11.0792 27.3792
271 1 6.34426 11.0714 26.0965
266 1 4.52648 11.0872 28.6649
6432 2 5.43556 9.49496 27.3852
265 1 7.2546 9.50219 28.6708
287 1 9.07231 9.48798 26.1026
225 1 9.98272 11.0872 28.6649
6384 2 8.16371 11.0792 27.3792
9734 2 10.8918 9.49496 27.3852
308 1 0.888208 14.238 26.0815
317 1 3.61623 12.6548 26.0895
304 1 1.79835 12.6721 28.658
6415 2 2.70757 14.2473 27.3643
270 1 6.34445 14.238 26.0815
253 1 4.52646 14.2569 28.6502
6414 2 5.43563 12.6633 27.3722
268 1 7.25459 12.6721 28.658
269 1 9.07246 12.6548 26.0895
224 1 9.9827 14.2569 28.6502
6371 2 8.1638 14.2473 27.3643
9735 2 10.8919 12.6633 27.3722
307 1 0.888466 17.4041 26.0628
306 1 3.61645 15.8212 26.0726
305 1 1.79834 15.8416 28.6415
6405 2 2.7077 17.4149 27.3458
254 1 6.3447 17.4041 26.0628
252 1 4.52646 17.4261 28.6319
6417 2 5.43575 15.8312 27.3555
251 1 7.25458 15.8416 28.6415
272 1 9.07268 15.8212 26.0726
213 1 9.9827 17.4261 28.6319
6370 2 8.16394 17.4149 27.3458
9733 2 10.892 15.8312 27.3555
278 1 2.7095 1.58289 31.2539
6427 2 0.890107 1.57951 29.9688
6378 2 4.52959 1.58614 32.5355
6390 2 6.34635 1.57951 29.9688
231 1 8.16573 1.58289 31.2539
6348 2 9.98583 1.58614 32.5355
263 1 2.70944 4.75645 31.2504
6424 2 1.80144 3.17369 32.5342
6426 2 0.89008 4.75152 29.9653
6425 2 3.61822 3.16553 29.9675
279 1 5.4376 3.16968 31.2526
6377 2 4.52952 4.76122 32.532
6382 2 6.34632 4.75152 29.9653
6376 2 7.25768 3.17369 32.5342
230 1 8.16568 4.75645 31.2504
6347 2 9.98576 4.76122 32.532
6391 2 9.07445 3.16553 29.9675
3382 1 10.8938 3.16968 31.2526
262 1 2.70934 7.92986 31.2432
6408 2 1.80134 6.34871 32.5289
6412 2 0.890026 7.92338 29.958
6428 2 3.61818 6.33748 29.9621
261 1 5.43752 6.34318 31.2472
6364 2 4.52938 7.93616 32.5249
6381 2 6.34626 7.92338 29.958
6379 2 7.25758 6.34871 32.5289
223 1 8.16558 7.92986 31.2432
6346 2 9.98562 7.93616 32.5249
6380 2 9.07441 6.33748 29.9621
3383 1 10.8938 6.34318 31.2472
249 1 2.70919 11.103 31.2324
6409 2 1.80116 9.52355 32.52
6411 2 0.889948 11.095 29.9471
6410 2 3.61811 9.50922 29.953
264 1 5.43739 9.51648 31.2382
6363 2 4.52917 11.1109 32.5142
6368 2 6.34619 11.095 29.9471
6362 2 7.2574 9.52355 32.52
222 1 8.16542 11.103 31.2324
6343 2 9.98541 11.1109 32.5142
6383 2 9.07435 9.50922 29.953
3374 1 10.8936 9.51648 31.2382
248 1 2.70899 14.2759 31.2179
6400 2 1.80092 12.6981 32.5075
6404 2 0.889849 14.2662 29.9326
6413 2 3.61802 12.6807 29.9403
247 1 5.43721 12.6895 31.2256
6356 2 4.5289 14.2853 32.4999
6367 2 6.34609 14.2662 29.9326
6365 2 7.25716 12.6981 32.5075
212 1 8.16522 14.2759 31.2179
6342 2 9.98514 14.2853 32.4999
6366 2 9.07426 12.6807 29.9403
3375 1 10.8934 12.6895 31.2256
240 1 2.70874 17.4483 31.2
6401 2 1.80062 15.8724 32.4914
6403 2 0.889737 17.437 29.9144
6402 2 3.61791 15.8517 29.9239
250 1 5.43699 15.8621 31.2094
6355 2 4.52856 17.4593 32.482
6357 2 6.34598 17.437 29.9144
6354 2 7.25685 15.8724 32.4914
211 1 8.16498 17.4483 31.2
6339 2 9.9848 17.4593 32.482
6369 2 9.07415 15.8517 29.9239
3373 1 10.8932 15.8621 31.2094
259 1 0.892983 1.58954 33.8201
6374 2 2.71335 1.5928 35.1013
276 1 3.62112 0.00119712 33.8205
228 1 6.34922 1.58954 33.8201
6373 2 5.44149 0.00369678 35.1017
227 1 9.07736 0.00119712 33.8205
6345 2 8.16959 1.5928 35.1013
9686 2 10.8977 0.00369678 35.1017
258 1 0.892887 4.76617 33.8167
6360 2 2.71324 4.77097 35.0979
257 1 3.62107 3.17787 33.8188
220 1 6.34913 4.76617 33.8167
6375 2 5.44143 3.1819 35.1001
229 1 9.0773 3.17787 33.8188
6344 2 8.16948 4.77097 35.0979
9670 2 10.8977 3.1819 35.1001
260 1 3.62093 6.35444 33.8136
245 1 0.892702 7.94267 33.8096
6359 2 2.71303 7.94902 35.0909
6358 2 5.44127 6.36001 35.0948
219 1 6.34894 7.94267 33.8096
6341 2 8.16926 7.94902 35.0909
218 1 9.07716 6.35444 33.8136
9671 2 10.8975 6.36001 35.0948
243 1 3.6207 9.53085 33.8047
6352 2 2.71271 11.1269 35.0803
244 1 0.892427 11.119 33.7989
6361 2 5.441 9.53798 35.086
209 1 6.34867 11.119 33.7989
6340 2 8.16895 11.1269 35.0803
221 1 9.07693 9.53085 33.8047
9662 2 10.8972 9.53798 35.086
246 1 3.62037 12.707 33.7923
6351 2 2.71228 14.3045 35.0662
239 1 0.89206 14.295 33.7847
208 1 6.3483 14.295 33.7847
6350 2 5.44063 12.7157 35.0737
6338 2 8.16852 14.3045 35.0662
207 1 9.07661 12.707 33.7923
9663 2 10.8969 12.7157 35.0737
238 1 0.891599 17.4706 33.7671
6349 2 2.71175 17.4818 35.0486
237 1 3.61996 15.8829 33.7763
202 1 6.34784 17.4706 33.7671
6353 2 5.44015 15.8932 35.0578
9661 2 10.8964 15.8932 35.0578
210 1 9.0762 15.8829 33.7763
6337 2 8.16799 17.4818 35.0486
6550 2 0.897652 1.59951 37.6663
12857 1 2.7178 1.60295 38.95
255 1 1.80514 0.00634953 36.3858
6552 2 3.62579 0.00885805 37.6666
6539 2 6.35389 1.59951 37.6663
12856 1 5.44595 0.0115259 38.9503
216 1 4.53324 1.59623 36.3855
226 1 7.26138 0.00634953 36.3858
6538 2 9.08203 0.00885805 37.6666
12822 1 8.17404 1.60295 38.95
198 1 9.98948 1.59623 36.3855
15684 1 10.9022 0.0115259 38.9503
6549 2 0.897509 4.78078 37.6629
12853 1 2.71764 4.78578 38.9466
256 1 1.80507 3.1861 36.3842
6548 2 3.62572 3.19015 37.665
6536 2 6.35375 4.78078 37.6629
12858 1 5.44586 3.19437 38.9487
215 1 4.53311 4.77595 36.3821
214 1 7.26131 3.1861 36.3842
6540 2 9.08195 3.19015 37.665
12821 1 8.17388 4.78578 38.9466
197 1 9.98934 4.77595 36.3821
15682 1 10.9021 3.19437 38.9487
6546 2 0.897235 7.96195 37.6559
12852 1 2.71734 7.96853 38.9397
241 1 1.80487 6.36577 36.379
6551 2 3.62551 6.37138 37.6598
6535 2 6.35347 7.96195 37.6559
12851 1 5.44563 6.37717 38.9436
205 1 4.53285 7.95556 36.3751
217 1 7.26111 6.36577 36.379
6534 2 9.08175 6.37138 37.6598
12816 1 8.17358 7.96853 38.9397
196 1 9.98909 7.95556 36.3751
15683 1 10.9019 6.37717 38.9436
6545 2 0.896827 11.143 37.6454
12842 1 2.71688 11.1512 38.9292
242 1 1.80456 9.54531 36.3703
6544 2 3.62517 9.55249 37.6511
6532 2 6.35307 11.143 37.6454
12854 1 5.44525 9.55986 38.9349
204 1 4.53247 11.135 36.3646
203 1 7.2608 9.54531 36.3703
6537 2 9.08141 9.55249 37.6511
12815 1 8.17312 11.1512 38.9292
195 1 9.98871 11.135 36.3646
15680 1 10.9015 9.55986 38.9349
6543 2 0.896279 14.3238 37.6314
12841 1 2.71627 14.3336 38.9153
235 1 1.80412 12.7247 36.358
6547 2 3.62469 12.7334 37.6389
6531 2 6.35252 14.3238 37.6314
12840 1 5.44471 12.7424 38.9227
201 1 4.53197 14.3142 36.3505
206 1 7.26036 12.7247 36.358
6530 2 9.08093 12.7334 37.6389
12802 1 8.17251 14.3336 38.9153
194 1 9.98821 14.3142 36.3505
15681 1 10.901 12.7424 38.9227
6542 2 0.895587 17.5044 37.614
12831 1 2.71549 17.5159 38.898
236 1 1.80355 15.9037 36.3422
6541 2 3.62407 15.9141 37.6232
6529 2 6.35183 17.5044 37.614
12843 1 5.44402 15.9248 38.907
200 1 4.53133 17.4932 36.3331
199 1 7.25978 15.9037 36.3422
6533 2 9.08031 15.9141 37.6232
12801 1 8.17173 17.5159 38.898
193 1 9.98757 17.4932 36.3331
15679 1 10.9003 15.9248 38.907
18479 2 1.81066 0.0140391 40.2306
12849 1 0.902945 1.60971 41.5136
12855 1 3.63109 0.0167185 41.5139
18466 2 4.53876 1.60625 40.2303
12819 1 6.35918 1.60971 41.5136
18468 2 7.2669 0.0140391 40.2306
12818 1 9.08733 0.0167185 41.5139
18420 2 9.99499 1.60625 40.2303
18480 2 1.81057 3.19845 40.2291
12848 1 0.902765 4.79566 41.5102
12847 1 3.63099 3.20269 41.5123
18465 2 4.53859 4.79064 40.2269
12813 1 6.359 4.79566 41.5102
18464 2 7.26681 3.19845 40.2291
12820 1 9.08723 3.20269 41.5123
18419 2 9.99483 4.79064 40.2269
18476 2 1.81033 6.38281 40.2239
12838 1 0.902421 7.98157 41.5033
12850 1 3.63073 6.38863 41.5072
18458 2 4.53827 7.97496 40.22
12812 1 6.35866 7.98157 41.5033
18467 2 7.26657 6.38281 40.2239
12811 1 9.08697 6.38863 41.5072
18418 2 9.99451 7.97496 40.22
18477 2 1.80993 9.56709 40.2152
12837 1 0.90191 11.1674 41.4929
12836 1 3.63031 9.57449 41.4985
18457 2 4.53779 11.1592 40.2096
12799 1 6.35815 11.1674 41.4929
18456 2 7.26617 9.56709 40.2152
12814 1 9.08654 9.57449 41.4985
18411 2 9.99403 11.1592 40.2096
18472 2 1.80938 12.7512 40.203
12830 1 0.901224 14.3531 41.479
12839 1 3.62971 12.7603 41.4864
12798 1 6.35746 14.3531 41.479
18444 2 4.53716 14.3433 40.1957
18459 2 7.26562 12.7512 40.203
12797 1 9.08595 12.7603 41.4864
18410 2 9.9934 14.3433 40.1957
18473 2 1.80866 15.9353 40.1874
12829 1 0.900356 17.5387 41.4617
12828 1 3.62893 15.9459 41.4707
12781 1 6.35659 17.5387 41.4617
18443 2 4.53635 17.5272 40.1783
18442 2 7.26489 15.9353 40.1874
12800 1 9.08517 15.9459 41.4707
18395 2 9.99259 17.5272 40.1783
18462 2 2.7242 1.61301 42.7934
12845 1 1.81682 0.0219201 44.0766
18450 2 0.910241 1.61979 45.3556
18461 2 5.45235 0.0192324 42.7938
18460 2 3.63839 0.024431 45.356
12809 1 4.54491 1.61648 44.0762
18414 2 6.36648 1.61979 45.3556
12817 1 7.27306 0.0219201 44.0766
18417 2 8.18044 1.61301 42.7934
12756 1 10.0012 1.61648 44.0762
18413 2 9.09463 0.024431 45.356
21298 2 10.9086 0.0192324 42.7938
18454 2 2.72402 4.80055 42.7901
12846 1 1.81672 3.21104 44.075
18449 2 0.910049 4.8105 45.3522
18463 2 5.45225 3.20678 42.7922
12808 1 4.54472 4.8056 44.0729
18406 2 6.36629 4.8105 45.3522
18448 2 3.63829 3.21515 45.3544
12807 1 7.27296 3.21104 44.075
18416 2 8.18026 4.80055 42.7901
12755 1 10.001 4.8056 44.0729
18415 2 9.09452 3.21515 45.3544
21294 2 10.9085 3.20678 42.7922
18453 2 2.72367 7.98805 42.7832
12834 1 1.81644 6.40015 44.0699
18436 2 0.909684 8.0012 45.3453
18452 2 5.45198 6.3943 42.7871
12795 1 4.54435 7.99469 44.066
18405 2 6.36592 8.0012 45.3453
18451 2 3.63801 6.40586 45.3492
12810 1 7.27268 6.40015 44.0699
18409 2 8.17991 7.98805 42.7832
12754 1 10.0006 7.99469 44.066
18404 2 9.09425 6.40586 45.3492
21295 2 10.9082 6.3943 42.7871
18440 2 2.72315 11.1755 42.7727
12835 1 1.81599 9.58922 44.0612
18435 2 0.909143 11.1919 45.3348
18455 2 5.45155 9.58177 42.7784
12794 1 4.54381 11.1837 44.0555
18391 2 6.36538 11.1919 45.3348
18434 2 3.63755 9.59655 45.3405
12793 1 7.27222 9.58922 44.0612
18408 2 8.17939 11.1755 42.7727
12747 1 10 11.1837 44.0555
18407 2 9.09379 9.59655 45.3405
21290 2 10.9078 9.58177 42.7784
18439 2 2.72246 14.3628 42.7588
12826 1 1.81535 12.7783 44.049
18428 2 0.908424 14.3825 45.3209
18437 2 3.63693 12.7872 45.3283
18438 2 5.45094 12.7692 42.7662
12780 1 4.54308 14.3727 44.0416
18390 2 6.36466 14.3825 45.3209
12796 1 7.27159 12.7783 44.049
18394 2 8.17869 14.3628 42.7588
12746 1 9.99932 14.3727 44.0416
18389 2 9.09316 12.7872 45.3283
21291 2 10.9072 12.7692 42.7662
18429 2 2.72158 17.5501 42.7414
12827 1 1.81453 15.9672 44.0333
18427 2 0.90752 17.5732 45.3034
18426 2 3.63611 15.9779 45.3126
18441 2 5.45016 15.9565 42.7505
12779 1 4.54217 17.5617 44.0242
18374 2 6.36376 17.5732 45.3034
12778 1 7.27077 15.9672 44.0333
18393 2 8.17782 17.5501 42.7414
12731 1 9.99841 17.5617 44.0242
18392 2 9.09235 15.9779 45.3126
21289 2 10.9064 15.9565 42.7505
12787 1 0.918174 1.63007 49.1987
12805 1 2.73124 1.62327 46.6379
12844 1 0.00315248 0.0271237 46.6383
18446 2 1.82503 0.0296281 47.9172
12750 1 6.37441 1.63007 49.1987
12803 1 3.64632 0.0323231 49.1991
12804 1 5.45939 0.0271237 46.6383
18402 2 4.55312 1.62658 47.9169
12749 1 9.10256 0.0323231 49.1991
12753 1 8.18748 1.62327 46.6379
18354 2 10.0094 1.62658 47.9169
18412 2 7.28127 0.0296281 47.9172
12786 1 0.917978 4.8256 49.1953
12791 1 2.73104 4.81558 46.6346
12832 1 0.00304423 3.21942 46.6367
18447 2 1.82493 3.22354 47.9156
12742 1 6.37422 4.8256 49.1953
12785 1 3.64622 3.22783 49.1974
12806 1 5.45928 3.21942 46.6367
18401 2 4.55293 4.8205 47.9135
12751 1 9.10246 3.22783 49.1974
12752 1 8.18728 4.81558 46.6346
18353 2 10.0092 4.8205 47.9135
18400 2 7.28117 3.22354 47.9156
12772 1 0.917605 8.02114 49.1883
12790 1 2.73067 8.00788 46.6276
12833 1 0.00275824 6.41173 46.6315
18432 2 1.82465 6.41746 47.9104
12741 1 6.37384 8.02114 49.1883
12788 1 3.64593 6.42337 49.1922
12789 1 5.459 6.41173 46.6315
18387 2 4.55256 8.01443 47.9065
12740 1 9.10217 6.42337 49.1922
12745 1 8.18691 8.00788 46.6276
18352 2 10.0088 8.01443 47.9065
18403 2 7.28088 6.41746 47.9104
12771 1 0.917056 11.2167 49.1777
12776 1 2.73011 11.2002 46.6171
12824 1 0.00229391 9.60403 46.6228
18433 2 1.82419 9.6114 47.9017
12727 1 6.37329 11.2167 49.1777
12770 1 3.64547 9.61893 49.1835
12792 1 5.45853 9.60403 46.6228
18386 2 4.55202 11.2084 47.8959
12743 1 9.10171 9.61893 49.1835
12744 1 8.18635 11.2002 46.6171
18345 2 10.0083 11.2084 47.8959
18385 2 7.28043 9.6114 47.9017
12764 1 0.916333 14.4124 49.1636
12775 1 2.72938 14.3925 46.6031
12825 1 0.00164906 12.7963 46.6106
18424 2 1.82356 12.8054 47.8893
12726 1 6.37257 14.4124 49.1636
12773 1 3.64484 12.8145 49.1711
12774 1 5.45789 12.7963 46.6106
18373 2 4.5513 14.4023 47.8818
12725 1 9.10107 12.8145 49.1711
12730 1 8.18562 14.3925 46.6031
18344 2 10.0075 14.4023 47.8818
18388 2 7.2798 12.8054 47.8893
12763 1 0.915434 17.6081 49.1458
12765 1 2.72845 17.5849 46.5856
12823 1 0.000820011 15.9887 46.5948
18425 2 1.82275 15.9994 47.8735
12712 1 6.37167 17.6081 49.1458
12762 1 3.64402 16.0102 49.1551
12777 1 5.45706 15.9887 46.5948
18372 2 4.5504 17.5964 47.8642
12728 1 9.10026 16.0102 49.1551
12729 1 8.18469 17.5849 46.5856
18333 2 10.0066 17.5964 47.8642
18371 2 7.27899 15.9994 47.8735
12783 1 1.83387 0.0375124 51.7589
18398 2 2.74037 1.63338 50.4771
18445 2 0.0122833 0.0348179 50.4775
12738 1 4.56196 1.63688 51.7585
18397 2 5.46852 0.0348179 50.4775
12696 1 10.0182 1.63688 51.7585
12748 1 7.29011 0.0375124 51.7589
18351 2 8.19661 1.63338 50.4771
12784 1 1.83376 3.23626 51.7572
18383 2 2.74018 4.83053 50.4737
18430 2 0.0121797 3.23195 50.4759
12737 1 4.56176 4.83565 51.755
18399 2 5.46842 3.23195 50.4759
12695 1 10.018 4.83565 51.755
12736 1 7.29 3.23626 51.7572
18350 2 8.19642 4.83053 50.4737
12768 1 1.83349 6.43505 51.752
18382 2 2.73982 8.02771 50.4666
18431 2 0.0119023 6.42911 50.4706
12723 1 4.5614 8.03446 51.748
18381 2 5.46814 6.42911 50.4706
12694 1 10.0176 8.03446 51.748
12739 1 7.28972 6.43505 51.752
18343 2 8.19606 8.02771 50.4666
12769 1 1.83304 9.63389 51.7431
18369 2 2.73928 11.2249 50.456
18422 2 0.0114535 9.62632 50.4618
12722 1 4.56087 11.2333 51.7373
18384 2 5.46769 9.62632 50.4618
12688 1 10.0171 11.2333 51.7373
12721 1 7.28928 9.63389 51.7431
18342 2 8.19552 11.2249 50.456
12760 1 1.83242 12.8328 51.7306
18368 2 2.73858 14.4222 50.4417
18423 2 0.010836 12.8236 50.4493
12711 1 4.56018 14.4323 51.7229
18367 2 5.46707 12.8236 50.4493
12687 1 10.0164 14.4323 51.7229
12724 1 7.28866 12.8328 51.7306
18332 2 8.19482 14.4222 50.4417
12761 1 1.83165 16.0318 51.7144
18360 2 2.73772 17.6197 50.4239
18421 2 0.0100531 16.0209 50.4333
12710 1 4.55932 17.6314 51.705
18370 2 5.46629 16.0209 50.4333
12680 1 10.0156 17.6314 51.705
12709 1 7.28789 16.0318 51.7144
18331 2 8.19396 17.6197 50.4239
12734 1 2.75011 1.64369 54.3173
12782 1 0.0220184 0.0426868 54.3177
18375 2 1.84485 0.0451537 55.5951
18379 2 0.928233 1.64018 53.0364
12733 1 5.47826 0.0426868 54.3177
18336 2 4.57294 1.64697 55.5948
18348 2 6.38447 1.64018 53.0364
18396 2 3.65638 0.0399947 53.0368
12693 1 8.20635 1.64369 54.3173
18318 2 10.0292 1.64697 55.5948
18346 2 7.30108 0.0451537 55.5951
18347 2 9.11262 0.0399947 53.0368
12719 1 2.74993 4.84572 54.3138
12766 1 0.0219194 3.2447 54.316
18376 2 1.84475 3.2488 55.5934
18378 2 0.928048 4.84058 53.0329
12735 1 5.47816 3.2447 54.316
18335 2 4.57276 4.85065 55.5912
18340 2 6.38429 4.84058 53.0329
18377 2 3.65628 3.24038 53.0351
12692 1 8.20616 4.84572 54.3138
18317 2 10.029 4.85065 55.5912
18334 2 7.30099 3.2488 55.5934
18349 2 9.11252 3.24038 53.0351
12718 1 2.74958 8.04782 54.3067
12767 1 0.0216525 6.44676 54.3107
18361 2 1.84449 6.45252 55.5881
18365 2 0.927696 8.04104 53.0258
12717 1 5.47789 6.44676 54.3107
18325 2 4.57242 8.0544 55.584
18339 2 6.38393 8.04104 53.0258
18380 2 3.65601 6.4408 53.0298
12686 1 8.20582 8.04782 54.3067
18316 2 10.0287 8.0544 55.584
18337 2 7.30073 6.45252 55.5881
18338 2 9.11225 6.4408 53.0298
12707 1 2.74907 11.25 54.2958
12758 1 0.0212231 9.6489 54.3017
18362 2 1.84408 9.65631 55.579
18364 2 0.927182 11.2416 53.015
12720 1 5.47746 9.6489 54.3017
18324 2 4.57193 11.2582 55.5731
18329 2 6.38342 11.2416 53.015
18363 2 3.65558 9.64129 53.0209
12685 1 8.20531 11.25 54.2958
18315 2 10.0282 11.2582 55.5731
18323 2 7.30031 9.65631 55.579
18341 2 9.11182 9.64129 53.0209
12706 1 2.74841 14.4523 54.2813
12759 1 0.020639 12.8511 54.289
18355 2 1.84351 12.8602 55.5662
18359 2 0.926512 14.4422 53.0006
12705 1 5.47688 12.8511 54.289
18321 2 4.5713 14.4622 55.5584
18328 2 6.38275 14.4422 53.0006
18366 2 3.65498 12.8419 53.0083
12679 1 8.20465 14.4523 54.2813
18314 2 10.0275 14.4622 55.5584
18326 2 7.29975 12.8602 55.5662
18327 2 9.11122 12.8419 53.0083
18358 2 0.925696 17.643 52.9825
18356 2 1.84281 16.0643 55.5497
12757 1 0.0199105 16.0536 54.2726
12700 1 2.74762 17.6548 54.263
18357 2 3.65424 16.0426 52.992
18322 2 6.38193 17.643 52.9825
18320 2 4.57053 17.6664 55.54
12708 1 5.47615 16.0536 54.2726
18330 2 9.11048 16.0426 52.992
18319 2 7.29905 16.0643 55.5497
18313 2 10.0268 17.6664 55.54
12678 1 8.20385 17.6548 54.263
18665 2 2.76201 1.65375 58.1521
18672 2 0.0339162 0.0502903 58.1525
12715 1 0.93887 1.65048 56.8752
18664 2 5.49015 0.0502903 58.1525
12690 1 6.39511 1.65048 56.8752
12732 1 3.66701 0.0478432 56.8756
18630 2 8.21825 1.65375 58.1521
12689 1 9.12325 0.0478432 56.8756
18661 2 2.76184 4.86072 58.1485
18670 2 0.0338265 3.25723 58.1508
12714 1 0.938694 4.8558 56.8716
18666 2 5.49006 3.25723 58.1508
12683 1 6.39493 4.8558 56.8716
12713 1 3.66692 3.25313 56.8739
18629 2 8.21808 4.86072 58.1485
12691 1 9.12316 3.25313 56.8739
18660 2 2.76151 8.06777 58.1412
18671 2 0.033577 6.46423 58.1453
12703 1 0.938359 8.06121 56.8644
18659 2 5.48982 6.46423 58.1453
12682 1 6.3946 8.06121 56.8644
12716 1 3.66667 6.45849 56.8685
18624 2 8.21775 8.06777 58.1412
12681 1 9.1229 6.45849 56.8685
18650 2 2.76104 11.2749 58.1301
18668 2 0.0331756 9.67134 58.1361
12702 1 0.937874 11.2667 56.8534
18662 2 5.48941 9.67134 58.1361
12676 1 6.39411 11.2667 56.8534
12701 1 3.66625 9.66395 56.8593
18623 2 8.21728 11.2749 58.1301
12684 1 9.12249 9.66395 56.8593
18649 2 2.76044 14.4823 58.1152
18669 2 0.0326347 12.8786 58.1231
12699 1 0.937253 14.4724 56.8386
18648 2 5.48887 12.8786 58.1231
12675 1 6.39349 14.4724 56.8386
12704 1 3.6657 12.8695 56.8465
18610 2 8.21667 14.4823 58.1152
12674 1 9.12194 12.8695 56.8465
18639 2 2.75972 17.6898 58.0965
18667 2 0.0319711 16.086 58.1063
12698 1 0.936512 17.6783 56.82
18651 2 5.48821 16.086 58.1063
12673 1 6.39275 17.6783 56.82
12697 1 3.66502 16.0753 56.8298
18609 2 8.21596 17.6898 58.0965
12677 1 9.12125 16.0753 56.8298
13031 1 1.85637 0.0529837 59.4325
13014 1 2.77441 1.66407 61.9881
13030 1 0.046314 0.0581317 61.9886
18657 2 0.951679 1.6605 60.7084
13018 1 4.58447 1.65727 59.4321
13013 1 5.50255 0.0581317 61.9886
18627 2 6.40792 1.6605 60.7084
18663 2 3.67982 0.0553989 60.7089
12972 1 10.0407 1.65727 59.4321
13020 1 7.31261 0.0529837 59.4325
12969 1 8.23065 1.66407 61.9881
18626 2 9.13606 0.0553989 60.7089
13032 1 1.85628 3.26157 59.4307
13006 1 2.77424 4.87599 61.9845
13026 1 0.0462283 3.27002 61.9868
18656 2 0.951513 4.87076 60.7048
13017 1 4.5843 4.86589 59.4285
13015 1 5.50247 3.27002 61.9868
18621 2 6.40775 4.87076 60.7048
18655 2 3.67974 3.26562 60.7071
12971 1 10.0405 4.86589 59.4285
13016 1 7.31252 3.26157 59.4307
12968 1 8.23048 4.87599 61.9845
18628 2 9.13597 3.26562 60.7071
13028 1 1.85604 6.47023 59.4253
13005 1 2.77393 8.08801 61.977
13027 1 0.0459846 6.48199 61.9812
18646 2 0.951194 8.08112 60.6973
13010 1 4.58397 8.0746 59.4211
13004 1 5.50222 6.48199 61.9812
18620 2 6.40743 8.08112 60.6973
18658 2 3.67949 6.47593 60.7015
12970 1 10.0402 8.0746 59.4211
13019 1 7.31227 6.47023 59.4253
12961 1 8.23016 8.08801 61.977
18619 2 9.13573 6.47593 60.7015
13029 1 1.85564 9.67901 59.416
12992 1 2.77347 11.3002 61.9657
13022 1 0.0455928 9.69408 61.9718
18645 2 0.950733 11.2916 60.6861
13009 1 4.58351 11.2834 59.41
13007 1 5.50183 9.69408 61.9718
18607 2 6.40697 11.2916 60.6861
18644 2 3.6791 9.68635 60.6922
12963 1 10.0397 11.2834 59.41
13008 1 7.31188 9.67901 59.416
12960 1 8.2297 11.3002 61.9657
18622 2 9.13534 9.68635 60.6922
13024 1 1.85511 12.8879 59.403
12991 1 2.77288 14.5125 61.9505
13023 1 0.0450688 12.9063 61.9586
18638 2 0.950147 14.5023 60.671
12996 1 4.58291 14.4925 59.395
12990 1 5.50131 12.9063 61.9586
18606 2 6.40639 14.5023 60.671
18647 2 3.67857 12.8969 60.6791
12962 1 10.0392 14.4925 59.395
13011 1 7.31134 12.8879 59.403
12946 1 8.22912 14.5125 61.9505
18605 2 9.13481 12.8969 60.6791
13025 1 1.85446 16.0971 59.3861
12981 1 2.7722 17.7252 61.9314
13021 1 0.0444347 16.1188 61.9415
18637 2 0.949458 17.7132 60.652
12995 1 4.58221 17.7017 59.3761
12993 1 5.50067 16.1188 61.9415
18589 2 6.4057 17.7132 60.652
18636 2 3.67793 16.1077 60.662
12947 1 10.0385 17.7017 59.3761
12994 1 7.31069 16.0971 59.3861
12945 1 8.22844 17.7252 61.9314
18608 2 9.13417 16.1077 60.662
13002 1 0.964888 1.67099 64.5436
18613 2 2.78896 1.67382 65.8177
18652 2 0.0608654 0.0654415 65.8182
18653 2 1.87007 0.0604663 63.2642
12966 1 6.42113 1.67099 64.5436
13012 1 3.69303 0.0634074 64.5441
18612 2 5.5171 0.0654415 65.8182
18617 2 4.59817 1.66721 63.2637
12965 1 9.14927 0.0634074 64.5441
18561 2 8.2452 1.67382 65.8177
18564 2 10.0544 1.66721 63.2637
18625 2 7.32631 0.0604663 63.2642
13001 1 0.964722 4.8862 64.5399
18599 2 2.7888 4.89064 65.8139
18640 2 0.0607815 3.28221 65.8163
18654 2 1.86999 3.27397 63.2623
12958 1 6.42096 4.8862 64.5399
13000 1 3.69294 3.27858 64.5422
18614 2 5.51702 3.28221 65.8163
18616 2 4.598 4.88076 63.26
12967 1 9.14918 3.27858 64.5422
18560 2 8.24504 4.89064 65.8139
18563 2 10.0542 4.88076 63.26
18615 2 7.32622 3.27397 63.2623
12988 1 0.964399 8.10153 64.5323
18598 2 2.78847 8.10757 65.8063
18641 2 0.0605343 6.49909 65.8106
18642 2 1.86974 6.48757 63.2567
12957 1 6.42064 8.10153 64.5323
13003 1 3.6927 6.49385 64.5366
18597 2 5.51677 6.49909 65.8106
18603 2 4.59768 8.09442 63.2525
12956 1 9.14894 6.49385 64.5366
18553 2 8.24471 8.10757 65.8063
18562 2 10.0539 8.09442 63.2525
18618 2 7.32598 6.48757 63.2567
12987 1 0.963933 11.317 64.5209
18584 2 2.788 11.3247 65.7948
18632 2 0.0601327 9.7161 65.8011
18643 2 1.86935 9.7013 63.2473
12943 1 6.42017 11.317 64.5209
12986 1 3.6923 9.70925 64.5271
18600 2 5.51637 9.7161 65.8011
18602 2 4.59722 11.3082 63.2411
12959 1 9.14854 9.70925 64.5271
18552 2 8.24424 11.3247 65.7948
18555 2 10.0535 11.3082 63.2411
18601 2 7.32559 9.7013 63.2473
12980 1 0.963342 14.5327 64.5055
18583 2 2.78739 14.542 65.7794
18633 2 0.0595915 12.9333 65.7876
18634 2 1.86883 12.9152 63.234
12942 1 6.41958 14.5327 64.5055
12989 1 3.69177 12.9248 64.5137
18582 2 5.51583 12.9333 65.7876
18588 2 4.59664 14.5222 63.2258
12941 1 9.14801 12.9248 64.5137
18538 2 8.24363 14.542 65.7794
18554 2 10.0529 14.5222 63.2258
18604 2 7.32506 12.9152 63.234
12979 1 0.962653 17.7486 64.4861
18573 2 2.78669 17.7596 65.7599
18631 2 0.0589321 16.1507 65.7701
18635 2 1.86819 16.1293 63.2167
12926 1 6.41889 17.7486 64.4861
12978 1 3.69113 16.1406 64.4963
18585 2 5.51517 16.1507 65.7701
18587 2 4.59595 17.7365 63.2066
12944 1 9.14737 16.1406 64.4963
18537 2 8.24292 17.7596 65.7599
18539 2 10.0522 17.7365 63.2066
18586 2 7.32443 16.1293 63.2167
12998 1 1.88388 0.069392 67.0999
18595 2 0.98019 1.68009 68.3696
12954 1 4.61198 1.67861 67.0995
18558 2 6.43643 1.68009 68.3696
18611 2 3.70833 0.0700949 68.3701
12906 1 10.0682 1.67861 67.0995
12964 1 7.34012 0.069392 67.0999
18557 2 9.16457 0.0700949 68.3701
12999 1 1.88379 3.28785 67.098
18594 2 0.980017 4.90014 68.3658
12953 1 4.61181 4.89711 67.0956
18550 2 6.43626 4.90014 68.3658
18593 2 3.70824 3.2901 68.3682
12905 1 10.068 4.89711 67.0956
12952 1 7.34003 3.28785 67.098
18559 2 9.16448 3.2901 68.3682
12984 1 1.88354 6.5064 67.0923
18580 2 0.979675 8.12031 68.3581
12939 1 4.61147 8.11573 67.088
18549 2 6.43591 8.12031 68.3581
18596 2 3.70799 6.51021 68.3624
12904 1 10.0677 8.11573 67.088
12955 1 7.33978 6.5064 67.0923
18548 2 9.16422 6.51021 68.3624
12985 1 1.88313 9.7251 67.0827
18579 2 0.979175 11.3407 68.3465
12938 1 4.61098 11.3345 67.0764
18535 2 6.43541 11.3407 68.3465
18578 2 3.70756 9.73047 68.3528
12897 1 10.0672 11.3345 67.0764
12937 1 7.33937 9.7251 67.0827
18551 2 9.1638 9.73047 68.3528
12976 1 1.88257 12.944 67.0692
18572 2 0.978533 14.5613 68.3309
12925 1 4.61036 14.5535 67.0609
18534 2 6.43477 14.5613 68.3309
18581 2 3.70699 12.9509 68.3392
12896 1 10.0666 14.5535 67.0609
12940 1 7.33881 12.944 67.0692
18533 2 9.16323 12.9509 68.3392
12977 1 1.88189 16.1631 67.0516
18571 2 0.977771 17.7821 68.3112
12924 1 4.60963 17.7728 67.0413
18520 2 6.43401 17.7821 68.3112
18570 2 3.70628 16.1717 68.3216
12885 1 10.0659 17.7728 67.0413
12923 1 7.33812 16.1631 67.0516
18536 2 9.16252 16.1717 68.3216
12931 1 0.988375 1.69164 72.2352
12950 1 2.80246 1.68508 69.6591
12997 1 0.0743644 0.0742193 69.6596
18591 2 1.89965 0.073504 70.917
12900 1 6.44461 1.69164 72.2352
12948 1 3.71652 0.0791047 72.2357
12949 1 5.5306 0.0742193 69.6596
18546 2 4.62775 1.68508 70.9165
12899 1 9.17276 0.0791047 72.2357
12903 1 8.2587 1.68508 69.6591
18504 2 10.084 1.68508 70.9165
18556 2 7.35589 0.073504 70.917
12930 1 0.988171 4.91679 72.2313
12935 1 2.80228 4.90685 69.6552
12982 1 0.0742728 3.29595 69.6576
18592 2 1.89956 3.29668 70.9151
12892 1 6.44441 4.91679 72.2313
12929 1 3.71642 3.3042 72.2338
12951 1 5.53051 3.29595 69.6576
18545 2 4.62756 4.90831 70.9126
12901 1 9.17266 3.3042 72.2338
12902 1 8.25852 4.90685 69.6552
18503 2 10.0838 4.90831 70.9126
18544 2 7.3558 3.29668 70.9151
12917 1 0.987767 8.14206 72.2236
12934 1 2.80192 8.12876 69.6475
12983 1 0.0740003 6.51778 69.6519
18576 2 1.89928 6.51997 70.9093
12891 1 6.44401 8.14206 72.2236
12932 1 3.71611 6.5294 72.2279
12933 1 5.53024 6.51778 69.6519
18531 2 4.6272 8.13168 70.9049
12890 1 9.17235 6.5294 72.2279
12895 1 8.25816 8.12876 69.6475
18502 2 10.0834 8.13168 70.9049
18547 2 7.35552 6.51997 70.9093
12916 1 0.987168 11.3675 72.2119
12921 1 2.80139 11.3508 69.6359
12974 1 0.0735537 9.73977 69.6422
18577 2 1.89883 9.74344 70.8996
12881 1 6.44341 11.3675 72.2119
12915 1 3.71561 9.75475 72.2182
12936 1 5.52979 9.73977 69.6422
18530 2 4.62666 11.3553 70.8932
12893 1 9.17185 9.75475 72.2182
12894 1 8.25763 11.3508 69.6359
18496 2 10.0829 11.3553 70.8932
18529 2 7.35507 9.74344 70.8996
12911 1 0.986387 14.5931 72.1961
12920 1 2.80071 14.5731 69.6202
12975 1 0.0729455 12.962 69.6286
18568 2 1.89821 12.9671 70.8859
12880 1 6.44263 14.5931 72.1961
12918 1 3.71492 12.9803 72.2045
12919 1 5.52918 12.962 69.6286
18519 2 4.62596 14.5791 70.8775
12879 1 9.17116 12.9803 72.2045
12884 1 8.25694 14.5731 69.6202
18495 2 10.0822 14.5791 70.8775
18532 2 7.35445 12.9671 70.8859
12910 1 0.985443 17.819 72.1763
12912 1 2.79989 17.7957 69.6005
12973 1 0.0721948 16.1844 69.6109
18569 2 1.89744 16.1911 70.8682
12874 1 6.44168 17.819 72.1763
12909 1 3.71405 16.2061 72.1867
12922 1 5.52843 16.1844 69.6109
18518 2 4.62512 17.8032 70.8577
12882 1 9.17029 16.2061 72.1867
12883 1 8.25613 17.7957 69.6005
18488 2 10.0814 17.8032 70.8577
18517 2 7.35368 16.1911 70.8682
12927 1 1.84396 0.0918403 74.8871
18523 2 0.980136 1.6997 75.9233
18542 2 2.81744 1.68921 73.4487
18590 2 0.0893456 0.0760698 73.4492
12888 1 4.57204 1.70654 74.8866
18498 2 6.43637 1.6997 75.9233
18540 2 3.70829 0.0847196 75.9238
18541 2 5.54558 0.0760698 73.4492
12870 1 10.0283 1.70654 74.8866
12898 1 7.30019 0.0918403 74.8871
18497 2 9.16452 0.0847196 75.9238
18501 2 8.27368 1.68921 73.4487
12928 1 1.84382 3.32126 74.8851
18522 2 0.979898 4.92971 75.9194
18527 2 2.81724 4.91556 73.4448
18574 2 0.0892453 3.30237 73.4473
12887 1 4.57178 4.93598 74.8827
18491 2 6.43614 4.92971 75.9194
18521 2 3.70817 3.31469 75.9219
18543 2 5.54548 3.30237 73.4473
12869 1 10.028 4.93598 74.8827
12886 1 7.30006 3.32126 74.8851
18499 2 9.1644 3.31469 75.9219
18500 2 8.27348 4.91556 73.4448
12913 1 1.84343 6.55072 74.8793
18511 2 0.979421 8.15984 75.9116
18526 2 2.81684 8.14207 73.437
18575 2 0.0889455 6.52879 73.4414
12877 1 4.57126 8.16547 74.8749
18490 2 6.43566 8.15984 75.9116
18524 2 3.70781 6.54476 75.916
18525 2 5.54518 6.52879 73.4414
12868 1 10.0275 8.16547 74.8749
12889 1 7.29967 6.55072 74.8793
18489 2 9.16405 6.54476 75.916
18494 2 8.27308 8.14207 73.437
12914 1 1.84278 9.78023 74.8695
18510 2 0.978709 11.3901 75.8998
18515 2 2.81625 11.3688 73.4253
18566 2 0.0884495 9.75541 73.4317
12876 1 4.57048 11.395 74.8631
18484 2 6.43495 11.3901 75.8998
18509 2 3.70721 9.77496 75.9062
18528 2 5.54469 9.75541 73.4317
12867 1 10.0267 11.395 74.8631
12875 1 7.29902 9.78023 74.8695
18492 2 9.16345 9.77496 75.9062
18493 2 8.27249 11.3688 73.4253
12907 1 1.84188 13.0098 74.8558
18507 2 0.977769 14.6206 75.8839
18514 2 2.81547 14.5958 73.4095
18567 2 0.0877641 12.9823 73.4179
12873 1 4.56947 14.6245 74.8474
18483 2 6.43401 14.6206 75.8839
18512 2 3.70639 13.0053 75.8924
18513 2 5.544 12.9823 73.4179
12866 1 10.0257 14.6245 74.8474
12878 1 7.29812 13.0098 74.8558
18482 2 9.16262 13.0053 75.8924
18487 2 8.27171 14.5958 73.4095
12908 1 1.84076 16.2393 74.8379
18506 2 0.976618 17.8512 75.864
18508 2 2.81453 17.8232 73.3896
18565 2 0.086902 16.2095 73.4001
12872 1 4.56824 17.854 74.8274
18481 2 6.43286 17.8512 75.864
18505 2 3.70534 16.2359 75.8745
18516 2 5.54314 16.2095 73.4001
12865 1 10.0245 17.854 74.8274
12871 1 7.297 16.2393 74.8379
18485 2 9.16158 16.2359 75.8745
18486 2 8.27077 17.8232 73.3896
6729 2 0.902099 20.3155 -0.948255
6737 2 2.7136 20.2929 -3.45534
576 1 1.79199 21.8701 -2.40582
6727 2 3.63103 21.8833 -0.962428
562 1 4.51868 20.3027 -2.39168
6699 2 6.35834 20.3155 -0.948255
6738 2 5.44273 21.8593 -3.46936
560 1 7.24823 21.8701 -2.40582
516 1 9.97492 20.3027 -2.39168
6702 2 8.16984 20.2929 -3.45534
6700 2 9.08727 21.8833 -0.962428
10006 2 10.899 21.8593 -3.46936
6728 2 0.903779 23.4514 -0.977614
6733 2 2.71571 23.426 -3.48438
572 1 1.79525 25.0056 -2.43711
6730 2 3.63281 25.0196 -0.993795
561 1 4.52167 23.4377 -2.42097
6693 2 6.36002 23.4514 -0.977614
6731 2 5.44499 24.993 -3.50037
563 1 7.25149 25.0056 -2.43711
515 1 9.97791 23.4377 -2.42097
6701 2 8.17194 23.426 -3.48438
6691 2 9.08905 25.0196 -0.993795
10007 2 10.9012 24.993 -3.50037
6718 2 0.905637 26.5881 -1.01095
6732 2 2.71812 26.5603 -3.51731
573 1 1.7991 28.1425 -2.47228
6716 2 3.63474 28.1569 -1.02905
554 1 4.52522 26.5739 -2.45423
6692 2 6.36188 26.5881 -1.01095
6734 2 5.44755 28.1279 -3.53517
552 1 7.25533 28.1425 -2.47228
514 1 9.98146 26.5739 -2.45423
6696 2 8.17436 26.5603 -3.51731
6694 2 9.09098 28.1569 -1.02905
10004 2 10.9038 28.1279 -3.53517
6717 2 0.907639 29.726 -1.04807
6722 2 2.72082 29.696 -3.55392
568 1 1.80355 31.281 -2.5111
6719 2 3.6368 31.2955 -1.06797
553 1 4.52937 29.7115 -2.49126
6679 2 6.36388 29.726 -1.04807
6720 2 5.4504 31.2645 -3.57352
555 1 7.25979 31.281 -2.5111
507 1 9.9856 29.7115 -2.49126
6695 2 8.17706 29.696 -3.55392
6677 2 9.09304 31.2955 -1.06797
10005 2 10.9066 31.2645 -3.57352
6710 2 0.909745 32.8654 -1.08869
6721 2 2.72381 32.8336 -3.59392
569 1 1.80864 34.4216 -2.55323
540 1 4.53414 32.851 -2.53178
6678 2 6.36598 32.8654 -1.08869
6708 2 3.63894 34.4358 -1.1102
6723 2 5.45352 34.4033 -3.61506
538 1 7.26488 34.4216 -2.55323
506 1 9.99038 32.851 -2.53178
6682 2 8.18005 32.8336 -3.59392
6680 2 9.09518 34.4358 -1.1102
10003 2 10.9098 34.4033 -3.61506
6709 2 0.911916 36.0067 -1.13241
6711 2 2.72705 35.9736 -3.63688
959 1 1.81434 37.5646 -2.5982
7152 2 0.000642023 37.5446 -3.65931
539 1 4.53954 35.9928 -2.57539
6661 2 6.36815 36.0067 -1.13241
7143 2 3.64113 37.5781 -1.15527
7144 2 5.45688 37.5446 -3.65931
948 1 7.27058 37.5646 -2.5982
491 1 9.99578 35.9928 -2.57539
6681 2 8.18329 35.9736 -3.63688
7106 2 9.09737 37.5781 -1.15527
558 1 2.71734 20.3261 0.274643
6726 2 1.81047 21.9082 1.5923
6689 2 4.53769 20.3389 1.60655
559 1 5.44639 21.8948 0.260421
6687 2 7.2667 21.9082 1.5923
513 1 8.17358 20.3261 0.274643
6636 2 9.99393 20.3389 1.60655
3642 1 10.9026 21.8948 0.260421
550 1 2.71927 23.4636 0.24518
6714 2 1.81242 25.0473 1.56072
6688 2 4.53953 23.4776 1.57701
548 1 5.44844 25.0327 0.228935
6690 2 7.26866 25.0473 1.56072
512 1 8.1755 23.4636 0.24518
6635 2 9.99577 23.4776 1.57701
3643 1 10.9047 25.0327 0.228935
549 1 2.72144 26.602 0.211708
6715 2 1.81458 28.1871 1.5252
6675 2 4.54159 26.6171 1.54344
551 1 5.45073 28.1716 0.193524
6673 2 7.27082 28.1871 1.5252
505 1 8.17768 26.602 0.211708
6634 2 9.99783 26.6171 1.54344
3638 1 10.907 28.1716 0.193524
536 1 2.72384 29.7414 0.174413
6706 2 1.81692 31.3279 1.48595
6674 2 4.54385 29.7573 1.50602
534 1 5.45323 31.3116 0.154414
6676 2 7.27316 31.3279 1.48595
504 1 8.18007 29.7414 0.174413
6627 2 10.0001 29.7573 1.50602
3639 1 10.9095 31.3116 0.154414
535 1 2.72643 32.8822 0.133574
6707 2 1.81939 34.4699 1.44331
6660 2 4.54626 32.8987 1.46503
537 1 5.4559 34.4532 0.111946
490 1 8.18266 32.8822 0.133574
6626 2 10.0025 32.8987 1.46503
6658 2 7.27563 34.4699 1.44331
3637 1 10.9121 34.4532 0.111946
525 1 2.72917 36.0247 0.0895941
958 1 0.00246625 37.5967 0.0665913
7133 2 1.82196 37.6136 1.39774
6659 2 4.54879 36.0416 1.42086
941 1 5.4587 37.5967 0.0665913
489 1 8.18541 36.0247 0.0895941
6611 2 10.005 36.0416 1.42086
7105 2 7.2782 37.6136 1.39774
546 1 0.89871 20.3501 2.8731
544 1 3.62777 21.9202 2.8588
6685 2 2.7171 20.3628 4.17415
543 1 1.80768 21.9464 5.4411
510 1 6.35495 20.3501 2.8731
498 1 4.53482 20.375 5.45543
6686 2 5.44617 21.9335 4.15986
496 1 7.26392 21.9464 5.4411
511 1 9.08401 21.9202 2.8588
444 1 9.99105 20.375 5.45543
6633 2 8.17334 20.3628 4.17415
9976 2 10.9024 21.9335 4.15986
545 1 0.900659 23.4904 2.84346
547 1 3.62985 25.0607 2.82711
6671 2 2.71906 23.5043 4.14454
528 1 1.80987 25.0894 5.40933
502 1 6.3569 23.4904 2.84346
497 1 4.53685 23.5179 5.42573
6669 2 5.44826 25.0752 4.12819
499 1 7.2661 25.0894 5.40933
500 1 9.08609 25.0607 2.82711
443 1 9.99309 23.5179 5.42573
6632 2 8.1753 23.5043 4.14454
9977 2 10.9045 25.0752 4.12819
532 1 0.902865 26.6312 2.80976
530 1 3.63218 28.2019 2.79143
6670 2 2.72129 26.6462 4.11085
529 1 1.81233 28.2327 5.37351
501 1 6.3591 26.6312 2.80976
483 1 4.53918 26.661 5.39192
6672 2 5.45062 28.2173 4.09253
481 1 7.26857 28.2327 5.37351
503 1 9.08841 28.2019 2.79143
442 1 9.99542 26.661 5.39192
6625 2 8.17753 26.6462 4.11085
9968 2 10.9069 28.2173 4.09253
531 1 0.905303 29.7727 2.77215
533 1 3.63472 31.3439 2.75196
6656 2 2.72376 29.7886 4.07326
520 1 1.81507 31.3765 5.33384
487 1 6.36154 29.7727 2.77215
482 1 4.54179 29.8045 5.35414
6654 2 5.4532 31.3601 4.05308
484 1 7.2713 31.3765 5.33384
485 1 9.09096 31.3439 2.75196
435 1 9.99803 29.8045 5.35414
6624 2 8.18 29.7886 4.07326
9969 2 10.9094 31.3601 4.05308
524 1 0.90794 32.9152 2.73091
522 1 3.63744 34.4869 2.70905
6655 2 2.72645 32.9318 4.03203
521 1 1.81802 34.5208 5.29061
486 1 6.36418 32.9152 2.73091
468 1 4.54464 32.9485 5.31264
6657 2 5.45598 34.5037 4.01017
466 1 7.27426 34.5208 5.29061
488 1 9.09368 34.4869 2.70905
434 1 10.0009 32.9485 5.31264
6610 2 8.18269 32.9318 4.03203
9967 2 10.9122 34.5037 4.01017
523 1 0.910733 36.0589 2.68643
6645 2 2.7293 36.0759 3.98755
926 1 1.82115 37.666 5.24427
7132 2 0.00265909 37.6484 3.96424
469 1 6.36697 36.0589 2.68643
467 1 4.54769 36.0933 5.2678
940 1 3.64029 37.6313 2.66314
7092 2 5.4589 37.6484 3.96424
420 1 10.0039 36.0933 5.2678
6609 2 8.18554 36.0759 3.98755
893 1 9.09653 37.6313 2.66314
892 1 7.27739 37.666 5.24427
494 1 2.71456 20.3993 8.03227
6667 2 0.896721 20.3872 6.74611
6665 2 3.62583 21.9592 6.73184
6630 2 6.35296 20.3872 6.74611
495 1 5.44368 21.9721 8.01799
3598 1 10.8999 21.9721 8.01799
441 1 8.17079 20.3993 8.03227
6631 2 9.08206 21.9592 6.73184
479 1 2.71665 23.5448 8.00265
6666 2 0.898767 23.5313 6.71652
6668 2 3.62802 25.1034 6.70018
6622 2 6.35501 23.5313 6.71652
477 1 5.44593 25.1174 7.98629
3599 1 10.9022 25.1174 7.98629
440 1 8.17288 23.5448 8.00265
6620 2 9.08426 25.1034 6.70018
478 1 2.71906 26.6901 7.9689
6652 2 0.901115 26.6755 6.68282
6649 2 1.81036 28.2776 9.23808
6650 2 3.63052 28.2477 6.66448
6621 2 6.35735 26.6755 6.68282
480 1 5.4485 28.2628 7.9505
6601 2 7.2666 28.2776 9.23808
3590 1 10.9047 28.2628 7.9505
433 1 8.1753 26.6901 7.9689
6623 2 9.08676 28.2477 6.66448
464 1 2.72179 29.8355 7.93113
6651 2 0.903753 29.8199 6.64518
6640 2 1.81324 31.4239 9.19863
6653 2 3.63329 31.3922 6.62494
6602 2 4.53988 29.8507 9.21882
6607 2 6.35999 29.8199 6.64518
462 1 5.45138 31.4082 7.91081
6604 2 7.26948 31.4239 9.19863
3591 1 10.9076 31.4082 7.91081
432 1 8.17802 29.8355 7.93113
6568 2 9.99612 29.8507 9.21882
6605 2 9.08953 31.3922 6.62494
463 1 2.72481 32.981 7.88958
6644 2 0.906656 32.9647 6.60382
6641 2 1.81643 34.57 9.15554
6642 2 3.63631 34.5372 6.58185
6591 2 4.54292 32.9969 9.17752
6606 2 6.36289 32.9647 6.60382
465 1 5.45454 34.5538 7.86749
6589 2 7.27267 34.57 9.15554
3589 1 10.9108 34.5538 7.86749
419 1 8.18105 32.981 7.88958
6567 2 9.99916 32.9969 9.17752
6608 2 9.09255 34.5372 6.58185
453 1 2.72809 36.1266 7.84457
6643 2 0.909785 36.1098 6.5591
925 1 0.00169708 37.6996 7.82091
7071 2 1.81989 37.7162 9.10919
6590 2 4.54625 36.1431 9.13275
6592 2 6.36602 36.1098 6.5591
877 1 5.45794 37.6996 7.82091
7091 2 3.63954 37.6827 6.53563
418 1 8.18433 36.1266 7.84457
6560 2 10.0025 36.1431 9.13275
7036 2 7.27612 37.7162 9.10919
7037 2 9.09577 37.6827 6.53563
6664 2 1.80557 21.9846 9.30515
475 1 0.894353 20.4234 10.607
6614 2 2.71255 20.4353 11.8928
473 1 3.62346 21.9974 10.5928
6618 2 4.5327 20.4113 9.31935
6616 2 7.26181 21.9846 9.30515
438 1 6.35059 20.4234 10.607
6615 2 5.44163 22.0099 11.8787
6576 2 9.98894 20.4113 9.31935
6573 2 8.16879 20.4353 11.8928
439 1 9.0797 21.9974 10.5928
9910 2 10.8979 22.0099 11.8787
6648 2 1.8078 25.1312 9.27364
474 1 0.896421 23.5713 10.5776
6599 2 2.71455 23.5845 11.8636
476 1 3.6257 25.1452 10.5614
6617 2 4.53476 23.5579 9.28991
6619 2 7.26404 25.1312 9.27364
430 1 6.35266 23.5713 10.5776
6597 2 5.4438 25.1589 11.8475
6575 2 9.991 23.5579 9.28991
6572 2 8.17079 23.5845 11.8636
428 1 9.08194 25.1452 10.5614
9911 2 10.9 25.1589 11.8475
460 1 0.898836 26.7189 10.5441
6598 2 2.7169 26.7332 11.8304
458 1 3.6283 28.2926 10.5258
6603 2 4.53716 26.7044 9.25636
429 1 6.35507 26.7189 10.5441
6600 2 5.44633 28.3074 11.8122
6574 2 9.99339 26.7044 9.25636
6566 2 8.17314 26.7332 11.8304
431 1 9.08453 28.2926 10.5258
9902 2 10.9026 28.3074 11.8122
459 1 0.901606 29.8662 10.5065
6587 2 2.71962 29.8814 11.7931
461 1 3.63124 31.4396 10.4863
416 1 6.35784 29.8662 10.5065
6585 2 5.44924 31.4553 11.7731
6565 2 8.17586 29.8814 11.7931
414 1 9.08748 31.4396 10.4863
9903 2 10.9055 31.4553 11.7731
452 1 0.904724 33.013 10.4652
6586 2 2.7227 33.0291 11.7521
450 1 3.63453 34.5864 10.4431
415 1 6.36096 33.013 10.4652
6588 2 5.4525 34.6027 11.7302
6559 2 8.17894 33.0291 11.7521
417 1 9.09077 34.5864 10.4431
9901 2 10.9087 34.6027 11.7302
451 1 0.908167 36.1596 10.4202
6580 2 2.72614 36.1763 11.7075
405 1 6.36441 36.1596 10.4202
876 1 3.63812 37.7328 10.3965
7021 2 5.45611 37.7496 11.6839
6558 2 8.18238 36.1763 11.7075
10334 2 10.9123 37.7496 11.6839
821 1 9.09435 37.7328 10.3965
422 1 2.71047 20.4715 15.754
6595 2 0.892505 20.4593 14.466
472 1 1.8033 22.0227 13.1668
6593 2 3.62151 22.0352 14.4521
426 1 4.53048 20.4474 13.1808
6570 2 6.34874 20.4593 14.466
424 1 7.25954 22.0227 13.1668
423 1 5.43944 22.0481 15.7402
393 1 8.16671 20.4715 15.754
396 1 9.98671 20.4474 13.1808
6571 2 9.07775 22.0352 14.4521
3526 1 10.8957 22.0481 15.7402
408 1 2.71226 23.6245 15.7254
6594 2 0.894371 23.611 14.4372
456 1 1.80544 25.1728 13.1357
6596 2 3.62355 25.1866 14.4213
425 1 4.53244 23.5979 13.1518
6563 2 6.35061 23.611 14.4372
427 1 7.26168 25.1728 13.1357
406 1 5.44141 25.2007 15.7096
392 1 8.1685 23.6245 15.7254
395 1 9.98868 23.5979 13.1518
6561 2 9.07979 25.1866 14.4213
3527 1 10.8976 25.2007 15.7096
407 1 2.71441 26.7767 15.6928
6583 2 0.896592 26.762 14.4044
457 1 1.80796 28.3224 13.1005
6581 2 3.62597 28.3373 14.3865
412 1 4.53477 26.7477 13.1186
6562 2 6.35283 26.762 14.4044
410 1 7.2642 28.3224 13.1005
389 1 8.17065 26.7767 15.6928
394 1 9.99101 26.7477 13.1186
6564 2 9.0822 28.3373 14.3865
6582 2 0.899201 29.9123 14.3677
400 1 2.71696 29.9279 15.6563
448 1 1.81087 31.4711 13.0615
6584 2 3.62878 31.487 14.3478
6556 2 6.35544 29.9123 14.3677
411 1 4.53749 29.8968 13.0815
409 1 5.44375 28.3524 15.675
413 1 7.26711 31.4711 13.0615
3518 1 10.9 28.3524 15.675
391 1 9.99372 29.8968 13.0815
388 1 8.1732 29.9279 15.6563
6554 2 9.08502 31.487 14.3478
6579 2 0.902222 33.0616 14.3271
399 1 2.71995 33.078 15.6159
449 1 1.81418 34.6191 13.0186
6577 2 3.63201 34.6358 14.3054
402 1 7.27042 34.6191 13.0186
6555 2 6.35846 33.0616 14.3271
404 1 4.5406 33.0452 13.0405
398 1 5.44652 31.5031 15.6365
6557 2 9.08825 34.6358 14.3054
3519 1 10.9028 31.5031 15.6365
390 1 9.99683 33.0452 13.0405
386 1 8.17619 33.078 15.6159
6578 2 0.90567 36.2098 14.2829
397 1 2.7234 36.2268 15.5717
7020 2 3.63567 37.7836 14.2595
855 1 1.81788 37.7663 12.9722
6553 2 6.36191 36.2098 14.2829
403 1 4.5441 36.1928 12.9958
401 1 5.44973 34.6525 15.5942
805 1 5.45342 37.8007 15.5483
820 1 7.27412 37.7663 12.9722
385 1 8.17964 36.2268 15.5717
3517 1 10.906 34.6525 15.5942
387 1 10.0003 36.1928 12.9958
3926 1 10.9097 37.8007 15.5483
6977 2 9.09191 37.7836 14.2595
6935 2 1.8 18.906 17.0514
766 1 0.890615 20.4957 18.3266
768 1 3.61808 18.9175 18.3391
6922 2 4.52883 20.4834 17.0388
743 1 6.34685 20.4957 18.3266
6924 2 7.25624 18.906 17.0514
742 1 9.07431 18.9175 18.3391
6876 2 9.98507 20.4834 17.0388
6936 2 1.8015 22.0607 17.0252
765 1 0.892155 23.6513 18.2986
764 1 3.61946 22.0736 18.3131
6921 2 4.53049 23.6377 17.0105
739 1 6.34839 23.6513 18.2986
6920 2 7.25774 22.0607 17.0252
744 1 9.0757 22.0736 18.3131
6875 2 9.98672 23.6377 17.0105
6932 2 1.80332 25.2146 16.9949
759 1 0.894036 26.806 18.2667
767 1 3.62117 25.2288 18.2831
6914 2 4.53249 26.7912 16.9783
738 1 6.35027 26.806 18.2667
6923 2 7.25956 25.2146 16.9949
737 1 9.07741 25.2288 18.2831
6874 2 9.98873 26.7912 16.9783
6933 2 1.80551 28.3675 16.9608
758 1 0.896313 29.9595 18.2309
757 1 3.62324 28.3829 18.2493
6913 2 4.53488 29.9436 16.9423
727 1 6.35255 29.9595 18.2309
6912 2 7.26175 28.3675 16.9608
740 1 9.07948 28.3829 18.2493
6867 2 9.99112 29.9436 16.9423
6928 2 1.80813 31.5193 16.9228
752 1 0.89905 33.1115 18.1913
760 1 3.62574 31.5357 18.2116
726 1 6.35529 33.1115 18.1913
6900 2 4.53772 33.0947 16.9023
6915 2 7.26436 31.5193 16.9228
725 1 9.08198 31.5357 18.2116
6866 2 9.99396 33.0947 16.9023
6929 2 1.8112 34.6697 16.881
751 1 0.902308 36.2619 18.148
750 1 3.62873 34.6869 18.1701
709 1 6.35855 36.2619 18.148
6899 2 4.54105 36.2443 16.8587
6898 2 7.26744 34.6697 16.881
728 1 9.08497 34.6869 18.1701
6851 2 9.99729 36.2443 16.8587
6918 2 2.70909 20.5077 19.6111
762 1 1.79857 18.9404 20.9108
6906 2 0.889602 20.5321 22.1827
6916 2 3.61728 18.9518 22.1948
6917 2 5.43663 18.9288 19.6234
735 1 4.5272 20.52 20.8986
6870 2 6.34584 20.5321 22.1827
741 1 7.2548 18.9404 20.9108
6873 2 8.16533 20.5077 19.6111
684 1 9.98344 20.52 20.8986
6869 2 9.07352 18.9518 22.1948
10198 2 10.8929 18.9288 19.6234
6910 2 2.71047 23.6647 19.5834
763 1 1.79966 22.0994 20.8854
6905 2 0.890648 23.6921 22.1558
6904 2 3.61821 22.1122 22.1697
6919 2 5.43787 22.0863 19.5977
734 1 4.52843 23.6785 20.8713
6862 2 6.34689 23.6921 22.1558
733 1 7.2559 22.0994 20.8854
6872 2 8.16671 23.6647 19.5834
683 1 9.98467 23.6785 20.8713
6871 2 9.07445 22.1122 22.1697
10194 2 10.8941 22.0863 19.5977
6909 2 2.71217 26.8208 19.552
755 1 1.80103 25.2573 20.8562
6892 2 0.891968 26.8509 22.1251
6907 2 3.61939 25.2717 22.1409
6908 2 5.4394 25.2429 19.5682
723 1 4.52996 26.8359 20.8401
6861 2 6.34821 26.8509 22.1251
736 1 7.25727 25.2573 20.8562
6865 2 8.16841 26.8208 19.552
682 1 9.9862 26.8359 20.8401
6860 2 9.07563 25.2717 22.1409
10195 2 10.8956 25.2429 19.5682
6896 2 2.71425 29.9755 19.5167
756 1 1.80274 28.4141 20.8232
6891 2 0.893632 30.0084 22.0907
6890 2 3.62087 28.4298 22.1083
6911 2 5.44128 28.3983 19.5348
722 1 4.53186 29.9919 20.8052
6847 2 6.34987 30.0084 22.0907
721 1 7.25898 28.4141 20.8232
6864 2 8.17049 29.9755 19.5167
675 1 9.9881 29.9919 20.8052
6863 2 9.07711 28.4298 22.1083
10190 2 10.8975 28.3983 19.5348
6895 2 2.71678 33.1288 19.4776
748 1 1.80485 31.5693 20.7864
6884 2 0.895729 33.1641 22.0527
6893 2 3.62274 31.5865 22.0721
6894 2 5.44357 31.5524 19.4976
708 1 4.53421 33.1463 20.7666
6846 2 6.35197 33.1641 22.0527
724 1 7.26109 31.5693 20.7864
6850 2 8.17302 33.1288 19.4776
674 1 9.99045 33.1463 20.7666
6845 2 9.07898 31.5865 22.0721
10191 2 10.8998 31.5524 19.4976
6885 2 2.71984 36.2802 19.4349
749 1 1.80747 34.7227 20.7459
6883 2 0.898368 36.3177 22.011
6882 2 3.62509 34.7412 22.0323
6897 2 5.44636 34.7047 19.4567
707 1 4.53712 36.2986 20.7243
6829 2 6.35461 36.3177 22.011
706 1 7.26371 34.7227 20.7459
6849 2 8.17608 36.2802 19.4349
659 1 9.99336 36.2986 20.7243
6848 2 9.08133 34.7412 22.0323
10189 2 10.9026 34.7047 19.4567
731 1 2.70783 20.5446 23.4699
6902 2 1.79827 18.9751 24.7654
730 1 5.43559 18.9636 23.4818
6858 2 4.52667 20.5569 24.7537
6868 2 7.25451 18.9751 24.7654
681 1 8.16407 20.5446 23.4699
6804 2 9.98291 20.5569 24.7537
3833 1 10.8918 18.9636 23.4818
719 1 2.70869 23.7061 23.4433
6903 2 1.79886 22.1385 24.741
732 1 5.43635 22.1255 23.4571
6857 2 4.52734 23.7199 24.7274
6856 2 7.2551 22.1385 24.741
680 1 8.16493 23.7061 23.4433
6803 2 9.98358 23.7199 24.7274
3825 1 10.8926 22.1255 23.4571
718 1 2.7098 26.8664 23.413
6888 2 1.79964 25.3009 24.7129
717 1 5.43733 25.2864 23.4286
6843 2 4.52823 26.8817 24.6975
6859 2 7.25588 25.3009 24.7129
673 1 8.16604 26.8664 23.413
6802 2 9.98447 26.8817 24.6975
3826 1 10.8936 25.2864 23.4286
704 1 2.71124 30.0252 23.3791
6889 2 1.80066 28.4621 24.6812
720 1 5.43859 28.446 23.3965
6842 2 4.5294 30.0421 24.6641
6841 2 7.2569 28.4621 24.6812
672 1 8.16748 30.0252 23.3791
6795 2 9.98564 30.0421 24.6641
3818 1 10.8948 28.446 23.3965
692 1 0.892081 33.2196 25.9158
703 1 2.71309 33.1823 23.3416
6880 2 1.80201 31.6217 24.6461
654 1 6.34832 33.2196 25.9158
702 1 5.44022 31.604 23.3608
6828 2 4.53096 33.2007 24.6272
6844 2 7.25824 31.6217 24.6461
658 1 8.16933 33.1823 23.3416
6794 2 9.9872 33.2007 24.6272
3819 1 10.8965 31.604 23.3608
691 1 0.893809 36.3775 25.876
693 1 2.71548 36.3371 23.3005
6881 2 1.8038 34.7793 24.6074
690 1 3.62099 34.7989 25.8963
638 1 6.35005 36.3775 25.876
705 1 5.44233 34.76 23.3215
6827 2 4.53302 36.3571 24.5867
6826 2 7.26003 34.7793 24.6074
656 1 9.07723 34.7989 25.8963
657 1 8.17172 36.3371 23.3005
6780 2 9.98926 36.3571 24.5867
3817 1 10.8986 34.76 23.3215
715 1 0.888815 20.5695 26.0404
729 1 3.61675 18.9869 26.0521
711 1 1.79835 19.0105 28.6214
6854 2 2.7079 20.5819 27.3237
678 1 6.34505 20.5695 26.0404
666 1 4.52649 20.5947 28.61
6853 2 5.43591 18.9985 27.3352
676 1 7.25459 19.0105 28.6214
677 1 9.07298 18.9869 26.0521
618 1 9.98273 20.5947 28.61
6801 2 8.16414 20.5819 27.3237
10165 2 10.8921 18.9985 27.3352
714 1 0.88929 23.7341 26.0145
713 1 3.61715 22.1519 26.0279
712 1 1.7984 22.1787 28.5978
6839 2 2.70819 23.7481 27.2981
670 1 6.34553 23.7341 26.0145
665 1 4.52657 23.7625 28.5847
6855 2 5.43615 22.1651 27.3113
664 1 7.25464 22.1787 28.5978
679 1 9.07339 22.1519 26.0279
617 1 9.98281 23.7625 28.5847
6800 2 8.16443 23.7481 27.2981
10150 2 10.8924 22.1651 27.3113
700 1 0.88994 26.8975 25.985
716 1 3.61771 25.3159 26.0002
696 1 1.79852 25.346 28.5708
6838 2 2.70862 26.9131 27.269
669 1 6.34618 26.8975 25.985
651 1 4.52674 26.9292 28.5561
6837 2 5.4365 25.3307 27.284
667 1 7.25476 25.346 28.5708
668 1 9.07395 25.3159 26.0002
616 1 9.98298 26.9292 28.5561
6793 2 8.16485 26.9131 27.269
10151 2 10.8927 25.3307 27.284
699 1 0.890837 30.0595 25.9521
698 1 3.61847 28.4787 25.969
697 1 1.79876 28.5121 28.5405
6824 2 2.70925 30.0768 27.2366
655 1 6.34708 30.0595 25.9521
650 1 4.52707 30.0946 28.5241
6840 2 5.43702 28.4952 27.2532
649 1 7.255 28.5121 28.5405
671 1 9.07471 28.4787 25.969
609 1 9.98331 30.0946 28.5241
6792 2 8.16548 30.0768 27.2366
10142 2 10.8933 28.4952 27.2532
701 1 3.61953 31.6398 25.9344
688 1 1.7992 31.6767 28.5069
6823 2 2.71017 33.2388 27.2008
637 1 4.52764 33.2583 28.4889
6822 2 5.43778 31.658 27.2191
652 1 7.25543 31.6767 28.5069
653 1 9.07577 31.6398 25.9344
608 1 9.98388 33.2583 28.4889
6779 2 8.16641 33.2388 27.2008
10143 2 10.894 31.658 27.2191
689 1 1.79994 34.8394 28.4701
6813 2 2.71153 36.3985 27.1617
636 1 4.52859 36.4199 28.4506
6825 2 5.43891 34.8189 27.1816
635 1 7.25618 34.8394 28.4701
597 1 9.98483 36.4199 28.4506
6778 2 8.16777 36.3985 27.1617
10141 2 10.8951 34.8189 27.1816
662 1 2.70846 20.6201 31.1786
6831 2 1.80025 19.0461 32.4719
6835 2 0.889624 20.6072 29.8928
6852 2 3.6178 19.0222 29.9041
661 1 5.43672 19.0343 31.1897
6786 2 4.52816 20.6328 32.4608
6798 2 6.34586 20.6072 29.8928
6796 2 7.25648 19.0461 32.4719
615 1 8.1647 20.6201 31.1786
6756 2 9.9844 20.6328 32.4608
6797 2 9.07404 19.0222 29.9041
3782 1 10.893 19.0343 31.1897
647 1 2.70816 23.7913 31.1539
6832 2 1.79982 22.2193 32.449
6834 2 0.889532 23.7767 29.8678
6833 2 3.61769 22.1921 29.8807
663 1 5.43643 22.2058 31.1666
6785 2 4.52771 23.8057 32.4363
6790 2 6.34577 23.7767 29.8678
6784 2 7.25606 22.2193 32.449
614 1 8.1644 23.7913 31.1539
6755 2 9.98395 23.8057 32.4363
6799 2 9.07393 22.1921 29.8807
3766 1 10.8927 22.2058 31.1666
646 1 2.70787 26.9615 31.1259
6816 2 1.79936 25.3918 32.4228
6820 2 0.889495 26.9451 29.8394
6836 2 3.61762 25.3611 29.854
645 1 5.43613 25.3765 31.1403
6772 2 4.52724 26.9777 32.4086
6789 2 6.34573 26.9451 29.8394
6787 2 7.2556 25.3918 32.4228
607 1 8.16411 26.9615 31.1259
6754 2 9.98348 26.9777 32.4086
6788 2 9.07386 25.3611 29.854
3767 1 10.8924 25.3765 31.1403
633 1 2.70763 30.1306 31.0948
6817 2 1.79889 28.5634 32.3935
6819 2 0.889567 30.1124 29.8079
6818 2 3.61763 28.5289 29.8241
648 1 5.43586 28.5462 31.1107
6771 2 4.52678 30.1487 32.3777
6776 2 6.34581 30.1124 29.8079
6770 2 7.25513 28.5634 32.3935
606 1 8.16387 30.1306 31.0948
6751 2 9.98302 30.1487 32.3777
6791 2 9.07387 28.5289 29.8241
3758 1 10.8921 28.5462 31.1107
632 1 2.70752 33.2983 31.0607
6808 2 1.79846 31.7338 32.3612
6812 2 0.889829 33.278 29.7732
6821 2 3.61779 31.6954 29.7909
631 1 5.43567 31.7146 31.0781
6764 2 4.52639 33.3185 32.344
6775 2 6.34607 33.278 29.7732
6773 2 7.25469 31.7338 32.3612
596 1 8.16376 33.2983 31.0607
6750 2 9.98263 33.3185 32.344
6774 2 9.07403 31.6954 29.7909
3759 1 10.8919 31.7146 31.0781
624 1 2.70764 36.464 31.0235
6809 2 1.79814 34.9027 32.326
6811 2 0.890401 36.4417 29.7353
6810 2 3.61819 34.8601 29.7546
634 1 5.43566 34.8814 31.0425
6763 2 4.52617 36.4865 32.3073
6765 2 6.34664 36.4417 29.7353
6762 2 7.25437 34.9027 32.326
595 1 8.16388 36.464 31.0235
6747 2 9.98241 36.4865 32.3073
6777 2 9.07442 34.8601 29.7546
3757 1 10.8919 34.8814 31.0425
643 1 0.891047 20.6458 33.7461
6782 2 2.7111 20.6587 35.0277
660 1 3.61945 19.0583 33.757
612 1 6.34728 20.6458 33.7461
6781 2 5.43956 19.0703 35.0386
611 1 9.07569 19.0583 33.757
6753 2 8.16734 20.6587 35.0277
10094 2 10.8958 19.0703 35.0386
642 1 0.890407 23.8204 33.7218
6768 2 2.71035 23.835 35.0035
641 1 3.61886 22.2332 33.7343
604 1 6.34665 23.8204 33.7218
6783 2 5.43886 22.2469 35.016
613 1 9.07509 22.2332 33.7343
6752 2 8.16659 23.835 35.0035
10078 2 10.8951 22.2469 35.016
644 1 3.61818 25.4075 33.7084
629 1 0.889696 26.9943 33.6943
6767 2 2.7095 27.0108 34.9762
6766 2 5.43805 25.423 34.9903
603 1 6.34593 26.9943 33.6943
6749 2 8.16574 27.0108 34.9762
602 1 9.07442 25.4075 33.7084
10079 2 10.8943 25.423 34.9903
627 1 3.61744 28.581 33.6795
6760 2 2.70857 30.1858 34.946
628 1 0.888939 30.1673 33.6639
6769 2 5.43716 28.5984 34.9615
593 1 6.34518 30.1673 33.6639
6748 2 8.16481 30.1858 34.946
605 1 9.07368 28.581 33.6795
10070 2 10.8934 28.5984 34.9615
630 1 3.61668 31.7534 33.6476
6759 2 2.7076 33.3598 34.9129
623 1 0.888181 33.3392 33.6306
6758 2 5.43621 31.7729 34.9298
592 1 6.34442 33.3392 33.6306
6746 2 8.16384 33.3598 34.9129
591 1 9.07291 31.7534 33.6476
10071 2 10.8924 31.7729 34.9298
621 1 3.61594 34.9246 33.6129
6757 2 2.70665 36.5326 34.877
622 1 0.887499 36.5096 33.5945
6761 2 5.43524 34.9464 34.8953
586 1 6.34374 36.5096 33.5945
6745 2 8.16289 36.5326 34.877
594 1 9.07218 34.9246 33.6129
10069 2 10.8915 34.9464 34.8953
6958 2 0.894745 20.6847 37.5933
13217 1 2.71454 20.6979 38.8773
639 1 1.80284 19.0825 36.3231
6960 2 3.6233 19.0946 37.6041
6947 2 6.35098 20.6847 37.5933
13216 1 5.44316 19.1069 38.888
600 1 4.53055 20.6718 36.3123
610 1 7.25908 19.0825 36.3231
6946 2 9.07954 19.0946 37.6041
13182 1 8.17078 20.6979 38.8773
582 1 9.98679 20.6718 36.3123
16044 1 10.8994 19.1069 38.888
6957 2 0.893749 23.8646 37.5694
13213 1 2.71341 23.8797 38.8535
640 1 1.80199 22.2609 36.3007
6956 2 3.62239 22.2747 37.5817
6944 2 6.34999 23.8646 37.5694
13218 1 5.44212 22.2888 38.8658
599 1 4.52963 23.8499 36.2883
598 1 7.25823 22.2609 36.3007
6948 2 9.07862 22.2747 37.5817
13181 1 8.16965 23.8797 38.8535
581 1 9.98587 23.8499 36.2883
16042 1 10.8984 22.2888 38.8658
6954 2 0.892599 27.0442 37.5423
13212 1 2.71209 27.0611 38.8266
625 1 1.801 25.4388 36.2752
6959 2 3.62131 25.4545 37.5562
6943 2 6.34884 27.0442 37.5423
13211 1 5.44089 25.4704 38.8404
589 1 4.52857 27.0276 36.2613
601 1 7.25723 25.4388 36.2752
6942 2 9.07755 25.4545 37.5562
13176 1 8.16833 27.0611 38.8266
580 1 9.98481 27.0276 36.2613
16043 1 10.8971 25.4704 38.8404
6953 2 0.8913 30.2233 37.5124
13202 1 2.71058 30.2423 38.7968
626 1 1.79987 28.6162 36.2466
6952 2 3.62009 28.6338 37.5277
6940 2 6.34754 30.2233 37.5124
13214 1 5.43948 28.6518 38.812
588 1 4.52738 30.2046 36.2313
587 1 7.25611 28.6162 36.2466
6945 2 9.07633 28.6338 37.5277
13175 1 8.16681 30.2423 38.7968
579 1 9.98361 30.2046 36.2313
16040 1 10.8957 28.6518 38.812
6951 2 0.889867 33.4018 37.4796
13201 1 2.70887 33.4232 38.7642
619 1 1.79862 31.7929 36.2152
6955 2 3.61872 31.8126 37.4963
6939 2 6.3461 33.4018 37.4796
13200 1 5.43786 31.8328 38.7808
585 1 4.52607 33.3809 36.1985
590 1 7.25486 31.7929 36.2152
6938 2 9.07496 31.8126 37.4963
13162 1 8.16511 33.4232 38.7642
578 1 9.98231 33.3809 36.1985
16041 1 10.8941 31.8328 38.7808
6950 2 0.888327 36.5797 37.4442
13191 1 2.70697 36.6038 38.7291
620 1 1.79727 34.9687 36.1811
6949 2 3.61723 34.9908 37.4623
6937 2 6.34457 36.5797 37.4442
13203 1 5.43606 35.0135 38.747
584 1 4.5247 36.5563 36.1631
583 1 7.25351 34.9687 36.1811
6941 2 9.07347 34.9908 37.4623
13161 1 8.16321 36.6038 38.7291
577 1 9.98093 36.5563 36.1631
16039 1 10.8923 35.0135 38.747
18839 2 1.80776 19.1191 40.1684
13209 1 0.899295 20.7242 41.441
13215 1 3.62797 19.1315 41.4518
18826 2 4.53537 20.7109 40.1577
13179 1 6.35553 20.7242 41.441
18828 2 7.264 19.1191 40.1684
13178 1 9.08421 19.1315 41.4518
18780 2 9.99161 20.7109 40.1577
18840 2 1.80669 22.3027 40.1461
13208 1 0.898029 23.9096 41.4172
13207 1 3.62681 22.3169 41.4295
18825 2 4.5342 23.8945 40.1338
13173 1 6.35427 23.9096 41.4172
18824 2 7.26293 22.3027 40.1461
13180 1 9.08305 22.3169 41.4295
18779 2 9.99044 23.8945 40.1338
18836 2 1.80543 25.4862 40.1207
13198 1 0.896546 27.095 41.3902
13210 1 3.62543 25.5023 41.4041
18818 2 4.53284 27.0779 40.1068
13172 1 6.35278 27.095 41.3902
18827 2 7.26167 25.4862 40.1207
13171 1 9.08167 25.5023 41.4041
18778 2 9.98908 27.0779 40.1068
18837 2 1.80397 28.6695 40.0922
13197 1 0.894835 30.2803 41.3603
13196 1 3.62384 28.6876 41.3756
18817 2 4.53129 30.2611 40.0769
13159 1 6.35107 30.2803 41.3603
18816 2 7.26021 28.6695 40.0922
13174 1 9.08008 28.6876 41.3756
18771 2 9.98753 30.2611 40.0769
18832 2 1.80232 31.8527 40.0609
13190 1 0.892885 33.4658 41.3276
13199 1 3.62201 31.873 41.3443
13158 1 6.34912 33.4658 41.3276
18804 2 4.52954 33.4442 40.0442
18819 2 7.25856 31.8527 40.0609
13157 1 9.07825 31.873 41.3443
18770 2 9.98578 33.4442 40.0442
18833 2 1.80047 35.0357 40.0268
13189 1 0.890686 36.6516 41.2922
18789 2 2.71206 36.675 42.5705
13188 1 3.61994 35.0587 41.3102
13141 1 6.34692 36.6516 41.2922
18801 2 5.44127 35.0809 42.5888
18803 2 4.5276 36.6273 40.0087
18802 2 7.25671 35.0357 40.0268
13160 1 9.07617 35.0587 41.3102
18753 2 8.1683 36.675 42.5705
18755 2 9.98384 36.6273 40.0087
21649 2 10.8975 35.0809 42.5888
18822 2 2.72052 20.7374 42.7207
13205 1 1.81352 19.1562 44.0143
18810 2 0.906426 20.7639 45.2825
18820 2 3.63512 19.1685 45.2934
18821 2 5.44919 19.1437 42.7315
13169 1 4.54106 20.7507 44.0035
18774 2 6.36266 20.7639 45.2825
13177 1 7.26976 19.1562 44.0143
18777 2 8.17675 20.7374 42.7207
13116 1 9.99729 20.7507 44.0035
18773 2 9.09135 19.1685 45.2934
21658 2 10.9054 19.1437 42.7315
18814 2 2.71925 23.9245 42.6968
13206 1 1.8123 22.3452 43.9919
18809 2 0.905136 23.9547 45.2583
18808 2 3.63393 22.3593 45.2708
18823 2 5.44803 22.331 42.7092
13168 1 4.53973 23.9397 43.9794
18766 2 6.36137 23.9547 45.2583
13167 1 7.26854 22.3452 43.9919
18776 2 8.17549 23.9245 42.6968
13115 1 9.99597 23.9397 43.9794
18775 2 9.09016 22.3593 45.2708
21654 2 10.9043 22.331 42.7092
18813 2 2.71778 27.1118 42.6696
13194 1 1.81087 25.5343 43.9662
18796 2 0.903643 27.1458 45.2309
18811 2 3.63253 25.5502 45.245
18812 2 5.44666 25.5182 42.6836
13155 1 4.53818 27.1289 43.9522
18765 2 6.35988 27.1458 45.2309
13170 1 7.26711 25.5343 43.9662
18769 2 8.17402 27.1118 42.6696
13114 1 9.99442 27.1289 43.9522
18764 2 9.08877 25.5502 45.245
21655 2 10.9029 25.5182 42.6836
18800 2 2.71609 30.2992 42.6395
13195 1 1.80921 28.7236 43.9375
18795 2 0.90194 30.3373 45.2002
18794 2 3.63094 28.7415 45.2159
18815 2 5.44508 28.7055 42.6549
13154 1 4.5364 30.3185 43.922
18751 2 6.35818 30.3373 45.2002
13153 1 7.26544 28.7236 43.9375
18768 2 8.17233 30.2992 42.6395
13107 1 9.99264 30.3185 43.922
18767 2 9.08718 28.7415 45.2159
21650 2 10.9013 28.7055 42.6549
18799 2 2.71419 33.4868 42.6064
13186 1 1.8073 31.9134 43.9057
18788 2 0.900025 33.5294 45.1664
18797 2 3.62913 31.9333 45.1837
18798 2 5.44329 31.893 42.6233
13140 1 4.53438 33.5085 43.8887
18750 2 6.35626 33.5294 45.1664
13156 1 7.26354 31.9134 43.9057
18754 2 8.17043 33.4868 42.6064
13106 1 9.99062 33.5085 43.8887
18749 2 9.08537 31.9333 45.1837
21651 2 10.8995 31.893 42.6233
13187 1 1.80515 35.1039 43.871
18787 2 0.897898 36.7226 45.1297
18786 2 3.62711 35.1259 45.1484
13139 1 4.53209 36.6995 43.8526
18734 2 6.35414 36.7226 45.1297
13138 1 7.26139 35.1039 43.871
13091 1 9.98833 36.6995 43.8526
18752 2 9.08335 35.1259 45.1484
13147 1 0.91436 20.804 49.1246
13165 1 2.72734 20.7773 46.5646
18806 2 1.82176 19.1935 47.8541
13110 1 6.3706 20.804 49.1246
13163 1 3.64304 19.206 49.1356
13164 1 5.45604 19.1811 46.5755
18762 2 4.54932 20.7906 47.8431
13109 1 9.09928 19.206 49.1356
13113 1 8.18358 20.7773 46.5646
18714 2 10.0056 20.7906 47.8431
18772 2 7.278 19.1935 47.8541
16024 1 10.9123 19.1811 46.5755
13146 1 0.91311 24.0003 49.0998
13151 1 2.72602 23.97 46.5403
18807 2 1.8206 22.3877 47.8312
13102 1 6.36935 24.0003 49.0998
13145 1 3.64188 22.4021 49.1126
13166 1 5.45483 22.3736 46.5529
18761 2 4.54807 23.985 47.8185
13111 1 9.09811 22.4021 49.1126
13112 1 8.18226 23.97 46.5403
18713 2 10.0043 23.985 47.8185
18760 2 7.27684 22.3877 47.8312
16012 1 10.9111 22.3736 46.5529
13132 1 0.911683 27.1971 49.0715
13150 1 2.7245 27.163 46.5126
18792 2 1.81925 25.5824 47.8049
13101 1 6.36792 27.1971 49.0715
13148 1 3.64054 25.5986 49.0861
13149 1 5.45341 25.5664 46.5269
18747 2 4.54663 27.1799 47.7905
13100 1 9.09678 25.5986 49.0861
13105 1 8.18074 27.163 46.5126
18712 2 10.0029 27.1799 47.7905
18763 2 7.27549 25.5824 47.8049
16013 1 10.9096 25.5664 46.5269
13131 1 0.910081 30.3946 49.0398
13136 1 2.72277 30.3566 46.4817
18793 2 1.81772 28.7775 47.7752
13087 1 6.36632 30.3946 49.0398
13130 1 3.63902 28.7957 49.0561
13152 1 5.45178 28.7597 46.4976
18746 2 4.545 30.3753 47.7591
18745 2 7.27396 28.7775 47.7752
13103 1 9.09526 28.7957 49.0561
13104 1 8.17901 30.3566 46.4817
18705 2 10.0012 30.3753 47.7591
16004 1 10.908 28.7597 46.4976
13124 1 0.908306 33.5934 49.0047
13135 1 2.72081 33.5511 46.4477
18784 2 1.81601 31.9734 47.7422
13133 1 3.63733 31.9938 49.0227
13086 1 6.36454 33.5934 49.0047
13134 1 5.44994 31.9537 46.4651
18733 2 4.5432 33.5718 47.7244
18748 2 7.27225 31.9734 47.7422
13085 1 9.09357 31.9938 49.0227
13090 1 8.17705 33.5511 46.4477
18704 2 9.99944 33.5718 47.7244
16005 1 10.9062 31.9537 46.4651
13123 1 0.906362 36.7938 48.9661
13125 1 2.71863 36.747 46.4105
18785 2 1.81412 35.1705 47.7058
13122 1 3.63547 35.1933 48.9858
13072 1 6.3626 36.7938 48.9661
13137 1 5.44787 35.1488 46.4295
18732 2 4.54123 36.7697 47.6864
18731 2 7.27036 35.1705 47.7058
13088 1 9.09171 35.1933 48.9858
13089 1 8.17487 36.747 46.4105
18693 2 9.99747 36.7697 47.6864
16003 1 10.9041 35.1488 46.4295
13143 1 1.83072 19.2311 51.6946
18758 2 2.7367 20.8173 50.4024
18805 2 0.0091083 19.2185 50.4136
13098 1 4.55832 20.8308 51.6833
18757 2 5.46535 19.2185 50.4136
13056 1 10.0146 20.8308 51.6833
13108 1 7.28696 19.2311 51.6946
18711 2 8.19293 20.8173 50.4024
13144 1 1.82964 22.4307 51.6711
18743 2 2.73552 24.0153 50.3774
18790 2 0.00800583 22.4163 50.3903
13097 1 4.55717 24.0306 51.658
18759 2 5.46424 22.4163 50.3903
13055 1 10.0134 24.0306 51.658
13096 1 7.28588 22.4307 51.6711
18710 2 8.19175 24.0153 50.3774
13128 1 1.82843 25.6308 51.644
18742 2 2.73419 27.2139 50.3487
18791 2 0.00675062 25.6145 50.3635
13083 1 4.55589 27.2311 51.6291
18741 2 5.46299 25.6145 50.3635
13054 1 10.0121 27.2311 51.6291
13099 1 7.28466 25.6308 51.644
18703 2 8.19043 27.2139 50.3487
13129 1 1.82708 28.8316 51.6132
18729 2 2.73271 30.4132 50.3165
18782 2 0.00534894 28.8134 50.3331
13082 1 4.55447 30.4324 51.5964
18744 2 5.46159 28.8134 50.3331
13048 1 10.0107 30.4324 51.5964
13081 1 7.28331 28.8316 51.6132
18702 2 8.18895 30.4132 50.3165
13120 1 1.8256 32.0336 51.5787
18728 2 2.73111 33.6138 50.2807
18783 2 0.00380917 32.0133 50.299
13071 1 4.55295 33.6351 51.56
18727 2 5.46005 32.0133 50.299
13047 1 10.0092 33.6351 51.56
13084 1 7.28184 32.0336 51.5787
18692 2 8.18735 33.6138 50.2807
13121 1 1.82402 35.2372 51.5404
18720 2 2.72938 36.816 50.2411
18781 2 0.00214222 35.2146 50.2614
13070 1 4.55132 36.8398 51.5198
18730 2 5.45838 35.2146 50.2614
13040 1 10.0076 36.8398 51.5198
13069 1 7.28026 35.2372 51.5404
18691 2 8.18562 36.816 50.2411
13094 1 2.74669 20.8577 54.241
13142 1 0.0190502 19.2562 54.2525
18735 2 1.84199 19.2686 55.5293
18739 2 0.924744 20.8441 52.9606
13093 1 5.47529 19.2562 54.2525
18696 2 4.56966 20.8709 55.5177
18708 2 6.38098 20.8441 52.9606
18756 2 3.65336 19.2435 52.972
13053 1 8.20293 20.8577 54.241
18678 2 10.0259 20.8709 55.5177
18706 2 7.29823 19.2686 55.5293
18707 2 9.10959 19.2435 52.972
13079 1 2.74566 24.061 54.2151
13126 1 0.0180725 22.4592 54.2285
18736 2 1.84106 22.4734 55.5051
18738 2 0.923667 24.0456 52.935
13095 1 5.47431 22.4592 54.2285
18695 2 4.56869 24.0759 55.4916
18700 2 6.37991 24.0456 52.935
18737 2 3.65234 22.4448 52.9483
13052 1 8.2019 24.061 54.2151
18677 2 10.0249 24.0759 55.4916
18694 2 7.2973 22.4734 55.5051
18709 2 9.10858 22.4448 52.9483
13078 1 2.74454 27.2649 54.1854
13127 1 0.0169933 25.6628 54.2007
18721 2 1.84006 25.6786 55.477
18725 2 0.922479 27.2478 52.9057
13077 1 5.47323 25.6628 54.2007
18685 2 4.56765 27.2815 55.4614
18699 2 6.37872 27.2478 52.9057
18740 2 3.65121 25.6466 52.9208
13046 1 8.20078 27.2649 54.1854
18676 2 10.0239 27.2815 55.4614
18697 2 7.2963 25.6786 55.477
18698 2 9.10744 25.6466 52.9208
13067 1 2.74334 30.4699 54.1517
13118 1 0.0158291 28.8673 54.1691
18722 2 1.83898 28.8847 55.4449
18724 2 0.921193 30.4508 52.8725
13080 1 5.47207 28.8673 54.1691
18684 2 4.56655 30.4881 55.4273
18689 2 6.37743 30.4508 52.8725
18723 2 3.64997 28.8492 52.8895
13045 1 8.19958 30.4699 54.1517
18675 2 10.0228 30.4881 55.4273
18683 2 7.29522 28.8847 55.4449
18701 2 9.1062 28.8492 52.8895
13066 1 2.74208 33.6763 54.114
13119 1 0.0145969 32.0729 54.1334
18715 2 1.83786 32.0919 55.4086
18719 2 0.919822 33.6552 52.8354
18726 2 3.64864 32.0528 52.8544
18688 2 6.37606 33.6552 52.8354
13065 1 5.47084 32.0729 54.1334
18681 2 4.56541 33.696 55.3889
18687 2 9.10487 32.0528 52.8544
18686 2 7.2941 32.0919 55.4086
18674 2 10.0216 33.696 55.3889
13039 1 8.19832 33.6763 54.114
18718 2 0.91838 36.8614 52.7943
18716 2 1.83671 35.3006 55.3681
13117 1 0.0133124 35.2802 54.0936
13060 1 2.74077 36.8846 54.0721
18717 2 3.64723 35.258 52.8153
18682 2 6.37462 36.8614 52.7943
18680 2 4.56423 36.9057 55.3463
13068 1 5.46955 35.2802 54.0936
18690 2 9.10347 35.258 52.8153
18679 2 7.29295 35.3006 55.3681
18673 2 10.0205 36.9057 55.3463
13038 1 8.19701 36.8846 54.0721
19025 2 2.75891 20.8977 58.0738
19032 2 0.0312053 19.2937 58.0857
13075 1 0.935671 20.8845 56.7976
19024 2 5.48744 19.2937 58.0857
13050 1 6.39191 20.8845 56.7976
13092 1 3.66422 19.2813 56.8093
18990 2 8.21515 20.8977 58.0738
13049 1 9.12046 19.2813 56.8093
19021 2 2.75804 24.1061 58.0471
19030 2 0.030361 22.5019 58.061
13074 1 0.934755 24.0912 56.7712
19026 2 5.4866 22.5019 58.061
13043 1 6.39099 24.0912 56.7712
13073 1 3.66334 22.4878 56.7849
18989 2 8.21427 24.1061 58.0471
13051 1 9.11958 22.4878 56.7849
19020 2 2.75712 27.3151 58.0163
19031 2 0.0294632 25.7105 58.0322
13063 1 0.933785 27.2986 56.7407
19019 2 5.4857 25.7105 58.0322
13042 1 6.39002 27.2986 56.7407
13076 1 3.66239 25.6948 56.7564
18984 2 8.21336 27.3151 58.0163
13041 1 9.11863 25.6948 56.7564
19010 2 2.75618 30.525 57.9811
19028 2 0.028535 28.9199 57.9992
13062 1 0.932784 30.507 56.706
13369 1 4.57892 30.5437 59.2595
19022 2 5.48477 28.9199 57.9992
13036 1 6.38902 30.507 56.706
13061 1 3.66141 28.9027 56.7239
13323 1 10.0352 30.5437 59.2595
18983 2 8.21242 30.525 57.9811
13044 1 9.11764 28.9027 56.7239
13384 1 1.85038 32.15 59.24
19009 2 2.75524 33.7361 57.9416
19029 2 0.0275927 32.1304 57.9619
13059 1 0.931769 33.7168 56.667
13356 1 4.57809 33.7565 59.2194
19008 2 5.48383 32.1304 57.9619
13035 1 6.38801 33.7168 56.667
13064 1 3.6604 32.1117 56.6871
13322 1 10.0343 33.7565 59.2194
13371 1 7.30662 32.15 59.24
18970 2 8.21148 33.7361 57.9416
13034 1 9.11663 32.1117 56.6871
13385 1 1.84957 35.3635 59.1976
18999 2 2.75428 36.9489 57.8976
19027 2 0.0266406 35.3423 57.9202
13058 1 0.930747 36.9283 56.6236
13355 1 4.57728 36.9709 59.1746
19011 2 5.48288 35.3423 57.9202
13033 1 6.38699 36.9283 56.6236
13057 1 3.65938 35.3223 56.6459
13307 1 10.0335 36.9709 59.1746
13354 1 7.3058 35.3635 59.1976
18969 2 8.21051 36.9489 57.8976
13037 1 9.11562 35.3223 56.6459
13391 1 1.85371 19.3065 59.3652
13374 1 2.77146 20.9381 61.9082
13390 1 0.0437182 19.3316 61.9203
19017 2 0.948693 20.9245 60.629
13378 1 4.58144 20.9113 59.3533
13373 1 5.49996 19.3316 61.9203
18987 2 6.40493 20.9245 60.629
19023 2 3.6772 19.3188 60.641
13332 1 10.0377 20.9113 59.3533
13380 1 7.30995 19.3065 59.3652
13329 1 8.2277 20.9381 61.9082
18986 2 9.13344 19.3188 60.641
13392 1 1.85291 22.5163 59.3403
13366 1 2.77068 24.1515 61.8807
13386 1 0.0429519 22.5447 61.895
19016 2 0.947882 24.1362 60.6018
13377 1 4.58061 24.1214 59.3263
13375 1 5.49919 22.5447 61.895
18981 2 6.40412 24.1362 60.6018
19015 2 3.67641 22.5303 60.6159
13331 1 10.0368 24.1214 59.3263
13376 1 7.30915 22.5163 59.3403
13328 1 8.22692 24.1515 61.8807
18988 2 9.13265 22.5303 60.6159
13388 1 1.85207 25.7267 59.3112
13365 1 2.7699 27.3654 61.8489
13387 1 0.0421698 25.7584 61.8653
19006 2 0.947053 27.3485 60.5702
13370 1 4.57976 27.3321 59.2951
13364 1 5.49841 25.7584 61.8653
18980 2 6.40329 27.3485 60.5702
19018 2 3.67559 25.7422 60.5865
13330 1 10.036 27.3321 59.2951
13379 1 7.30831 25.7267 59.3112
13321 1 8.22614 27.3654 61.8489
18979 2 9.13183 25.7422 60.5865
13389 1 1.85122 28.9378 59.2778
13352 1 2.76915 30.5801 61.8125
13382 1 0.0414029 28.9726 61.8313
19005 2 0.946227 30.5615 60.5343
13367 1 5.49764 28.9726 61.8313
18967 2 6.40247 30.5615 60.5343
19004 2 3.67476 28.9549 60.5528
13368 1 7.30746 28.9378 59.2778
13320 1 8.22539 30.5801 61.8125
18982 2 9.131 28.9549 60.5528
13351 1 2.76843 33.7957 61.7714
13383 1 0.0406698 32.1877 61.7925
18998 2 0.945409 33.7756 60.4938
13350 1 5.49691 32.1877 61.7925
18966 2 6.40165 33.7756 60.4938
19007 2 3.67394 32.1684 60.5146
13306 1 8.22467 33.7957 61.7714
18965 2 9.13018 32.1684 60.5146
13341 1 2.76773 37.0125 61.7255
13381 1 0.0399614 35.4039 61.7491
18997 2 0.944581 36.991 60.4485
13353 1 5.4962 35.4039 61.7491
18949 2 6.40082 36.991 60.4485
18996 2 3.67312 35.3832 60.4717
13305 1 8.22397 37.0125 61.7255
18968 2 9.12936 35.3832 60.4717
13362 1 0.961899 20.9649 64.4626
18973 2 2.7859 20.9775 65.7362
19012 2 0.0581818 19.3685 65.7486
19013 2 1.86747 19.3437 63.1954
13326 1 6.41814 20.9649 64.4626
13372 1 3.6904 19.3567 64.4749
18972 2 5.51442 19.3685 65.7486
18977 2 4.5952 20.9511 63.1832
13325 1 9.14664 19.3567 64.4749
18921 2 8.24214 20.9775 65.7362
18924 2 10.0514 20.9511 63.1832
18985 2 7.3237 19.3437 63.1954
13361 1 0.961115 24.1815 64.4347
18959 2 2.78508 24.1957 65.7082
19000 2 0.0573727 22.5865 65.7228
19014 2 1.86669 22.5585 63.1699
13318 1 6.41735 24.1815 64.4347
13360 1 3.68963 22.5732 64.4492
18974 2 5.51361 22.5865 65.7228
18976 2 4.59441 24.1661 63.1555
13327 1 9.14587 22.5732 64.4492
18920 2 8.24131 24.1957 65.7082
18923 2 10.0506 24.1661 63.1555
18975 2 7.32293 22.5585 63.1699
13348 1 0.960338 27.3986 64.4024
18958 2 2.78424 27.4144 65.6757
19001 2 0.0565385 25.805 65.6925
19002 2 1.86589 25.7737 63.14
13317 1 6.41658 27.3986 64.4024
13363 1 3.68884 25.79 64.4191
18957 2 5.51278 25.805 65.6925
18963 2 4.59361 27.3816 63.1234
13316 1 9.14508 25.79 64.4191
18913 2 8.24048 27.4144 65.6757
18922 2 10.0498 27.3816 63.1234
18978 2 7.32213 25.7737 63.14
13347 1 0.959594 30.6162 64.3654
18944 2 2.78342 30.6335 65.6386
18992 2 0.0557088 29.0239 65.6577
19003 2 1.8651 28.9895 63.1057
13303 1 6.41583 30.6162 64.3654
13346 1 3.68808 29.0073 64.3845
18960 2 5.51195 29.0239 65.6577
18962 2 4.59283 30.5977 63.0868
13319 1 9.14432 29.0073 64.3845
18912 2 8.23966 30.6335 65.6386
18915 2 10.0491 30.5977 63.0868
18961 2 7.32133 28.9895 63.1057
13340 1 0.958897 33.8344 64.3236
18943 2 2.78262 33.8531 65.5967
18993 2 0.0549008 32.2432 65.6182
18994 2 1.86432 32.206 63.0667
13302 1 6.41514 33.8344 64.3236
13349 1 3.68736 32.2252 64.3451
18942 2 5.51114 32.2432 65.6182
18948 2 4.59206 33.8146 63.0455
13301 1 9.14359 32.2252 64.3451
18898 2 8.23886 33.8531 65.5967
18914 2 10.0483 33.8146 63.0455
18964 2 7.32056 32.206 63.0667
13339 1 0.958186 37.0533 64.2769
18933 2 2.7818 37.0731 65.55
18991 2 0.0541063 35.463 65.5739
18995 2 1.86355 35.4234 63.023
13286 1 6.41442 37.0533 64.2769
13338 1 3.68665 35.4438 64.3009
18945 2 5.51034 35.463 65.5739
18947 2 4.59127 37.0324 62.9993
13304 1 9.14289 35.4438 64.3009
18897 2 8.23804 37.0731 65.55
18899 2 10.0475 37.0324 62.9993
18946 2 7.31979 35.4234 63.023
13358 1 1.88111 19.3825 67.0299
18955 2 0.976918 21.0033 68.2873
13314 1 4.60881 20.9923 67.0175
18918 2 6.43316 21.0033 68.2873
18971 2 3.70547 19.3927 68.2998
13266 1 10.0651 20.9923 67.0175
13324 1 7.33735 19.3825 67.0299
18917 2 9.16171 19.3927 68.2998
13359 1 1.88027 22.6022 67.004
18954 2 0.976009 24.2248 68.2591
13313 1 4.60796 24.2122 66.9893
18910 2 6.43225 24.2248 68.2591
18953 2 3.70459 22.614 68.2737
13265 1 10.0642 24.2122 66.9893
13312 1 7.33651 22.6022 67.004
18919 2 9.16083 22.614 68.2737
13344 1 1.87941 25.8222 66.9736
18940 2 0.975075 27.4467 68.2263
13299 1 4.6071 27.4323 66.9567
18909 2 6.43131 27.4467 68.2263
18956 2 3.70366 25.8357 68.2432
13264 1 10.0633 27.4323 66.9567
13315 1 7.33565 25.8222 66.9736
18908 2 9.1599 25.8357 68.2432
13345 1 1.87856 29.0425 66.9386
18939 2 0.97414 30.6688 68.1888
13298 1 4.60626 30.6528 66.9193
18895 2 6.43038 30.6688 68.1888
18938 2 3.70273 29.0577 68.2082
13257 1 10.0625 30.6528 66.9193
13297 1 7.33479 29.0425 66.9386
18911 2 9.15896 29.0577 68.2082
13336 1 1.87773 32.2631 66.8988
18932 2 0.973207 33.8911 68.1466
13285 1 4.60544 33.8734 66.8771
18894 2 6.42945 33.8911 68.1466
18941 2 3.70179 32.2799 68.1683
13256 1 10.0617 33.8734 66.8771
13300 1 7.33397 32.2631 66.8988
18893 2 9.15803 32.2799 68.1683
13337 1 1.87691 35.4839 66.8542
18931 2 0.972241 37.1135 68.0996
13284 1 4.60468 37.0939 66.83
18880 2 6.42848 37.1135 68.0996
18930 2 3.70085 35.5023 68.1237
13245 1 10.0609 37.0939 66.83
13283 1 7.33315 35.4839 66.8542
18896 2 9.15709 35.5023 68.1237
13291 1 0.984367 21.0451 72.1521
13310 1 2.79898 21.0185 69.5765
13357 1 0.0713281 19.407 69.589
18951 2 1.89654 19.4154 70.8462
13260 1 6.44061 21.0451 72.1521
13308 1 3.71304 19.432 72.1647
13309 1 5.52757 19.407 69.589
18906 2 4.62417 21.0277 70.8337
13259 1 9.16928 19.432 72.1647
13263 1 8.25522 21.0185 69.5765
18864 2 10.0804 21.0277 70.8337
18916 2 7.35278 19.4154 70.8462
13290 1 0.983197 24.2713 72.1236
13295 1 2.79801 24.2415 69.5481
13342 1 0.0703796 22.63 69.5629
18952 2 1.89555 22.6401 70.82
13252 1 6.43944 24.2713 72.1236
13289 1 3.71191 22.6582 72.1384
13311 1 5.52662 22.63 69.5629
18905 2 4.62314 24.2525 70.8053
13261 1 9.16815 22.6582 72.1384
13262 1 8.25424 24.2415 69.5481
18863 2 10.0794 24.2525 70.8053
18904 2 7.35178 22.6401 70.82
13277 1 0.981983 27.4976 72.0906
13294 1 2.79701 27.4648 69.5152
13343 1 0.0693881 25.8531 69.5322
18936 2 1.89449 25.865 70.7894
13251 1 6.43822 27.4976 72.0906
13292 1 3.71071 25.8844 72.1077
13293 1 5.52563 25.8531 69.5322
18891 2 4.62207 27.4776 70.7723
13250 1 9.16695 25.8844 72.1077
13255 1 8.25325 27.4648 69.5152
18862 2 10.0783 27.4776 70.7723
18907 2 7.35073 25.865 70.7894
13276 1 0.980773 30.7237 72.0528
13281 1 2.79602 30.6881 69.4776
13334 1 0.0683908 29.0764 69.497
18937 2 1.89341 29.0902 70.7541
13241 1 6.43701 30.7237 72.0528
13275 1 3.70949 29.1107 72.0723
13296 1 5.52463 29.0764 69.497
18890 2 4.62098 30.7028 70.7347
13253 1 9.16573 29.1107 72.0723
13254 1 8.25226 30.6881 69.4776
18856 2 10.0772 30.7028 70.7347
18889 2 7.34965 29.0902 70.7541
13271 1 0.979599 33.9495 72.0103
13280 1 2.79505 33.9114 69.4351
13335 1 0.0674115 32.2998 69.457
18928 2 1.89232 32.3154 70.7141
13240 1 6.43584 33.9495 72.0103
13278 1 3.7083 32.3367 72.0322
13279 1 5.52365 32.2998 69.457
18879 2 4.6199 33.9281 70.6924
13239 1 9.16454 32.3367 72.0322
13244 1 8.25129 33.9114 69.4351
18855 2 10.0761 33.9281 70.6924
18892 2 7.34856 32.3154 70.7141
13270 1 0.978457 37.1747 71.9631
13272 1 2.79407 37.1345 69.3879
13333 1 0.0664444 35.523 69.4121
18929 2 1.89122 35.5406 70.6694
13234 1 6.4347 37.1747 71.9631
13269 1 3.70715 35.5622 71.9873
13282 1 5.52268 35.523 69.4121
18878 2 4.61878 37.153 70.6453
13242 1 9.16338 35.5622 71.9873
13243 1 8.25031 37.1345 69.3879
18848 2 10.075 37.153 70.6453
18877 2 7.34746 35.5406 70.6694
13287 1 1.83944 19.4686 74.8159
18883 2 0.975286 21.082 75.8398
18902 2 2.81344 21.051 73.3655
18950 2 0.0858837 19.437 73.3781
13248 1 4.56684 21.0832 74.8033
18858 2 6.43152 21.082 75.8398
18900 2 3.70409 19.4666 75.8524
18901 2 5.54212 19.437 73.3781
13230 1 10.0231 21.0832 74.8033
13258 1 7.29568 19.4686 74.8159
18857 2 9.16033 19.4666 75.8524
18861 2 8.26968 21.051 73.3655
13288 1 1.83798 22.6978 74.7896
18882 2 0.973824 24.3128 75.8113
18887 2 2.81225 24.279 73.337
18934 2 0.0847394 22.665 73.3518
13247 1 4.56535 24.3122 74.7748
18851 2 6.43006 24.3128 75.8113
18881 2 3.70269 22.6974 75.8261
18903 2 5.54098 22.665 73.3518
13229 1 10.0216 24.3122 74.7748
13246 1 7.29422 22.6978 74.7896
18859 2 9.15892 22.6974 75.8261
18860 2 8.26849 24.279 73.337
13273 1 1.83648 25.9264 74.7589
18871 2 0.972304 27.5435 75.7784
18886 2 2.81099 27.5074 73.304
18935 2 0.0835088 25.8932 73.3211
13237 1 4.56386 27.5405 74.7418
18850 2 6.42854 27.5435 75.7784
18884 2 3.70119 25.9282 75.7954
18885 2 5.53975 25.8932 73.3211
13228 1 10.0201 27.5405 74.7418
13249 1 7.29272 25.9264 74.7589
18849 2 9.15742 25.9282 75.7954
18854 2 8.26723 27.5074 73.304
13274 1 1.83504 29.1544 74.7236
18870 2 0.970813 30.774 75.7409
18875 2 2.80972 30.7359 73.2663
18926 2 0.0822364 29.1216 73.2857
13236 1 4.56251 30.7681 74.7042
18844 2 6.42705 30.774 75.7409
18869 2 3.69967 29.1588 75.7602
18888 2 5.53847 29.1216 73.2857
13227 1 10.0187 30.7681 74.7042
13235 1 7.29128 29.1544 74.7236
18852 2 9.15591 29.1588 75.7602
18853 2 8.26595 30.7359 73.2663
13267 1 1.83381 32.3815 74.6836
18867 2 0.969437 34.0038 75.6989
18874 2 2.80844 33.9642 73.224
18927 2 0.0809598 32.3501 73.2458
13233 1 4.56143 33.9947 74.6619
18843 2 6.42568 34.0038 75.6989
18872 2 3.69823 32.389 75.7204
18873 2 5.5372 32.3501 73.2458
13226 1 10.0177 33.9947 74.6619
13238 1 7.29004 32.3815 74.6836
18842 2 9.15446 32.389 75.7204
18847 2 8.26468 33.9642 73.224
13268 1 1.83291 35.6075 74.639
18866 2 0.968231 37.2325 75.6524
18868 2 2.80717 37.1919 73.1771
18925 2 0.079691 35.5781 73.2011
13232 1 4.56073 37.2199 74.615
18841 2 6.42447 37.2325 75.6524
18865 2 3.69693 35.6183 75.6761
18876 2 5.53593 35.5781 73.2011
13225 1 10.017 37.2199 74.615
13231 1 7.28915 35.6075 74.639
18845 2 9.15317 35.6183 75.6761
18846 2 8.26341 37.1919 73.1771
7137 2 0.914115 39.1502 -1.17868
7145 2 2.73052 39.1164 -3.68226
960 1 1.82058 40.7105 -2.64538
7150 2 0.00419819 40.6891 -3.70564
946 1 4.54552 39.1372 -2.62156
7107 2 6.37035 39.1502 -1.17868
7135 2 3.64333 40.723 -1.20255
7146 2 5.46044 40.6891 -3.70564
900 1 10.0018 39.1372 -2.62156
7110 2 8.18676 39.1164 -3.68226
944 1 7.27682 40.7105 -2.64538
7108 2 9.09957 40.723 -1.20255
7136 2 0.916314 42.2965 -1.22678
7141 2 2.73415 42.2626 -3.72935
956 1 1.82727 43.8597 -2.694
7151 2 0.00790441 43.8372 -3.75329
945 1 4.552 42.2847 -2.66957
7101 2 6.37255 42.2965 -1.22678
7138 2 3.64553 43.8708 -1.25126
7139 2 5.46414 43.8372 -3.75329
899 1 10.0082 42.2847 -2.66957
7109 2 8.19039 42.2626 -3.72935
947 1 7.2835 43.8597 -2.694
7099 2 9.10177 43.8708 -1.25126
7126 2 0.9185 45.4459 -1.27587
7140 2 2.73792 45.4127 -3.77732
957 1 1.83423 47.0125 -2.7431
7148 2 0.0117075 46.9893 -3.80133
938 1 4.55884 45.4356 -2.71856
7100 2 6.37474 45.4459 -1.27587
7124 2 3.64771 47.0219 -1.30046
7142 2 5.46795 46.9893 -3.80133
898 1 10.0151 45.4356 -2.71856
7104 2 8.19415 45.4127 -3.77732
936 1 7.29047 47.0125 -2.7431
7102 2 9.10394 47.0219 -1.30046
7125 2 0.92067 48.5988 -1.32491
7130 2 2.74175 48.567 -3.82517
952 1 1.84131 50.169 -2.79162
7149 2 0.0155506 50.1458 -3.84872
937 1 4.56589 48.5903 -2.76751
7087 2 6.37691 48.5988 -1.32491
7127 2 3.64987 50.1766 -1.34907
7128 2 5.47179 50.1458 -3.84872
891 1 10.0221 48.5903 -2.76751
7103 2 8.19799 48.567 -3.82517
939 1 7.29755 50.169 -2.79162
7085 2 9.10611 50.1766 -1.34907
7118 2 0.92283 51.7555 -1.37279
7129 2 2.74559 51.7257 -3.87182
953 1 1.84829 53.3294 -2.83834
7147 2 0.0193729 53.3067 -3.89433
924 1 4.57294 51.7487 -2.81528
7086 2 6.37907 51.7555 -1.37279
7116 2 3.65203 53.3353 -1.39591
7131 2 5.47561 53.3067 -3.89433
890 1 10.0292 51.7487 -2.81528
7090 2 8.20183 51.7257 -3.87182
922 1 7.30453 53.3294 -2.83834
7088 2 9.10826 53.3353 -1.39591
7117 2 0.924981 54.9161 -1.41827
7119 2 2.74937 54.8889 -3.91609
1343 1 1.85497 56.4935 -2.88205
7560 2 0.0231031 56.4722 -3.93697
923 1 4.5798 54.911 -2.86065
7069 2 6.38122 54.9161 -1.41827
7551 2 3.65417 56.4979 -1.43974
7552 2 5.47934 56.4722 -3.93697
875 1 10.036 54.911 -2.86065
7089 2 8.20561 54.8889 -3.91609
1332 1 7.31121 56.4935 -2.88205
7514 2 9.11041 56.4979 -1.43974
942 1 2.73202 39.1693 0.0430212
954 1 0.00536064 40.7424 0.0189779
7134 2 1.82458 40.7592 1.34987
7097 2 4.55139 39.1861 1.37405
943 1 5.4616 40.7424 0.0189779
897 1 8.18826 39.1693 0.0430212
7044 2 10.0076 39.1861 1.37405
7095 2 7.28082 40.7592 1.34987
934 1 2.73495 42.3162 -0.00543419
955 1 0.00830212 43.8908 -0.0301001
7122 2 1.82721 43.907 1.30048
7096 2 4.55401 42.3328 1.32531
931 1 3.6462 43.9254 2.56498
932 1 5.46454 43.8908 -0.0301001
896 1 8.19119 42.3162 -0.00543419
7043 2 10.0103 42.3328 1.32531
884 1 9.10243 43.9254 2.56498
7098 2 7.28344 43.907 1.30048
916 1 0.919556 45.5003 2.53975
933 1 2.7379 45.466 -0.054895
950 1 0.0112531 47.042 -0.0796853
7123 2 1.82981 47.0575 1.25052
885 1 6.37579 45.5003 2.53975
7083 2 4.55663 45.4819 1.27551
914 1 3.64915 47.0758 2.51449
935 1 5.46749 47.042 -0.0796853
889 1 8.19414 45.466 -0.054895
7042 2 10.0129 45.4819 1.27551
887 1 9.10539 47.0758 2.51449
7081 2 7.28605 47.0575 1.25052
915 1 0.922486 48.6519 2.48936
920 1 2.74084 48.6188 -0.104329
951 1 0.0141819 50.1965 -0.128679
7114 2 1.83237 50.211 1.2011
871 1 6.37872 48.6519 2.48936
7082 2 4.55921 48.6339 1.22567
917 1 3.65205 50.2286 2.46451
918 1 5.47042 50.1965 -0.128679
888 1 8.19708 48.6188 -0.104329
7035 2 10.0155 48.6339 1.22567
869 1 9.10829 50.2286 2.46451
7084 2 7.28861 50.211 1.2011
908 1 0.92535 51.8061 2.4401
919 1 2.74375 51.775 -0.15258
949 1 0.0170596 53.3543 -0.175878
7115 2 1.83487 53.3675 1.15342
870 1 6.38159 51.8061 2.4401
7068 2 4.56175 51.7889 1.17697
906 1 3.65487 53.3843 2.41627
921 1 5.4733 53.3543 -0.175878
874 1 8.19999 51.775 -0.15258
7034 2 10.018 51.7889 1.17697
872 1 9.11111 53.3843 2.41627
7066 2 7.29111 53.3675 1.15342
907 1 0.928123 54.9631 2.39321
909 1 2.74659 54.9345 -0.198414
1342 1 0.0198515 56.5156 -0.220032
7541 2 1.8373 56.5274 1.10876
853 1 6.38436 54.9631 2.39321
7067 2 4.56422 54.9471 1.13064
1324 1 3.65759 56.5427 2.37108
1325 1 5.47609 56.5156 -0.220032
873 1 8.20283 54.9345 -0.198414
7019 2 10.0205 54.9471 1.13064
1277 1 9.11382 56.5427 2.37108
7513 2 7.29354 56.5274 1.10876
930 1 0.913635 39.2041 2.63925
7093 2 2.73228 39.2212 3.94033
927 1 1.8244 40.8122 5.19541
7120 2 0.00567179 40.7944 3.9159
894 1 6.36987 39.2041 2.63925
928 1 3.64323 40.7774 2.61485
882 1 4.55088 39.239 5.22011
7094 2 5.46191 40.7944 3.9159
895 1 9.09947 40.7774 2.61485
828 1 10.0071 39.239 5.22011
7041 2 8.18852 39.2212 3.94033
880 1 7.28063 40.8122 5.19541
929 1 0.916592 42.3511 2.59006
7079 2 2.73531 42.368 3.89106
912 1 1.82769 43.9598 5.14481
7121 2 0.00872029 43.9421 3.86592
886 1 6.37283 42.3511 2.59006
881 1 4.55416 42.3859 5.17027
7077 2 5.46496 43.9421 3.86592
827 1 10.0104 42.3859 5.17027
7040 2 8.19155 42.368 3.89106
883 1 7.28393 43.9598 5.14481
7078 2 2.73836 45.5167 3.84061
913 1 1.83096 47.1091 5.09343
7112 2 0.0117535 47.0918 3.81526
867 1 4.55745 45.5343 5.11915
7080 2 5.46799 47.0918 3.81526
826 1 10.0137 45.5343 5.11915
7033 2 8.1946 45.5167 3.84061
865 1 7.2872 47.1091 5.09343
7064 2 2.74137 48.6675 3.79002
904 1 1.83417 50.2603 5.04243
7113 2 0.014731 50.2437 3.76504
866 1 4.56069 48.6845 5.06781
7062 2 5.47097 50.2437 3.76504
819 1 10.0169 48.6845 5.06781
7032 2 8.19761 48.6675 3.79002
868 1 7.29041 50.2603 5.04243
7063 2 2.74431 51.8207 3.74048
905 1 1.83728 53.4133 4.99352
7111 2 0.0176239 53.3982 3.7165
852 1 4.56385 51.8367 5.01746
7065 2 5.47386 53.3982 3.7165
818 1 10.0201 51.8367 5.01746
7018 2 8.20055 51.8207 3.74048
850 1 7.29352 53.4133 4.99352
7053 2 2.74715 54.9764 3.69327
1310 1 1.84027 56.5691 4.94722
7540 2 0.0204081 56.5553 3.67095
851 1 4.56691 54.9909 4.9699
7500 2 5.47665 56.5553 3.67095
804 1 10.0231 54.9909 4.9699
7017 2 8.20339 54.9764 3.69327
1276 1 7.29651 56.5691 4.94722
878 1 2.73158 39.2727 7.79657
7075 2 0.913084 39.2557 6.51151
910 1 0.00525678 40.8459 7.77165
7072 2 1.82354 40.8626 9.0601
7026 2 4.54981 39.2893 9.08495
7038 2 6.36932 39.2557 6.51151
879 1 5.4615 40.8459 7.77165
7073 2 3.6429 40.8289 6.48684
825 1 8.18782 39.2727 7.79657
6984 2 10.0061 39.2893 9.08495
7024 2 7.27978 40.8626 9.0601
7039 2 9.09914 40.8289 6.48684
863 1 2.73519 42.4193 7.74623
7074 2 0.916488 42.4024 6.46172
911 1 0.00890137 43.993 7.72043
7056 2 1.82732 44.0094 9.00899
7025 2 4.55354 42.4359 9.03475
7030 2 6.37273 42.4024 6.46172
861 1 5.46514 43.993 7.72043
7076 2 3.64632 43.9762 6.43625
824 1 8.19143 42.4193 7.74623
6983 2 10.0098 42.4359 9.03475
7027 2 7.28356 44.0094 9.00899
7028 2 9.10256 43.9762 6.43625
862 1 2.73885 45.5669 7.69439
7060 2 0.919919 45.5504 6.41057
902 1 0.0125427 47.1411 7.66823
7057 2 1.83113 47.1569 8.95677
7011 2 4.55735 45.583 8.98295
7029 2 6.37616 45.5504 6.41057
864 1 5.46878 47.1411 7.66823
7058 2 3.64974 47.1249 6.3848
817 1 8.19509 45.5669 7.69439
6982 2 10.0136 45.583 8.98295
7009 2 7.28737 47.1569 8.95677
7031 2 9.10598 47.1249 6.3848
848 1 2.74246 48.7156 7.64211
7059 2 0.923306 48.6998 6.35912
903 1 0.0160998 50.2906 7.61622
7048 2 1.83489 50.3055 8.90461
7010 2 4.56114 48.7311 8.9306
7015 2 6.37954 48.6998 6.35912
846 1 5.47234 50.2906 7.61622
7061 2 3.65308 50.2752 6.33365
816 1 8.1987 48.7156 7.64211
6976 2 10.0174 48.7311 8.9306
7012 2 7.29113 50.3055 8.90461
7013 2 9.10932 50.2752 6.33365
847 1 2.74599 51.8659 7.59075
7052 2 0.926578 51.8511 6.30862
901 1 0.0195622 53.4418 7.56581
7049 2 1.83855 53.4557 8.8538
6999 2 4.56486 51.8804 8.87896
7014 2 6.38282 51.8511 6.30862
849 1 5.4758 53.4418 7.56581
7050 2 3.65634 53.4275 6.28412
803 1 8.20223 51.8659 7.59075
6975 2 10.0211 51.8804 8.87896
6997 2 7.29479 53.4557 8.8538
7016 2 9.11258 53.4275 6.28412
837 1 2.74934 55.0182 7.54156
7051 2 0.929799 55.0045 6.26032
1309 1 0.0228447 56.5951 7.51819
7479 2 1.84205 56.6076 8.80581
6998 2 4.56844 55.0314 8.82936
7000 2 6.38604 55.0045 6.26032
1261 1 5.47908 56.5951 7.51819
7499 2 3.65946 56.5821 6.23743
802 1 8.20558 55.0182 7.54156
6968 2 10.0247 55.0314 8.82936
7444 2 7.29829 56.6076 8.80581
7445 2 9.11569 56.5821 6.23743
859 1 0.911887 39.306 10.3721
7022 2 2.72991 39.3229 11.6596
7054 2 0.00376713 40.8961 11.6347
822 1 6.36813 39.306 10.3721
857 1 3.64195 40.8792 10.347
7023 2 5.46001 40.8961 11.6347
6981 2 8.18614 39.3229 11.6596
823 1 9.09819 40.8792 10.347
858 1 0.915809 42.4524 10.3214
7007 2 2.73392 42.4693 11.6092
7055 2 0.00787543 44.0424 11.5832
814 1 6.37205 42.4524 10.3214
860 1 3.64593 44.0256 10.2953
7005 2 5.46411 44.0424 11.5832
6980 2 8.19016 42.4693 11.6092
812 1 9.10217 44.0256 10.2953
844 1 0.919834 45.599 10.2689
7006 2 2.7381 45.6155 11.5568
7046 2 0.01209 47.1887 11.5302
813 1 6.37607 45.599 10.2689
842 1 3.64997 47.1725 10.2423
7008 2 5.46833 47.1887 11.5302
6974 2 8.19433 45.6155 11.5568
815 1 9.10621 47.1725 10.2423
843 1 0.923858 48.7462 10.2157
6995 2 2.74232 48.762 11.5035
7047 2 0.0163066 50.3356 11.477
800 1 6.3801 48.7462 10.2157
845 1 3.65396 50.3202 10.1892
6993 2 5.47255 50.3356 11.477
6973 2 8.19856 48.762 11.5035
798 1 9.1102 50.3202 10.1892
836 1 0.927802 51.8945 10.163
6994 2 2.74651 51.9093 11.4506
7045 2 0.0204366 53.4834 11.4247
799 1 6.38404 51.8945 10.163
834 1 3.65783 53.4692 10.1373
6996 2 5.47668 53.4834 11.4247
6967 2 8.20274 51.9093 11.4506
801 1 9.11407 53.4692 10.1373
835 1 0.931589 55.0443 10.1123
6988 2 2.75057 55.0578 11.3995
7478 2 0.0244191 56.6326 11.3751
789 1 6.38783 55.0443 10.1123
1260 1 3.66153 56.6198 10.0882
7429 2 5.48066 56.6326 11.3751
6966 2 8.20681 55.0578 11.3995
1205 1 9.11777 56.6198 10.0882
806 1 2.72732 39.3742 15.5241
7003 2 0.909534 39.3571 14.2353
856 1 1.82192 40.9128 12.9227
838 1 0.00133672 40.9474 15.4991
810 1 4.54798 39.3396 12.9478
6978 2 6.36577 39.3571 14.2353
7001 2 3.63973 40.9303 14.2103
807 1 5.45758 40.9474 15.4991
777 1 8.18356 39.3742 15.5241
780 1 10.0042 39.3396 12.9478
808 1 7.27816 40.9128 12.9227
6979 2 9.09597 40.9303 14.2103
792 1 2.73169 42.5203 15.4734
7002 2 0.913769 42.5033 14.1847
840 1 1.82622 44.0586 12.8707
839 1 0.00589421 44.0928 15.447
809 1 4.55216 42.4857 12.897
6971 2 6.37001 42.5033 14.1847
7004 2 3.64412 44.0761 14.1586
790 1 5.46213 44.0928 15.447
776 1 8.18793 42.5203 15.4734
779 1 10.0084 42.4857 12.897
811 1 7.28246 44.0586 12.8707
6969 2 9.10036 44.0761 14.1586
791 1 2.73641 45.6651 15.42
6991 2 0.918291 45.6487 14.1319
841 1 1.83067 47.2042 12.817
830 1 0.0107507 47.2373 15.3926
796 1 4.55655 45.6314 12.844
6970 2 6.37453 45.6487 14.1319
6989 2 3.64874 47.2213 14.1049
793 1 5.46699 47.2373 15.3926
773 1 8.19265 45.6651 15.42
778 1 10.0128 45.6314 12.844
6972 2 9.10498 47.2213 14.1049
794 1 7.28691 47.2042 12.817
832 1 1.83514 50.3501 12.7627
784 1 2.74136 48.8092 15.365
6990 2 0.922979 48.7938 14.0778
831 1 0.0157561 50.3812 15.3372
795 1 4.56103 48.7771 12.7898
6964 2 6.37922 48.7938 14.0778
6992 2 3.65346 50.3663 14.0505
782 1 5.47199 50.3812 15.3372
797 1 7.29138 50.3501 12.7627
772 1 8.1976 48.8092 15.365
775 1 10.0173 48.7771 12.7898
6962 2 9.1097 50.3663 14.0505
833 1 1.83952 53.4967 12.7092
6987 2 0.927699 51.9389 14.0234
783 1 2.74638 51.9531 15.3094
829 1 0.0207584 53.5252 15.2819
6963 2 6.38394 51.9389 14.0234
788 1 4.56547 51.9233 12.7357
6985 2 3.65816 53.5116 13.9967
785 1 5.477 53.5252 15.2819
6965 2 9.1144 53.5116 13.9967
774 1 10.0217 51.9233 12.7357
770 1 8.20262 51.9531 15.3094
786 1 7.29576 53.4967 12.7092
6986 2 0.932349 55.0847 13.9706
781 1 2.75134 55.0975 15.255
1239 1 1.84376 56.6445 12.6583
1238 1 0.0256646 56.67 15.2288
787 1 4.56978 55.0704 12.6833
6961 2 6.38859 55.0847 13.9706
1189 1 5.4819 56.67 15.2288
7428 2 3.66275 56.658 13.9452
1204 1 7.3 56.6445 12.6583
771 1 10.026 55.0704 12.6833
769 1 8.20758 55.0975 15.255
7385 2 9.11899 56.658 13.9452
7343 2 1.81479 37.8186 16.8356
1150 1 0.90614 39.4103 18.101
1152 1 3.63227 37.8364 18.1249
7330 2 4.5449 39.3924 16.8116
1127 1 6.36238 39.4103 18.101
7332 2 7.27103 37.8186 16.8356
1126 1 9.08851 37.8364 18.1249
7284 2 10.0011 39.3924 16.8116
7344 2 1.81889 40.9658 16.7868
1149 1 0.910564 42.5567 18.0506
1148 1 3.6364 40.9838 18.0762
7329 2 4.54925 42.5388 16.7613
1123 1 6.3668 42.5567 18.0506
7328 2 7.27513 40.9658 16.7868
1128 1 9.09264 40.9838 18.0762
7283 2 10.0055 42.5388 16.7613
7340 2 1.82349 44.1114 16.7351
1143 1 0.915542 45.7011 17.9972
7322 2 4.55406 45.6836 16.7082
1122 1 6.37178 45.7011 17.9972
1151 1 3.64111 44.1291 18.0243
7331 2 7.27973 44.1114 16.7351
1121 1 9.09735 44.1291 18.0243
7282 2 10.0103 45.6836 16.7082
7341 2 1.82849 47.2556 16.6809
1142 1 0.920959 48.8437 17.9415
7304 2 2.7384 48.8636 19.2302
7336 2 1.83375 50.3987 16.6254
7321 2 4.55922 48.8272 16.6533
1111 1 6.3772 48.8437 17.9415
1141 1 3.64633 47.2726 17.9696
1124 1 9.10256 47.2726 17.9696
7272 2 8.19464 48.8636 19.2302
7275 2 10.0155 48.8272 16.6533
7320 2 7.28473 47.2556 16.6809
7323 2 7.28999 50.3987 16.6254
7335 2 0.0132393 50.4341 19.2017
1136 1 0.926631 51.9853 17.8844
7303 2 2.74439 52.0043 19.1729
7337 2 1.83911 53.5416 16.5698
1110 1 6.38287 51.9853 17.8844
1144 1 3.6519 50.4146 17.913
7302 2 5.46948 50.4341 19.2017
7308 2 4.56455 51.9701 16.5975
1109 1 9.10813 50.4146 17.913
7258 2 8.20063 52.0043 19.1729
7274 2 10.0208 51.9701 16.5975
7306 2 7.29535 53.5416 16.5698
7333 2 0.0193609 53.5743 19.1442
1135 1 0.932373 55.1266 17.8277
7293 2 2.7506 55.1443 19.1158
7751 2 1.84446 56.6848 16.5161
1093 1 6.38861 55.1266 17.8277
1134 1 3.65762 53.5559 17.8559
7305 2 5.4756 53.5743 19.1442
7307 2 4.56991 55.1131 16.5426
1536 1 3.66336 56.6975 17.8002
1112 1 9.11386 53.5559 17.8559
7257 2 8.20684 55.1443 19.1158
7259 2 10.0261 55.1131 16.5426
1510 1 9.1196 56.6975 17.8002
7740 2 7.3007 56.6848 16.5161
7326 2 2.72351 39.4295 19.3885
1146 1 1.8107 37.8739 20.7018
7314 2 0.901672 39.4689 21.9657
7324 2 3.62805 37.8936 21.9888
7325 2 5.44972 37.8551 19.4121
1119 1 4.54068 39.4485 20.6783
7278 2 6.35791 39.4689 21.9657
1125 1 7.26693 37.8739 20.7018
7281 2 8.17975 39.4295 19.3885
1068 1 9.99692 39.4485 20.6783
7277 2 9.08429 37.8936 21.9888
10606 2 10.906 37.8551 19.4121
7318 2 2.72784 42.5765 19.3387
1147 1 1.81462 41.0225 20.654
7313 2 0.905764 42.6171 21.9168
7312 2 3.63173 41.0434 21.9417
7327 2 5.45371 41.0033 19.364
1118 1 4.54499 42.5958 20.6287
7270 2 6.362 42.6171 21.9168
1117 1 7.27086 41.0225 20.654
7280 2 8.18408 42.5765 19.3387
1067 1 10.0012 42.5958 20.6287
7279 2 9.08797 41.0434 21.9417
10602 2 10.9099 41.0033 19.364
7339 2 0.00213437 44.1491 19.3126
7317 2 2.73283 45.7211 19.2857
1139 1 1.81931 44.1683 20.6026
7300 2 0.910735 45.7622 21.8643
7315 2 3.63626 44.1901 21.891
7316 2 5.45837 44.1491 19.3126
1107 1 4.55007 45.7401 20.5756
7269 2 6.36697 45.7622 21.8643
7273 2 8.18907 45.7211 19.2857
1066 1 10.0063 45.7401 20.5756
1120 1 7.27555 44.1683 20.6026
7268 2 9.09249 44.1901 21.891
7334 2 0.00743206 47.2926 19.2582
1140 1 1.82477 47.3113 20.5479
7299 2 0.916597 48.904 21.8085
7319 2 5.46367 47.2926 19.2582
1106 1 4.55587 48.8817 20.5195
7255 2 6.37284 48.904 21.8085
7298 2 3.64168 47.3335 21.8368
1059 1 10.0121 48.8817 20.5195
1105 1 7.28101 47.3113 20.5479
7271 2 9.09792 47.3335 21.8368
1132 1 1.83088 50.4516 20.4904
7292 2 0.923231 52.0429 21.7501
1092 1 4.56223 52.0211 20.461
7254 2 6.37947 52.0429 21.7501
7301 2 3.64795 50.4738 21.7795
1058 1 10.0185 52.0211 20.461
1108 1 7.28712 50.4516 20.4904
7253 2 9.10419 50.4738 21.7795
1133 1 1.83741 53.5902 20.4314
7291 2 0.930399 55.1797 21.6904
1091 1 4.56889 55.1592 20.4018
7237 2 6.38664 55.1797 21.6904
7290 2 3.65488 53.6115 21.7203
1043 1 10.0251 55.1592 20.4018
1090 1 7.29365 53.5902 20.4314
7256 2 9.11112 53.6115 21.7203
1099 1 0.896203 39.5326 25.8328
1115 1 2.71857 39.4892 23.2557
7310 2 1.80617 37.9343 24.5652
1113 1 3.62303 37.9555 25.8549
1062 1 6.35244 39.5326 25.8328
1114 1 5.44505 37.9135 23.2786
7266 2 4.53575 39.5108 24.5427
7276 2 7.26241 37.9343 24.5652
1061 1 9.07927 37.9555 25.8549
1065 1 8.17481 39.4892 23.2557
7212 2 9.99199 39.5108 24.5427
4217 1 10.9013 37.9135 23.2786
1098 1 0.899491 42.6841 25.7859
1103 1 2.72251 42.6381 23.2073
7311 2 1.80931 41.0864 24.5194
1097 1 3.62584 41.1088 25.8098
1054 1 6.35573 42.6841 25.7859
1116 1 5.44854 41.0641 23.232
7265 2 4.53935 42.6611 24.4951
7264 2 7.26555 41.0864 24.5194
1063 1 9.08208 41.1088 25.8098
1064 1 8.17874 42.6381 23.2073
7211 2 9.99558 42.6611 24.4951
4209 1 10.9048 41.0641 23.232
1084 1 0.903932 45.8313 25.735
1102 1 2.72744 45.7833 23.155
7296 2 1.81341 44.2349 24.4698
1100 1 3.62967 44.2583 25.761
1053 1 6.36017 45.8313 25.735
1101 1 5.45296 44.2112 23.1816
7251 2 4.544 45.8076 24.4436
7267 2 7.26965 44.2349 24.4698
1052 1 9.08591 44.2583 25.761
1057 1 8.18368 45.7833 23.155
7210 2 10.0002 45.8076 24.4436
4210 1 10.9092 44.2112 23.1816
1083 1 0.909768 48.9735 25.6799
1088 1 2.73344 48.9245 23.099
1130 1 0.00219183 47.3544 23.1275
7297 2 1.81866 47.3792 24.4164
1082 1 3.63478 47.403 25.708
1039 1 6.36601 48.9735 25.6799
1104 1 5.45843 47.3544 23.1275
7250 2 4.54988 48.9497 24.3882
7249 2 7.2749 47.3792 24.4164
1055 1 9.09102 47.403 25.708
1056 1 8.18968 48.9245 23.099
7203 2 10.0061 48.9497 24.3882
1076 1 0.91711 52.1102 25.6203
1087 1 2.74042 52.0621 23.0395
1131 1 0.00870326 50.4937 23.0697
7288 2 1.82517 50.5191 24.359
1038 1 6.37335 52.1102 25.6203
1085 1 3.64137 50.5425 25.6506
1086 1 5.46494 50.4937 23.0697
7236 2 4.557 52.0874 24.329
1037 1 9.09761 50.5425 25.6506
1042 1 8.19666 52.0621 23.0395
7202 2 10.0132 52.0874 24.329
7252 2 7.28141 50.5191 24.359
1075 1 0.92578 55.2419 25.5565
1077 1 2.74809 55.1968 22.9778
1129 1 0.0160702 53.6297 23.0088
7289 2 1.83286 53.6548 24.2983
1022 1 6.38202 55.2419 25.5565
1074 1 3.64942 53.6766 25.5888
1089 1 5.47231 53.6297 23.0088
7235 2 4.56517 55.2213 24.2671
7188 2 10.0214 55.2213 24.2671
7234 2 7.28909 53.6548 24.2983
1041 1 8.20433 55.1968 22.9778
1040 1 9.10566 53.6766 25.5888
1095 1 1.80114 37.9997 28.4302
7262 2 2.71349 39.5554 27.1192
1050 1 4.5301 39.5787 28.4089
7261 2 5.44054 37.9773 27.1408
1060 1 7.25738 37.9997 28.4302
1002 1 9.98634 39.5787 28.4089
7209 2 8.16973 39.5554 27.1192
10573 2 10.8968 37.9773 27.1408
1096 1 1.80303 41.1568 28.3868
7247 2 2.71631 42.7089 27.0731
1049 1 4.53245 42.7339 28.3638
7263 2 5.4429 41.1326 27.0966
1048 1 7.25927 41.1568 28.3868
1001 1 9.98869 42.7339 28.3638
7208 2 8.17255 42.7089 27.0731
10558 2 10.8991 41.1326 27.0966
1080 1 1.80592 44.3099 28.3399
7246 2 2.72028 45.8579 27.0231
1035 1 4.53597 45.8846 28.3149
7245 2 5.44625 44.284 27.0486
1051 1 7.26216 44.3099 28.3399
1000 1 9.99221 45.8846 28.3149
7201 2 8.17651 45.8579 27.0231
10559 2 10.9025 44.284 27.0486
1081 1 1.81019 47.4578 28.2888
7232 2 2.72572 49.0018 26.9688
1034 1 4.5411 49.0295 28.2616
7248 2 5.45091 47.4306 26.9965
1033 1 7.26643 47.4578 28.2888
993 1 9.99734 49.0295 28.2616
7200 2 8.18196 49.0018 26.9688
10550 2 10.9071 47.4306 26.9965
1072 1 1.81628 50.5994 28.233
7231 2 2.73292 52.1397 26.9098
7287 2 0.000969946 50.5715 26.9399
1021 1 4.54826 52.1674 28.203
7230 2 5.45721 50.5715 26.9399
1036 1 7.27252 50.5994 28.233
992 1 10.0045 52.1674 28.203
7187 2 8.18916 52.1397 26.9098
1073 1 1.82455 53.7334 28.1714
7221 2 2.74192 55.2715 26.8461
7285 2 0.0090887 53.7063 26.8785
1020 1 4.55761 55.2974 28.1384
7233 2 5.46533 53.7063 26.8785
981 1 10.0138 55.2974 28.1384
1019 1 7.28079 53.7334 28.1714
7186 2 8.19816 55.2715 26.8461
1046 1 2.70816 39.6273 30.9835
7239 2 1.79804 38.0697 32.2878
7243 2 0.891455 39.6027 29.6943
7260 2 3.61897 38.0226 29.7152
1045 1 5.43595 38.046 31.0039
7194 2 4.52625 39.6523 32.2676
7206 2 6.34769 39.6027 29.6943
7204 2 7.25428 38.0697 32.2878
999 1 8.16439 39.6273 30.9835
7164 2 9.98249 39.6523 32.2676
7205 2 9.07521 38.0226 29.7152
4166 1 10.8922 38.046 31.0039
1031 1 2.70933 42.7874 30.9403
7240 2 1.79835 41.2342 32.2467
7242 2 0.893242 42.7603 29.65
7241 2 3.62036 41.182 29.6726
1047 1 5.43676 41.2078 30.9623
7193 2 4.52686 42.8153 32.225
7198 2 6.34948 42.7603 29.65
7192 2 7.25459 41.2342 32.2467
998 1 8.16556 42.7874 30.9403
7163 2 9.9831 42.8153 32.225
7207 2 9.0766 41.182 29.6726
4150 1 10.893 41.2078 30.9623
1030 1 2.71152 45.9432 30.8936
7224 2 1.79934 44.3953 32.2025
7228 2 0.896113 45.9136 29.602
7244 2 3.62263 44.3376 29.6265
1029 1 5.43838 44.3659 30.9174
7180 2 4.52832 45.9742 32.179
7197 2 6.35235 45.9136 29.602
7195 2 7.25557 44.3953 32.2025
991 1 8.16776 45.9432 30.8936
7162 2 9.98456 45.9742 32.179
7196 2 9.07887 44.3376 29.6265
4151 1 10.8946 44.3659 30.9174
1017 1 2.71528 49.0932 30.8428
7225 2 1.8014 47.5518 32.1546
7227 2 0.900537 49.0611 29.5496
7226 2 3.62622 47.4881 29.5764
1032 1 5.44128 47.519 30.8688
7179 2 4.53114 49.1277 32.129
7184 2 6.35678 49.0611 29.5496
7178 2 7.25764 47.5518 32.1546
990 1 8.17152 49.0932 30.8428
7159 2 9.98738 49.1277 32.129
7199 2 9.08245 47.4881 29.5764
4142 1 10.8975 47.519 30.8688
1016 1 2.72135 52.2353 30.7867
7216 2 1.80517 50.7018 32.1021
7220 2 0.907089 52.2014 29.4918
7229 2 3.63163 50.6322 29.5214
1015 1 5.4461 50.6654 30.8155
7172 2 4.53608 52.2736 32.0736
7183 2 6.36333 52.2014 29.4918
7181 2 7.26141 50.7018 32.1021
980 1 8.17759 52.2353 30.7867
7158 2 9.99232 52.2736 32.0736
7182 2 9.08787 50.6322 29.5214
4143 1 10.9023 50.6654 30.8155
1008 1 2.7305 55.367 30.7237
7217 2 1.81154 53.8429 32.0434
7219 2 0.916277 55.3332 29.4278
1018 1 5.45363 53.8026 30.7562
7171 2 4.54417 55.4091 32.011
7173 2 6.37252 55.3332 29.4278
7218 2 3.63945 53.7684 29.4606
7170 2 7.26778 53.8429 32.0434
979 1 8.18674 55.367 30.7237
7155 2 10.0004 55.4091 32.011
7185 2 9.09569 53.7684 29.4606
4141 1 10.9099 53.8026 30.7562
1027 1 0.88701 39.6781 33.5558
7190 2 2.70581 39.7039 34.8385
1044 1 3.61534 38.0941 33.5755
996 1 6.34325 39.6781 33.5558
7189 2 5.43433 38.1185 34.8581
995 1 9.07158 38.0941 33.5755
7161 2 8.16205 39.7039 34.8385
10502 2 10.8906 38.1185 34.8581
1026 1 0.886905 42.8441 33.5143
7176 2 2.70524 42.873 34.7972
1025 1 3.61501 41.2615 33.5354
988 1 6.34314 42.8441 33.5143
7191 2 5.4336 41.2887 34.8182
997 1 9.07125 41.2615 33.5354
7160 2 8.16148 42.873 34.7972
10486 2 10.8898 41.2887 34.8182
1013 1 0.887495 46.0067 33.4698
7175 2 2.70518 46.0392 34.753
1028 1 3.61521 44.4259 33.4924
987 1 6.34373 46.0067 33.4698
7174 2 5.43324 44.4565 34.7755
986 1 9.07144 44.4259 33.4924
7157 2 8.16141 46.0392 34.753
10487 2 10.8895 44.4565 34.7755
1011 1 3.61632 47.5862 33.4463
1012 1 0.889299 49.1643 33.4219
7168 2 2.70604 49.201 34.7053
7177 2 5.43358 47.6208 34.7296
977 1 6.34554 49.1643 33.4219
7156 2 8.16228 49.201 34.7053
989 1 9.07256 47.5862 33.4463
10478 2 10.8898 47.6208 34.7296
1014 1 3.61903 50.7406 33.3964
7167 2 2.70854 52.3563 34.6528
1007 1 0.893186 52.3147 33.3696
7166 2 5.43514 50.7797 34.6797
976 1 6.34942 52.3147 33.3696
7154 2 8.16478 52.3563 34.6528
975 1 9.07527 50.7406 33.3964
10479 2 10.8914 50.7797 34.6797
1005 1 3.62443 53.8861 33.3412
7165 2 2.71391 55.5011 34.593
1006 1 0.900476 55.4542 33.3111
1004 1 1.79433 53.9841 35.9228
7169 2 5.43889 53.9303 34.624
970 1 6.35671 55.4542 33.3111
968 1 4.52435 55.5609 35.8961
967 1 7.25057 53.9841 35.9228
7153 2 8.17015 55.5011 34.593
978 1 9.08066 53.8861 33.3412
10477 2 10.8951 53.9303 34.624
961 1 9.98059 55.5609 35.8961
7366 2 0.886731 39.7567 37.4063
13577 1 2.70491 39.784 38.6915
1023 1 1.79588 38.1436 36.1445
7368 2 3.61565 38.1683 37.4256
7355 2 6.34297 39.7567 37.4063
13576 1 5.43408 38.1939 38.7106
984 1 4.52331 39.7306 36.1253
994 1 7.25212 38.1436 36.1445
7354 2 9.07189 38.1683 37.4256
13542 1 8.16114 39.784 38.6915
966 1 9.97955 39.7306 36.1253
16404 1 10.8903 38.1939 38.7106
7365 2 0.885159 42.9327 37.3658
13573 1 2.70269 42.964 38.6517
1024 1 1.79452 41.3171 36.1054
7364 2 3.61405 41.3449 37.3863
7352 2 6.3414 42.9327 37.3658
13578 1 5.43193 41.374 38.6719
983 1 4.52202 42.9033 36.085
982 1 7.25076 41.3171 36.1054
7356 2 9.07029 41.3449 37.3863
13541 1 8.15893 42.964 38.6517
965 1 9.97825 42.9033 36.085
16402 1 10.8882 41.374 38.6719
7362 2 0.883747 46.1072 37.3226
13572 1 2.70037 46.1436 38.6096
1009 1 1.79334 44.4889 36.0639
7367 2 3.61254 44.5202 37.3445
7351 2 6.33999 46.1072 37.3226
13571 1 5.42966 44.5538 38.6309
973 1 4.52099 46.0739 36.0422
985 1 7.24958 44.4889 36.0639
7350 2 9.06878 44.5202 37.3445
13536 1 8.15661 46.1436 38.6096
964 1 9.97723 46.0739 36.0422
16403 1 10.8859 44.5538 38.6309
7361 2 0.882738 49.2793 37.2764
13562 1 2.69794 49.3232 38.5653
1010 1 1.79256 47.6582 36.0199
7360 2 3.61129 47.6936 37.2999
7348 2 6.33898 49.2793 37.2764
13574 1 5.42729 47.7334 38.5878
972 1 4.52056 49.2416 35.9968
971 1 7.2488 47.6582 36.0199
7353 2 9.06753 47.6936 37.2999
13535 1 8.15418 49.3232 38.5653
963 1 9.9768 49.2416 35.9968
16400 1 10.8835 47.7334 38.5878
7359 2 0.882593 52.4476 37.2259
13561 1 2.69525 52.5034 38.5189
1003 1 1.79261 50.824 35.973
7363 2 3.61063 50.8641 37.2518
7347 2 6.33883 52.4476 37.2259
13560 1 5.42478 50.9132 38.5424
969 1 4.5213 52.4049 35.9483
974 1 7.24885 50.824 35.973
7346 2 9.06687 50.8641 37.2518
13522 1 8.15149 52.5034 38.5189
962 1 9.97754 52.4049 35.9483
16401 1 10.881 50.9132 38.5424
7358 2 0.884281 55.6085 37.1688
13551 1 2.69124 55.6864 38.4709
7357 2 3.61124 54.0293 37.1984
7345 2 6.34052 55.6085 37.1688
13563 1 5.4217 54.0942 38.4951
7349 2 9.06747 54.0293 37.1984
13521 1 8.14748 55.6864 38.4709
16399 1 10.8779 54.0942 38.4951
19199 2 1.79845 38.2188 39.9901
19182 2 2.70971 39.864 42.5319
13569 1 0.888225 39.8379 41.2544
13575 1 3.61761 38.2447 41.2736
19186 2 4.52549 39.8103 39.9708
19181 2 5.43903 38.2694 42.5515
13539 1 6.34446 39.8379 41.2544
19188 2 7.25468 38.2188 39.9901
13538 1 9.07385 38.2447 41.2736
19137 2 8.16595 39.864 42.5319
19140 2 9.98173 39.8103 39.9708
22018 2 10.8953 38.2694 42.5515
19200 2 1.79626 41.4018 39.9508
13568 1 0.885482 43.0252 41.2141
19174 2 2.70716 43.0541 42.4905
13567 1 3.61501 41.4314 41.2345
19185 2 4.52324 42.9934 39.9302
19183 2 5.43658 41.4589 42.5115
13533 1 6.34172 43.0252 41.2141
19184 2 7.2525 41.4018 39.9508
13540 1 9.07125 41.4314 41.2345
19136 2 8.1634 43.0541 42.4905
19139 2 9.97948 42.9934 39.9302
22014 2 10.8928 41.4589 42.5115
19196 2 1.79397 44.585 39.909
13558 1 0.882399 46.2141 41.1714
19173 2 2.70444 46.246 42.4461
13570 1 3.61211 44.6194 41.193
19178 2 4.52092 46.1766 39.887
13532 1 6.33864 46.2141 41.1714
19172 2 5.43394 44.6498 42.4687
19187 2 7.2502 44.585 39.909
13531 1 9.06835 44.6194 41.193
19129 2 8.16068 46.246 42.4461
19138 2 9.97715 46.1766 39.887
22015 2 10.8902 44.6498 42.4687
19197 2 1.79164 47.7683 39.8643
13557 1 0.878792 49.406 41.1263
19160 2 2.70159 49.4404 42.398
13556 1 3.6088 47.8095 41.1492
19177 2 4.51862 49.3601 39.8407
13519 1 6.33503 49.406 41.1263
19175 2 5.43115 47.8428 42.4225
19176 2 7.24787 47.7683 39.8643
13534 1 9.06504 47.8095 41.1492
19128 2 8.15783 49.4404 42.398
19131 2 9.97486 49.3601 39.8407
22010 2 10.8874 47.8428 42.4225
19192 2 1.78943 50.9518 39.8161
13550 1 0.87406 52.6035 41.0784
19159 2 2.69864 52.6387 42.3448
13559 1 3.60476 51.0037 41.1027
13518 1 6.3303 52.6035 41.0784
19158 2 5.42826 51.039 42.3722
19164 2 4.51658 52.5435 39.7901
19179 2 7.24567 50.9518 39.8161
13517 1 9.06099 51.0037 41.1027
19114 2 8.15488 52.6387 42.3448
19130 2 9.97282 52.5435 39.7901
22011 2 10.8845 51.039 42.3722
19193 2 1.78765 54.1353 39.7625
13549 1 0.866434 55.8123 41.0275
19149 2 2.69531 55.8437 42.2836
13548 1 3.59892 54.2058 41.0534
13501 1 6.32267 55.8123 41.0275
19161 2 5.42521 54.2401 42.3154
19163 2 4.51511 55.7271 39.7328
19162 2 7.24389 54.1353 39.7625
13520 1 9.05515 54.2058 41.0534
19113 2 8.15155 55.8437 42.2836
19115 2 9.97135 55.7271 39.7328
22009 2 10.8815 54.2401 42.3154
13565 1 1.80273 38.2954 43.8336
19170 2 0.895566 39.9172 45.0898
19180 2 3.62488 38.3197 45.1101
13529 1 4.52953 39.8917 43.8138
19134 2 6.3518 39.9172 45.0898
13537 1 7.25897 38.2954 43.8336
13476 1 9.98577 39.8917 43.8138
19133 2 9.08111 38.3197 45.1101
13566 1 1.80002 41.4886 43.7934
19169 2 0.893043 43.114 45.0468
19168 2 3.62245 41.5153 45.0687
13528 1 4.52666 43.0861 43.7722
19126 2 6.34928 43.114 45.0468
13527 1 7.25626 41.4886 43.7934
13475 1 9.9829 43.0861 43.7722
19135 2 9.07869 41.5153 45.0687
13554 1 1.79697 44.6844 43.7503
19156 2 0.890345 46.3138 45.0002
19171 2 3.61983 44.7134 45.024
13515 1 4.52341 46.2837 43.7277
19125 2 6.34658 46.3138 45.0002
13530 1 7.25321 44.6844 43.7503
13474 1 9.97965 46.2837 43.7277
19124 2 9.07607 44.7134 45.024
13555 1 1.79346 47.8842 43.7042
19155 2 0.887468 49.518 44.9491
19154 2 3.61705 47.9152 44.9753
13514 1 4.51956 49.4865 43.6798
19111 2 6.34371 49.518 44.9491
13513 1 7.2497 47.8842 43.7042
13467 1 9.9758 49.4865 43.6798
19127 2 9.07329 47.9152 44.9753
13546 1 1.78914 51.0909 43.6543
19148 2 0.884262 52.7287 44.8919
19157 2 3.61405 51.1223 44.9214
13500 1 4.51457 52.698 43.6276
19110 2 6.3405 52.7287 44.8919
13516 1 7.24538 51.0909 43.6543
13466 1 9.97081 52.698 43.6276
19109 2 9.07029 51.1223 44.9214
13547 1 1.78318 54.3087 43.5992
19147 2 0.880034 55.9496 44.8257
19146 2 3.61048 54.3375 44.8602
13499 1 4.50727 55.9239 43.5688
19094 2 6.33627 55.9496 44.8257
13498 1 7.23941 54.3087 43.5992
13451 1 9.96351 55.9239 43.5688
19112 2 9.06672 54.3375 44.8602
13507 1 0.904253 39.9967 48.9238
13525 1 2.71621 39.9448 46.3701
19166 2 1.81206 38.3693 47.6661
13523 1 3.63345 38.3949 48.9454
13470 1 6.36049 39.9967 48.9238
13524 1 5.44557 38.3456 46.3907
19122 2 4.5391 39.9695 47.6449
19132 2 7.2683 38.3693 47.6661
13469 1 9.08969 38.3949 48.9454
13473 1 8.17245 39.9448 46.3701
19074 2 9.99533 39.9695 47.6449
16384 1 10.9018 38.3456 46.3907
13506 1 0.901978 43.2031 48.8778
13511 1 2.71354 43.1456 46.3265
19167 2 1.80985 41.5705 47.6228
13505 1 3.63126 41.5994 48.9013
13462 1 6.35822 43.2031 48.8778
13526 1 5.44303 41.5448 46.3488
19121 2 4.53681 43.1722 47.5998
19120 2 7.26609 41.5705 47.6228
13471 1 9.08749 41.5994 48.9013
13472 1 8.16978 43.1456 46.3265
19073 2 9.99305 43.1722 47.5998
16372 1 10.8993 41.5448 46.3488
13492 1 0.899505 46.4143 48.8273
13510 1 2.71056 46.3507 46.2792
19152 2 1.8075 44.775 47.5756
13508 1 3.62889 44.808 48.8532
13461 1 6.35574 46.4143 48.8273
13509 1 5.44021 44.7475 46.3034
19107 2 4.53438 46.3788 47.5504
19123 2 7.26374 44.775 47.5756
13460 1 9.08513 44.808 48.8532
13465 1 8.1668 46.3507 46.2792
19072 2 9.99062 46.3788 47.5504
16373 1 10.8965 44.7475 46.3034
13491 1 0.896729 49.6322 48.7716
13496 1 2.70714 49.5623 46.2275
19153 2 1.80497 47.9841 47.5239
13490 1 3.62629 48.0223 48.8002
13447 1 6.35297 49.6322 48.7716
13512 1 5.43704 47.9556 46.254
19106 2 4.53173 49.5909 47.4959
19105 2 7.26121 47.9841 47.5239
13463 1 9.08252 48.0223 48.8002
13464 1 8.16338 49.5623 46.2275
19065 2 9.98796 49.5909 47.4959
16364 1 10.8933 47.9556 46.254
13484 1 0.893393 52.859 48.7089
13495 1 2.70293 52.7835 46.1697
19144 2 1.80212 51.1996 47.4663
13493 1 3.62328 51.2444 48.7412
13446 1 6.34963 52.859 48.7089
13494 1 5.43328 51.1715 46.1995
19093 2 4.52854 52.8106 47.4347
19108 2 7.25836 51.1996 47.4663
13445 1 9.07951 51.2444 48.7412
13450 1 8.15917 52.7835 46.1697
19064 2 9.98478 52.8106 47.4347
16365 1 10.8895 51.1715 46.1995
13483 1 0.888951 56.0967 48.6369
13485 1 2.69731 56.0183 46.1029
19145 2 1.79838 54.4242 47.4008
13482 1 3.61948 54.4764 48.6742
13432 1 6.34519 56.0967 48.6369
13497 1 5.42846 54.3989 46.1377
19092 2 4.52391 56.0411 47.3644
19091 2 7.25462 54.4242 47.4008
13448 1 9.07572 54.4764 48.6742
13449 1 8.15355 56.0183 46.1029
19053 2 9.98015 56.0411 47.3644
16363 1 10.8847 54.3989 46.1377
13503 1 1.82234 38.443 51.4982
19118 2 2.72755 40.0205 50.1977
19165 2 0.000360605 38.4179 50.2199
13458 1 4.54959 40.047 51.4755
19117 2 5.4566 38.4179 50.2199
13416 1 10.0058 40.047 51.4755
13468 1 7.27858 38.443 51.4982
19071 2 8.18379 40.0205 50.1977
13504 1 1.82057 41.652 51.4518
19103 2 2.72561 43.2283 50.1502
13457 1 4.54777 43.2579 51.4269
19119 2 5.45471 41.624 50.1745
13415 1 10.004 43.2579 51.4269
13456 1 7.27681 41.652 51.4518
19070 2 8.18184 43.2283 50.1502
21970 2 10.9109 41.624 50.1745
13488 1 1.81869 44.8651 51.4008
19102 2 2.72351 46.4403 50.098
13443 1 4.54581 46.4737 51.3734
19101 2 5.4527 44.8337 50.1248
13459 1 7.27493 44.8651 51.4008
21971 2 10.9089 44.8337 50.1248
13414 1 10.002 46.4737 51.3734
19063 2 8.17975 46.4403 50.098
13489 1 1.81662 48.0838 51.3446
19089 2 2.72112 49.6581 50.0403
19084 2 0.911257 49.7192 52.5841
13442 1 4.54358 49.6955 51.3142
19104 2 5.45049 48.0484 50.0699
13441 1 7.27286 48.0838 51.3446
19049 2 6.3675 49.7192 52.5841
21962 2 10.9067 48.0484 50.0699
13408 1 9.99981 49.6955 51.3142
19062 2 8.17736 49.6581 50.0403
19079 2 0.908123 52.9466 52.5178
13480 1 1.81414 51.3092 51.2822
19088 2 2.71798 52.8832 49.9759
19086 2 3.63797 51.3321 52.5517
19048 2 6.36436 52.9466 52.5178
13431 1 4.54072 52.9248 51.2483
19087 2 5.44781 51.2696 50.009
13444 1 7.27038 51.3092 51.2822
21963 2 10.904 51.2696 50.009
19047 2 9.09421 51.3321 52.5517
13407 1 9.99696 52.9248 51.2483
19052 2 8.17422 52.8832 49.9759
19077 2 3.63406 54.5629 52.4825
19078 2 0.903166 56.1806 52.4459
13481 1 1.81071 54.5423 51.2124
19080 2 2.71313 56.1174 49.9038
19042 2 6.3594 56.1806 52.4459
13430 1 4.53642 56.1616 51.1747
19090 2 5.44398 54.4991 49.9409
13429 1 7.26695 54.5423 51.2124
19050 2 9.0903 54.5629 52.4825
21961 2 10.9002 54.4991 49.9409
13400 1 9.99265 56.1616 51.1747
19051 2 8.16936 56.1174 49.9038
13454 1 2.73942 40.0956 54.0258
13502 1 0.0119852 38.4897 54.0495
19095 2 1.83551 38.5113 55.3233
19099 2 0.916867 40.07 52.7489
13453 1 5.46822 38.4897 54.0495
19056 2 4.56301 40.1176 55.2991
19068 2 6.37311 40.07 52.7489
19116 2 3.64575 38.4653 52.7721
13413 1 8.19566 40.0956 54.0258
19038 2 10.0192 40.1176 55.2991
19066 2 7.29175 38.5113 55.3233
19067 2 9.10199 38.4653 52.7721
13439 1 2.73801 43.31 53.9749
13486 1 0.0106077 41.7023 54.001
19096 2 1.83424 41.7247 55.2738
19098 2 0.91526 43.2818 52.6991
13455 1 5.46685 41.7023 54.001
19055 2 4.56167 43.3327 55.2472
19060 2 6.3715 43.2818 52.6991
19097 2 3.6442 41.6754 52.7246
13412 1 8.19425 43.31 53.9749
19037 2 10.0179 43.3327 55.2472
19054 2 7.29048 41.7247 55.2738
19069 2 9.10044 41.6754 52.7246
13438 1 2.73644 46.5287 53.9188
13487 1 0.00913157 44.9188 53.9475
19081 2 1.8328 44.9415 55.2194
19085 2 0.913468 46.4979 52.6443
13437 1 5.46537 44.9188 53.9475
19045 2 4.56008 46.5514 55.1904
19059 2 6.36971 46.4979 52.6443
19100 2 3.64252 44.8893 52.6724
13406 1 8.19268 46.5287 53.9188
19036 2 10.0163 46.5514 55.1904
19057 2 7.28904 44.9415 55.2194
19058 2 9.09876 44.8893 52.6724
13427 1 2.73451 49.7526 53.8571
13478 1 0.00741961 48.14 53.8887
19082 2 1.83099 48.1623 55.16
13440 1 5.46366 48.14 53.8887
19044 2 4.55796 49.7744 55.1284
19083 2 3.64056 48.1078 52.6149
13405 1 8.19074 49.7526 53.8571
19035 2 10.0142 49.7744 55.1284
19043 2 7.28723 48.1623 55.16
19061 2 9.0968 48.1078 52.6149
19075 2 1.82843 51.3876 55.0956
13479 1 0.00515189 51.3665 53.8241
13426 1 2.73174 52.9819 53.7897
19041 2 4.5548 53.002 55.0616
13425 1 5.46139 51.3665 53.8241
19046 2 7.28467 51.3876 55.0956
19034 2 10.011 53.002 55.0616
13399 1 8.18798 52.9819 53.7897
19076 2 1.82451 54.6174 55.0267
13477 1 0.00167114 54.5984 53.7539
13420 1 2.72726 56.216 53.7171
19040 2 4.54995 56.2337 54.9912
13428 1 5.45791 54.5984 53.7539
19039 2 7.28075 54.6174 55.0267
19033 2 10.0062 56.2337 54.9912
13398 1 8.1835 56.216 53.7171
13751 1 1.84875 38.5788 59.1503
19385 2 2.75326 40.1636 57.8488
19392 2 0.0256589 38.556 57.8738
13435 1 0.929703 40.1423 56.5755
13738 1 4.57644 40.1872 59.1249
19384 2 5.4819 38.556 57.8738
13410 1 6.38594 40.1423 56.5755
13452 1 3.65835 38.535 56.6001
13692 1 10.0327 40.1872 59.1249
13740 1 7.30498 38.5788 59.1503
19350 2 8.2095 40.1636 57.8488
13409 1 9.11459 38.535 56.6001
13752 1 1.84786 41.7962 59.0983
19381 2 2.7521 43.3809 57.7953
19390 2 0.0245851 41.7719 57.8226
13434 1 0.928578 43.3592 56.5225
13737 1 4.57547 43.4058 59.0704
19386 2 5.48082 41.7719 57.8226
13403 1 6.38482 43.3592 56.5225
13433 1 3.65728 41.7503 56.5496
13691 1 10.0317 43.4058 59.0704
13736 1 7.3041 41.7962 59.0983
19349 2 8.20833 43.3809 57.7953
13411 1 9.11351 41.7503 56.5496
13748 1 1.84677 45.0161 59.0414
19380 2 2.75061 46.6011 57.7369
19391 2 0.0232878 44.9906 57.7667
13423 1 0.927232 46.5797 56.4644
13730 1 4.57419 46.6271 59.0111
19379 2 5.47953 44.9906 57.7667
13402 1 6.38347 46.5797 56.4644
13436 1 3.65606 44.969 56.4941
13690 1 10.0304 46.6271 59.0111
13739 1 7.303 45.0161 59.0414
19344 2 8.20684 46.6011 57.7369
13401 1 9.1123 44.969 56.4941
13749 1 1.84523 48.2386 58.9798
19370 2 2.7485 49.8245 57.6741
19388 2 0.0215333 48.2124 57.706
13422 1 0.925385 49.804 56.4014
13729 1 4.57231 49.8508 58.9475
19382 2 5.47777 48.2124 57.706
13396 1 6.38162 49.804 56.4014
13421 1 3.65452 48.1913 56.4335
13683 1 10.0285 49.8508 58.9475
13728 1 7.30147 48.2386 58.9798
19343 2 8.20473 49.8245 57.6741
13404 1 9.11075 48.1913 56.4335
13744 1 1.84289 51.4636 58.9143
19369 2 2.74534 53.0509 57.6075
19389 2 0.0189599 51.4374 57.6412
13419 1 0.922546 53.0319 56.3337
13716 1 4.5694 53.0768 58.8805
19368 2 5.4752 51.4374 57.6412
13395 1 6.37878 53.0319 56.3337
13424 1 3.65225 51.4175 56.368
13682 1 10.0256 53.0768 58.8805
13731 1 7.29913 51.4636 58.9143
19330 2 8.20158 53.0509 57.6075
13394 1 9.10849 51.4175 56.368
13745 1 1.83929 54.6902 58.8464
19359 2 2.74073 56.2795 57.5391
19387 2 0.0151204 54.665 57.5734
13418 1 0.918038 56.2626 56.2633
13715 1 4.56503 56.3039 58.8123
19371 2 5.47136 54.665 57.5734
13393 1 6.37428 56.2626 56.2633
13417 1 3.64866 54.647 56.2987
13667 1 10.0213 56.3039 58.8123
13714 1 7.29553 54.6902 58.8464
19329 2 8.19697 56.2795 57.5391
13397 1 9.1049 54.647 56.2987
13734 1 2.76697 40.2307 61.6748
13750 1 0.0392447 38.6214 61.7007
19377 2 0.943682 40.2081 60.3985
13733 1 5.49548 38.6214 61.7007
19347 2 6.39992 40.2081 60.3985
19383 2 3.67227 38.5993 60.4241
13689 1 8.22321 40.2307 61.6748
19346 2 9.1285 38.5993 60.4241
13726 1 2.76604 43.4504 61.6192
13746 1 0.038423 41.8403 61.6476
19376 2 0.942592 43.4269 60.3438
13735 1 5.49466 41.8403 61.6476
19341 2 6.39883 43.4269 60.3438
19375 2 3.67129 41.8173 60.3717
13688 1 8.22228 43.4504 61.6192
19348 2 9.12753 41.8173 60.3717
13725 1 2.76473 46.6717 61.5593
13747 1 0.0373308 45.0609 61.5898
19366 2 0.941116 46.6479 60.2845
13724 1 5.49357 45.0609 61.5898
19340 2 6.39735 46.6479 60.2845
19378 2 3.67004 45.0371 60.3147
13681 1 8.22097 46.6717 61.5593
19339 2 9.12627 45.0371 60.3147
13712 1 2.76276 49.8944 61.4956
13742 1 0.0357285 48.2829 61.5278
19365 2 0.93898 49.8707 60.2214
13727 1 5.49197 48.2829 61.5278
19327 2 6.39522 49.8707 60.2214
19364 2 3.66827 48.2591 60.2534
13680 1 8.219 49.8944 61.4956
19342 2 9.12451 48.2591 60.2534
13711 1 2.75982 53.118 61.4297
13743 1 0.0333112 51.5061 61.4628
19358 2 0.935868 53.0952 60.1557
13710 1 5.48955 51.5061 61.4628
19326 2 6.39211 53.0952 60.1557
19367 2 3.66568 51.4828 60.1888
13666 1 8.21606 53.118 61.4297
19325 2 9.12192 51.4828 60.1888
13701 1 2.75569 56.3416 61.3635
13741 1 0.0297892 54.7298 61.3965
19357 2 0.93154 56.3204 60.0893
13713 1 5.48603 54.7298 61.3965
19309 2 6.38778 56.3204 60.0893
19356 2 3.66198 54.7078 60.1224
13665 1 8.21193 56.3416 61.3635
19328 2 9.11822 54.7078 60.1224
13722 1 0.957419 40.273 64.2255
19333 2 2.78084 40.2937 65.4985
19372 2 0.0532213 38.6834 65.5248
19373 2 1.86274 38.6417 62.9745
13686 1 6.41366 40.273 64.2255
13732 1 3.68595 38.6631 64.2518
19332 2 5.50946 38.6834 65.5248
19337 2 4.5904 40.2513 62.9484
13685 1 9.14219 38.6631 64.2518
19281 2 8.23708 40.2937 65.4985
19284 2 10.0466 40.2513 62.9484
19345 2 7.31897 38.6417 62.9745
13721 1 0.956425 43.4935 64.1694
19319 2 2.77964 43.5146 65.4427
19360 2 0.0521656 41.9041 65.4711
19374 2 1.86176 41.8611 62.9212
13678 1 6.41266 43.4935 64.1694
13720 1 3.68508 41.8832 64.198
19334 2 5.5084 41.9041 65.4711
19336 2 4.58929 43.4713 62.8929
13687 1 9.14132 41.8832 64.198
19280 2 8.23588 43.5146 65.4427
19283 2 10.0455 43.4713 62.8929
19335 2 7.318 41.8611 62.9212
13708 1 0.955008 46.7146 64.1092
19318 2 2.77801 46.7356 65.383
19361 2 0.0507737 45.1251 65.4133
19362 2 1.86047 45.0817 62.8636
13677 1 6.41125 46.7146 64.1092
13723 1 3.6839 45.104 64.1398
19317 2 5.50701 45.1251 65.4133
19323 2 4.58776 46.6924 62.8333
13676 1 9.14014 45.104 64.1398
19273 2 8.23425 46.7356 65.383
19282 2 10.044 46.6924 62.8333
19338 2 7.31671 45.0817 62.8636
13707 1 0.952938 49.936 64.046
19304 2 2.77575 49.9564 65.3206
19352 2 0.0488481 48.3461 65.3521
19363 2 1.85864 48.3032 62.8022
13663 1 6.40918 49.936 64.046
13706 1 3.68219 48.3253 64.0779
19320 2 5.50509 48.3461 65.3521
19322 2 4.58557 49.9143 62.7704
13679 1 9.13843 48.3253 64.0779
19272 2 8.23199 49.9564 65.3206
19275 2 10.0418 49.9143 62.7704
19321 2 7.31488 48.3032 62.8022
13700 1 0.950009 53.1571 63.9812
19303 2 2.77274 53.1764 65.257
19353 2 0.0462241 51.5665 65.2888
19354 2 1.85605 51.5254 62.7381
13662 1 6.40625 53.1571 63.9812
13709 1 3.67971 51.5466 64.0137
19302 2 5.50246 51.5665 65.2888
19308 2 4.58252 53.1365 62.7056
13661 1 9.13595 51.5466 64.0137
19258 2 8.22897 53.1764 65.257
19274 2 10.0388 53.1365 62.7056
19324 2 7.31228 51.5254 62.7381
13699 1 0.94612 56.3774 63.9169
19293 2 2.76892 56.395 65.1942
19351 2 0.0428056 54.7859 65.2254
19355 2 1.8525 54.7475 62.6732
13646 1 6.40236 56.3774 63.9169
13698 1 3.6763 54.7674 63.9489
19305 2 5.49904 54.7859 65.2254
19307 2 4.57847 56.3584 62.6411
13664 1 9.13254 54.7674 63.9489
19257 2 8.22516 56.395 65.1942
19259 2 10.0347 56.3584 62.6411
19306 2 7.30873 54.7475 62.6732
13718 1 1.87615 38.7045 66.8046
19315 2 0.971157 40.3358 68.048
13674 1 4.60381 40.3149 66.7782
19278 2 6.4274 40.3358 68.048
19331 2 3.69984 38.7247 68.0744
13626 1 10.06 40.3149 66.7782
13684 1 7.33239 38.7045 66.8046
19277 2 9.15608 38.7247 68.0744
13719 1 1.87516 41.9255 66.7505
19314 2 0.969817 43.5577 67.9922
13673 1 4.60268 43.536 66.7219
19270 2 6.42606 43.5577 67.9922
19313 2 3.69865 41.9468 68.0206
13625 1 10.0589 43.536 66.7219
13672 1 7.3314 41.9255 66.7505
19279 2 9.15489 41.9468 68.0206
13704 1 1.87385 45.1464 66.6923
19300 2 0.968038 46.7787 67.9328
13654 1 2.79002 46.7992 69.2203
13703 1 0.0628125 45.1892 69.2505
13659 1 4.60112 46.7567 66.6619
19269 2 6.42428 46.7787 67.9328
19316 2 3.69712 45.1683 67.9629
13653 1 5.51905 45.1892 69.2505
13624 1 10.0574 46.7567 66.6619
13675 1 7.33009 45.1464 66.6923
19268 2 9.15335 45.1683 67.9629
13615 1 8.24626 46.7992 69.2203
13705 1 1.87199 48.3669 66.6308
19299 2 0.965658 49.9984 67.8711
13641 1 2.78776 50.018 69.1583
13694 1 0.0608268 48.4088 69.1895
13658 1 4.59894 49.9768 66.5992
19255 2 6.4219 49.9984 67.8711
19298 2 3.69504 48.3887 67.9021
13656 1 5.51707 48.4088 69.1895
13617 1 10.0552 49.9768 66.5992
13657 1 7.32823 48.3669 66.6308
19271 2 9.15128 48.3887 67.9021
13614 1 8.244 50.018 69.1583
13696 1 1.86946 51.5864 66.5674
19292 2 0.962657 53.2163 67.8086
13640 1 2.78491 53.2346 69.0959
13695 1 0.0582726 51.6267 69.127
13645 1 4.59604 53.1956 66.5356
19254 2 6.4189 53.2163 67.8086
19301 2 3.69236 51.6076 67.8398
13639 1 5.51451 51.6267 69.127
13616 1 10.0523 53.1956 66.5356
13660 1 7.3257 51.5864 66.5674
19253 2 9.14859 51.6076 67.8398
13604 1 8.24115 53.2346 69.0959
13697 1 1.86618 54.8043 66.5041
19291 2 0.958996 56.4319 67.7474
13632 1 2.78145 56.4486 69.0349
13693 1 0.0551379 54.8419 69.0652
13644 1 4.59237 56.4126 66.4731
19240 2 6.41523 56.4319 67.7474
19290 2 3.68903 54.8244 67.7777
13642 1 5.51138 54.8419 69.0652
13605 1 10.0486 56.4126 66.4731
13643 1 7.32242 54.8043 66.5041
19256 2 9.14527 54.8244 67.7777
13603 1 8.23769 56.4486 69.0349
13651 1 0.977284 40.3988 71.9113
13670 1 2.793 40.3571 69.3361
13717 1 0.0654366 38.7459 69.3625
19311 2 1.89006 38.7653 70.62
13620 1 6.43352 40.3988 71.9113
13668 1 3.706 38.7869 71.9378
13669 1 5.52168 38.7459 69.3625
19266 2 4.61754 40.3773 70.5937
13619 1 9.16224 38.7869 71.9378
13623 1 8.24924 40.3571 69.3361
19224 2 10.0738 40.3773 70.5937
19276 2 7.3463 38.7653 70.62
13650 1 0.975955 43.6214 71.8555
13655 1 2.79171 43.5788 69.28
13702 1 0.0642782 41.9681 69.3085
19312 2 1.88873 41.989 70.5663
13612 1 6.43219 43.6214 71.8555
13649 1 3.70477 42.0103 71.8839
13671 1 5.52052 41.9681 69.3085
19265 2 4.61607 43.6004 70.538
13621 1 9.16101 42.0103 71.8839
13622 1 8.24795 43.5788 69.28
19223 2 10.0723 43.6004 70.538
19264 2 7.34496 41.989 70.5663
13637 1 0.974315 46.8418 71.7962
19296 2 1.88706 45.2114 70.5088
13611 1 6.43055 46.8418 71.7962
13652 1 3.7033 45.2319 71.8262
19251 2 4.61417 46.8218 70.479
13610 1 9.15954 45.2319 71.8262
19222 2 10.0704 46.8218 70.479
19267 2 7.3433 45.2114 70.5088
13636 1 0.972309 50.0594 71.7339
19297 2 1.88488 48.4316 70.4486
13601 1 6.42855 50.0594 71.7339
13635 1 3.70148 48.451 71.7654
19250 2 4.61164 50.0408 70.4179
13613 1 9.15772 48.451 71.7654
19216 2 10.0679 50.0408 70.4179
19249 2 7.34112 48.4316 70.4486
13631 1 0.969644 53.2737 71.673
19288 2 1.88213 51.6493 70.387
13600 1 6.42588 53.2737 71.673
13638 1 3.69916 51.667 71.7035
19239 2 4.6087 53.2569 70.3564
13599 1 9.1554 51.667 71.7035
19215 2 10.0649 53.2569 70.3564
19252 2 7.33837 51.6493 70.387
13630 1 0.966524 56.4847 71.6133
19289 2 1.87889 54.8637 70.326
13594 1 6.42276 56.4847 71.6133
13629 1 3.69626 54.8796 71.6429
19238 2 4.60517 56.4696 70.2962
13602 1 9.15249 54.8796 71.6429
19208 2 10.0614 56.4696 70.2962
19237 2 7.33513 54.8637 70.326
13647 1 1.83243 38.832 74.5898
19243 2 0.967177 40.4597 75.6017
19262 2 2.80582 40.4185 73.1257
19310 2 0.0783921 38.8054 73.1519
13608 1 4.56048 40.4436 74.5637
19218 2 6.42342 40.4597 75.6017
19260 2 3.69581 38.8463 75.6275
19261 2 5.53463 38.8054 73.1519
13590 1 10.0167 40.4436 74.5637
13618 1 7.28867 38.832 74.5898
19217 2 9.15205 38.8463 75.6275
19221 2 8.26206 40.4185 73.1257
13648 1 1.83239 42.0547 74.5365
19242 2 0.966159 43.6845 75.5475
19247 2 2.80426 43.6433 73.0706
19294 2 0.0769569 42.0311 73.0986
13607 1 4.56062 43.6652 74.5085
19211 2 6.4224 43.6845 75.5475
19241 2 3.69479 42.0724 75.575
19263 2 5.5332 42.0311 73.0986
13589 1 10.0169 43.6652 74.5085
13606 1 7.28863 42.0547 74.5365
19219 2 9.15103 42.0724 75.575
19220 2 8.2605 43.6433 73.0706
13633 1 1.83269 45.2752 74.4797
19231 2 0.964964 46.9061 75.4909
19246 2 2.80232 46.8654 73.0124
19295 2 0.0752141 45.2547 73.0418
13597 1 4.56103 46.8843 74.4504
19210 2 6.4212 46.9061 75.4909
19244 2 3.69371 45.2957 75.5195
19245 2 5.53145 45.2547 73.0418
13588 1 10.0173 46.8843 74.4504
13609 1 7.28893 45.2752 74.4797
19209 2 9.14994 45.2957 75.5195
19214 2 8.25855 46.8654 73.0124
13634 1 1.83325 48.4928 74.4206
19230 2 0.9635 50.1236 75.4335
19235 2 2.79966 50.0841 72.9524
19286 2 0.0729949 48.4754 72.9825
13596 1 4.56185 50.0999 74.3904
19204 2 6.41974 50.1236 75.4335
19229 2 3.69242 48.5154 75.4622
19248 2 5.52923 48.4754 72.9825
13587 1 10.0181 50.0999 74.3904
13595 1 7.28949 48.4928 74.4206
19212 2 9.14866 48.5154 75.4622
19213 2 8.2559 50.0841 72.9524
13627 1 1.83386 51.706 74.3602
19227 2 0.961791 53.3365 75.3741
19234 2 2.79684 53.2985 72.8918
19287 2 0.0702267 51.6918 72.9221
13593 1 4.5622 53.3115 74.3298
19203 2 6.41803 53.3365 75.3741
19232 2 3.69083 51.7307 75.4037
19233 2 5.52647 51.6918 72.9221
13586 1 10.0184 53.3115 74.3298
13598 1 7.2901 51.706 74.3602
19202 2 9.14706 51.7307 75.4037
19207 2 8.25308 53.2985 72.8918
13628 1 1.8343 54.916 74.2997
19226 2 0.959789 56.5442 75.3163
19228 2 2.79342 56.5086 72.8326
19285 2 0.0670713 54.9042 72.8619
13592 1 4.56262 56.5196 74.2703
19201 2 6.41603 56.5442 75.3163
19225 2 3.68895 54.941 75.3449
19236 2 5.52331 54.9042 72.8619
13585 1 10.0189 56.5196 74.2703
13591 1 7.29054 54.916 74.2997
19205 2 9.14519 54.941 75.3449
19206 2 8.24966 56.5086 72.8326
7545 2 0.927106 58.0807 -1.46014
7553 2 2.75303 58.0566 -3.95682
1344 1 1.86117 59.6611 -2.92152
7558 2 0.0266502 59.6419 -3.97549
1330 1 4.58626 58.0769 -2.90239
7515 2 6.38334 58.0807 -1.46014
7543 2 3.65626 59.6644 -1.47934
7554 2 5.48289 59.6419 -3.97549
1284 1 10.0425 58.0769 -2.90239
7518 2 8.20926 58.0566 -3.95682
1328 1 7.31741 59.6611 -2.92152
7516 2 9.1125 59.6644 -1.47934
7544 2 0.929155 61.249 -1.49718
7549 2 2.75644 61.2283 -3.99285
1340 1 1.86666 62.8316 -2.95558
7559 2 0.0298943 62.8156 -4.00876
1329 1 4.59213 61.246 -2.93929
7509 2 6.38539 61.249 -1.49718
7546 2 3.65824 62.8345 -1.51355
7547 2 5.48613 62.8156 -4.00876
1283 1 10.0484 61.246 -2.93929
7517 2 8.21268 61.2283 -3.99285
1331 1 7.3229 62.8316 -2.95558
7507 2 9.11448 62.8345 -1.51355
7534 2 0.93104 64.4207 -1.5283
7548 2 2.75948 64.4037 -4.02312
1341 1 1.87125 66.0047 -2.98322
7556 2 0.0326847 65.9925 -4.0358
1322 1 4.5972 64.4179 -2.97026
7508 2 6.38728 64.4207 -1.5283
7532 2 3.66 66.0077 -1.54134
7550 2 5.48892 65.9925 -4.0358
1282 1 10.0534 64.4179 -2.97026
7512 2 8.21571 64.4037 -4.02312
1320 1 7.32749 66.0047 -2.98322
7510 2 9.11624 66.0077 -1.54134
7533 2 0.932637 67.5953 -1.55254
7538 2 2.76198 67.582 -4.0467
1336 1 1.87472 69.1796 -3.0036
7557 2 0.034851 69.172 -4.05575
1321 1 4.60125 67.592 -2.99436
7495 2 6.38888 67.5953 -1.55254
7535 2 3.6614 69.1835 -1.56184
7536 2 5.49109 69.172 -4.05575
1275 1 10.0575 67.592 -2.99436
7511 2 8.21821 67.582 -4.0467
1323 1 7.33096 69.1796 -3.0036
7493 2 9.11764 69.1835 -1.56184
7526 2 0.933807 70.7721 -1.56915
7537 2 2.76377 70.7625 -4.06287
1337 1 1.87689 72.3559 -3.01609
7555 2 0.0362309 72.3534 -4.06799
1308 1 4.60409 70.7676 -3.01086
7494 2 6.39005 70.7721 -1.56915
7524 2 3.66231 72.3611 -1.57441
7539 2 5.49247 72.3534 -4.06799
1274 1 10.0603 70.7676 -3.01086
7498 2 8.22001 70.7625 -4.06287
1306 1 7.33312 72.3559 -3.01609
7496 2 9.11855 72.3611 -1.57441
7525 2 0.934428 73.9503 -1.57758
7527 2 2.76471 73.9445 -4.07108
1727 1 1.87762 75.5328 -3.02029
7968 2 0.0367055 75.5357 -4.07212
1307 1 4.60556 73.9443 -3.01924
7477 2 6.39067 73.9503 -1.57758
7959 2 3.66263 75.5396 -1.57864
7960 2 5.49294 75.5357 -4.07212
1259 1 10.0618 73.9443 -3.01924
7497 2 8.22094 73.9445 -4.07108
1716 1 7.33386 75.5328 -3.02029
7922 2 9.11886 75.5396 -1.57864
1314 1 0.930774 58.123 2.35003
1326 1 2.74932 58.0974 -0.240577
1338 1 0.0225051 59.6801 -0.259899
7542 2 1.83963 59.6905 1.06838
1278 1 6.38701 58.123 2.35003
7505 2 4.5666 58.1085 1.08796
1312 1 3.66016 59.704 2.33022
1327 1 5.47874 59.6801 -0.259899
1281 1 8.20556 58.0974 -0.240577
7452 2 10.0228 58.1085 1.08796
1279 1 9.1164 59.704 2.33022
7503 2 7.29586 59.6905 1.06838
1313 1 0.93325 61.2857 2.3118
1318 1 2.75188 61.2635 -0.277857
1339 1 0.02494 62.8477 -0.294315
7530 2 1.84178 62.8566 1.03347
1270 1 6.38949 61.2857 2.3118
7504 2 4.56885 61.2732 1.05017
1315 1 3.66252 62.868 2.29491
1316 1 5.48118 62.8477 -0.294315
1280 1 8.20811 61.2635 -0.277857
7451 2 10.0251 61.2732 1.05017
1268 1 9.11876 62.868 2.29491
7506 2 7.29802 62.8566 1.03347
1300 1 0.935468 64.4509 2.27968
1317 1 2.75416 64.4325 -0.309148
1334 1 0.0270447 66.0179 -0.322244
7531 2 1.84366 66.0254 1.0051
1269 1 6.39171 64.4509 2.27968
7491 2 4.57088 64.4407 1.01841
1298 1 3.66456 66.0343 2.26623
1319 1 5.48328 66.0179 -0.322244
1273 1 8.2104 64.4325 -0.309148
7450 2 10.0271 64.4407 1.01841
1271 1 9.1208 66.0343 2.26623
7489 2 7.2999 66.0254 1.0051
1299 1 0.93731 67.6182 2.25467
1304 1 2.75605 67.6039 -0.333501
1335 1 0.0286866 69.1903 -0.342833
7522 2 1.84514 69.1963 0.984173
1255 1 6.39355 67.6182 2.25467
7490 2 4.57258 67.6106 0.993662
1301 1 3.66617 69.2025 2.24508
1302 1 5.48492 69.1903 -0.342833
1272 1 8.21229 67.6039 -0.333501
7443 2 10.0288 67.6106 0.993662
1253 1 9.1224 69.2025 2.24508
7492 2 7.30138 69.1963 0.984173
1292 1 0.938641 70.7871 2.23755
1303 1 2.75741 70.777 -0.350168
1333 1 0.0297362 72.364 -0.355448
7523 2 1.8461 72.3687 0.971339
1254 1 6.39488 70.7871 2.23755
7476 2 4.57382 70.7823 0.976712
1290 1 3.6672 72.3719 2.23212
1305 1 5.48597 72.364 -0.355448
1258 1 8.21365 70.777 -0.350168
7442 2 10.0301 70.7823 0.976712
1256 1 9.12343 72.3719 2.23212
7474 2 7.30234 72.3687 0.971339
1291 1 0.939342 73.9569 2.22885
1293 1 2.75813 73.9512 -0.358632
1726 1 0.0300979 75.5386 -0.359697
7949 2 1.84643 75.5419 0.967015
1237 1 6.39558 73.9569 2.22885
7475 2 4.57447 73.9552 0.968099
1708 1 3.66755 75.542 2.22775
1709 1 5.48634 75.5386 -0.359697
1257 1 8.21436 73.9512 -0.358632
7427 2 10.0307 73.9552 0.968099
1661 1 9.12379 75.542 2.22775
7921 2 7.30267 75.5419 0.967015
7501 2 2.74987 58.1349 3.64971
1311 1 1.8431 59.7273 4.90528
7528 2 0.0230486 59.7152 3.62971
1266 1 4.56983 58.1479 4.92562
7502 2 5.47929 59.7152 3.62971
1212 1 10.0261 58.1479 4.92562
7449 2 8.20611 58.1349 3.64971
1264 1 7.29934 59.7273 4.90528
7487 2 2.75242 61.2961 3.6111
1296 1 1.8457 62.8879 4.86898
7529 2 0.0254817 62.8776 3.59402
1265 1 4.57255 61.3074 4.88635
7485 2 5.48172 62.8776 3.59402
1211 1 10.0288 61.3074 4.88635
7448 2 8.20865 61.2961 3.6111
1267 1 7.30194 62.8879 4.86898
7486 2 2.75471 64.4597 3.57862
1297 1 1.84798 66.0506 4.83948
7520 2 0.0276034 66.0423 3.56501
1251 1 4.57501 64.469 4.85332
7488 2 5.48384 66.0423 3.56501
1210 1 10.0312 64.469 4.85332
7441 2 8.21095 64.4597 3.57862
1249 1 7.30421 66.0506 4.83948
7472 2 2.75662 67.6254 3.5533
1288 1 1.84977 69.2149 4.81771
7521 2 0.0292758 69.2089 3.54359
1250 1 4.57706 67.6326 4.82758
7470 2 5.48551 69.2089 3.54359
1203 1 10.0333 67.6326 4.82758
7440 2 8.21286 67.6254 3.5533
1252 1 7.30601 69.2149 4.81771
7471 2 2.75802 70.7927 3.53596
1289 1 1.85093 72.3803 4.80436
7519 2 0.0303543 72.3767 3.53046
1236 1 4.57856 70.7975 4.80995
7473 2 5.48659 72.3767 3.53046
1202 1 10.0348 70.7975 4.80995
7426 2 8.21426 70.7927 3.53596
1234 1 7.30717 72.3803 4.80436
7461 2 2.75875 73.9609 3.52714
1694 1 1.85134 75.5463 4.79986
7948 2 0.0307277 75.5451 3.52603
1235 1 4.57935 73.9633 4.80099
7908 2 5.48697 75.5451 3.52603
1188 1 10.0356 73.9633 4.80099
7425 2 8.21499 73.9609 3.52714
1660 1 7.30757 75.5463 4.79986
1262 1 2.75253 58.1725 7.49591
7483 2 0.932832 58.1602 6.21563
1294 1 0.0259322 59.7504 7.47492
7480 2 1.84535 59.7614 8.76212
7434 2 4.57185 58.1842 8.78333
7446 2 6.38907 58.1602 6.21563
1263 1 5.48217 59.7504 7.47492
7481 2 3.66239 59.7389 6.19508
1209 1 8.20877 58.1725 7.49591
7392 2 10.0281 58.1842 8.78333
7432 2 7.30159 59.7614 8.76212
7447 2 9.11863 59.7389 6.19508
1247 1 2.75551 61.3289 7.45537
7482 2 0.935654 61.3181 6.17596
1295 1 0.028765 62.9078 7.43743
7464 2 1.8484 62.9172 8.72424
7433 2 4.57503 61.3391 8.74237
7438 2 6.39189 61.3181 6.17596
1245 1 5.485 62.9078 7.43743
7484 2 3.66508 62.8979 6.15841
1208 1 8.21174 61.3289 7.45537
7391 2 10.0313 61.3391 8.74237
7435 2 7.30464 62.9172 8.72424
7436 2 9.12132 62.8979 6.15841
1246 1 2.75817 64.4872 7.42126
7468 2 0.93818 64.4782 6.14258
1286 1 0.0312294 66.067 7.40697
7465 2 1.85107 66.0747 8.69345
7419 2 4.57791 64.4957 8.70789
7437 2 6.39442 64.4782 6.14258
1248 1 5.48747 66.067 7.40697
7466 2 3.66741 66.0589 6.1286
1201 1 8.21441 64.4872 7.42126
7390 2 10.0342 64.4957 8.70789
7417 2 7.3073 66.0747 8.69345
7439 2 9.12365 66.0589 6.1286
1232 1 2.76039 67.6472 7.39471
7467 2 0.940278 67.6401 6.11659
1287 1 0.0331577 69.2277 7.38456
7456 2 1.85315 69.2336 8.67081
7418 2 4.58031 67.654 8.68106
7423 2 6.39652 67.6401 6.11659
1230 1 5.4894 69.2277 7.38456
7469 2 3.66923 69.2215 6.10664
1200 1 8.21663 67.6472 7.39471
7384 2 10.0366 67.654 8.68106
7420 2 7.30939 69.2336 8.67081
7421 2 9.12547 69.2215 6.10664
1231 1 2.76198 70.8085 7.37661
7460 2 0.94178 70.8033 6.09885
1285 1 0.034363 72.3894 7.37093
7457 2 1.85444 72.3935 8.6571
7407 2 4.58203 70.8135 8.6628
7422 2 6.39802 70.8033 6.09885
1233 1 5.4906 72.3894 7.37093
7458 2 3.67038 72.3852 6.09326
1187 1 8.21822 70.8085 7.37661
7383 2 10.0383 70.8135 8.6628
7405 2 7.31068 72.3935 8.6571
7424 2 9.12662 72.3852 6.09326
1221 1 2.76277 73.9704 7.36756
7459 2 0.942535 73.9673 6.08993
1693 1 0.0347033 75.5515 7.36653
7887 2 1.85477 75.5538 8.65278
7406 2 4.58285 73.9736 8.65375
7408 2 6.39877 73.9673 6.08993
1645 1 5.49094 75.5515 7.36653
7907 2 3.67072 75.5495 6.08889
1186 1 8.219 73.9704 7.36756
7376 2 10.0391 73.9736 8.65375
7852 2 7.31101 75.5538 8.65278
7853 2 9.12696 75.5495 6.08889
1243 1 0.935189 58.1958 10.0651
7430 2 2.75446 58.2078 11.3519
7462 2 0.0282231 59.7834 11.3298
1206 1 6.39143 58.1958 10.0651
1241 1 3.66503 59.7723 10.0434
7431 2 5.48446 59.7834 11.3298
7389 2 8.2107 58.2078 11.3519
1207 1 9.12127 59.7723 10.0434
1242 1 0.938571 61.3491 10.0231
7415 2 2.75816 61.3594 11.3093
7463 2 0.0317931 62.9359 11.2905
1224 1 1.85167 62.9448 12.571
1198 1 6.39481 61.3491 10.0231
1244 1 3.66828 62.9265 10.0045
7413 2 5.48803 62.9359 11.2905
7388 2 8.2144 61.3594 11.3093
1196 1 9.12451 62.9265 10.0045
1195 1 7.30791 62.9448 12.571
1228 1 0.94165 64.5042 9.98772
7414 2 2.76157 64.5128 11.2735
7454 2 0.0349775 66.09 11.2585
1225 1 1.85517 66.0973 12.538
1197 1 6.39789 64.5042 9.98772
1226 1 3.67114 66.0823 9.9729
7416 2 5.49122 66.09 11.2585
1180 1 4.5816 64.5209 12.5535
1178 1 7.31141 66.0973 12.538
7382 2 8.21781 64.5128 11.2735
1199 1 9.12738 66.0823 9.9729
1162 1 10.0378 64.5209 12.5535
1216 1 1.858 69.2509 12.5139
1227 1 0.944247 67.6607 9.9602
7403 2 2.76446 67.6675 11.2456
7455 2 0.0375094 69.2453 11.235
1184 1 6.40049 67.6607 9.9602
1229 1 3.67341 69.2395 9.9497
7401 2 5.49375 69.2453 11.235
1179 1 4.58481 67.674 12.5248
1181 1 7.31424 69.2509 12.5139
7381 2 8.2207 67.6675 11.2456
1182 1 9.12965 69.2395 9.9497
1159 1 10.0411 67.674 12.5248
1220 1 0.94611 70.8184 9.94151
7402 2 2.76655 70.8233 11.2267
1217 1 1.85975 72.4053 12.4994
7453 2 0.0390677 72.4014 11.2209
1172 1 4.58715 70.828 12.5054
1183 1 6.40235 70.8184 9.94151
1218 1 3.6748 72.3975 9.9357
7404 2 5.49531 72.4014 11.2209
1158 1 10.0434 70.828 12.5054
7375 2 8.22279 70.8233 11.2267
1185 1 9.13104 72.3975 9.9357
1170 1 7.31599 72.4053 12.4994
1219 1 0.94699 73.9767 9.93231
7396 2 2.76752 73.9797 11.2175
7886 2 0.0394045 75.5579 11.2166
1623 1 1.86011 75.56 12.4951
1171 1 4.58823 73.9826 12.496
1173 1 6.40323 73.9767 9.93231
1644 1 3.67513 75.5559 9.93137
7837 2 5.49564 75.5579 11.2166
1155 1 10.0445 73.9826 12.496
7374 2 8.22376 73.9797 11.2175
1589 1 9.13137 75.5559 9.93137
1588 1 7.31635 75.56 12.4951
1190 1 2.7562 58.2429 15.2037
7411 2 0.936882 58.2316 13.9209
1240 1 1.84782 59.7939 12.6116
1222 1 0.0304664 59.8161 15.1799
1194 1 4.57393 58.219 12.6343
7386 2 6.39312 58.2316 13.9209
1191 1 5.4867 59.8161 15.1799
7409 2 3.66722 59.8056 13.898
1161 1 8.21243 58.2429 15.2037
1164 1 10.0302 58.219 12.6343
1192 1 7.30406 59.7939 12.6116
7387 2 9.12346 59.8056 13.898
1176 1 2.76095 61.3898 15.1577
7410 2 0.941278 61.38 13.8765
1223 1 0.0351612 62.9637 15.1373
1193 1 4.5779 61.3691 12.5905
7379 2 6.39752 61.38 13.8765
1174 1 5.4914 62.9637 15.1373
7412 2 3.67152 62.9548 13.8568
1160 1 8.21719 61.3898 15.1577
1163 1 10.0341 61.3691 12.5905
7377 2 9.12776 62.9548 13.8568
1175 1 2.76555 64.538 15.1188
7399 2 0.945441 64.5299 13.839
1214 1 0.039584 66.1126 15.1026
7378 2 6.40168 64.5299 13.839
1177 1 5.49582 66.1126 15.1026
7397 2 3.67547 66.1053 13.8233
1157 1 8.22179 64.538 15.1188
7380 2 9.13171 66.1053 13.8233
1168 1 2.76968 67.6875 15.0887
7398 2 0.949092 67.681 13.8099
1215 1 0.0432858 69.2625 15.0773
7372 2 6.40533 67.681 13.8099
7400 2 3.6787 69.2569 13.7988
1166 1 5.49952 69.2625 15.0773
1156 1 8.22592 67.6875 15.0887
7370 2 9.13494 69.2569 13.7988
7395 2 0.951771 70.833 13.7902
1167 1 2.77278 70.8377 15.0685
1213 1 0.0456227 72.413 15.0623
1169 1 5.50186 72.413 15.0623
7393 2 3.68071 72.4092 13.7842
7371 2 6.40801 70.833 13.7902
7373 2 9.13695 72.4092 13.7842
1154 1 8.22902 70.8377 15.0685
7394 2 0.953002 73.9855 13.7808
1165 1 2.77422 73.9883 15.0588
1622 1 0.0460566 75.5637 15.058
7369 2 6.40924 73.9855 13.7808
1573 1 5.50229 75.5637 15.058
7836 2 3.6811 75.5618 13.78
1153 1 8.23045 73.9883 15.0588
7793 2 9.13734 75.5618 13.78
7750 2 0.0256297 56.7143 19.0879
7734 2 2.75692 58.2844 19.0609
1534 1 0.938107 58.2686 17.7737
7752 2 1.84979 59.8291 16.4664
7738 2 4.57525 58.2568 16.4906
7733 2 5.48187 56.7143 19.0879
1511 1 6.39435 58.2686 17.7737
1532 1 3.6691 59.8401 17.7485
7689 2 8.21316 58.2844 19.0609
7692 2 10.0315 58.2568 16.4906
7736 2 7.30602 59.8291 16.4664
1512 1 9.12534 59.8401 17.7485
7746 2 0.0320195 59.8548 19.0353
1533 1 0.943879 61.4119 17.7249
7726 2 2.7634 61.4255 19.0112
7748 2 1.85507 62.9747 16.423
7747 2 0.0385875 62.9965 18.9891
7737 2 4.58056 61.4017 16.4438
7735 2 5.48826 59.8548 19.0353
1507 1 6.40012 61.4119 17.7249
1535 1 3.67491 62.984 17.7033
7724 2 5.49483 62.9965 18.9891
7688 2 8.21964 61.4255 19.0112
7691 2 10.0368 61.4017 16.4438
7739 2 7.31131 62.9747 16.423
1505 1 9.13115 62.984 17.7033
1527 1 0.949688 64.5565 17.6838
7725 2 2.77002 64.5678 18.9693
7749 2 1.86013 66.1215 16.3878
7742 2 0.0451562 66.1392 18.9519
7730 2 4.58577 64.548 16.4043
1506 1 6.40593 64.5565 17.6838
1525 1 3.68063 66.1291 17.6666
7727 2 5.50139 66.1392 18.9519
7681 2 8.22626 64.5678 18.9693
7690 2 10.042 64.548 16.4043
1508 1 9.13687 66.1291 17.6666
7728 2 7.31636 66.1215 16.3878
1526 1 0.955165 67.702 17.652
7712 2 2.77635 67.7108 18.9371
7744 2 1.8644 69.2691 16.3621
7743 2 0.0509718 69.2824 18.925
7729 2 4.59053 67.6952 16.3737
1495 1 6.4114 67.702 17.652
1528 1 3.68564 69.2749 17.6401
7710 2 5.50721 69.2824 18.925
7680 2 8.23259 67.7108 18.9371
7683 2 10.0468 67.6952 16.3737
7731 2 7.32064 69.2691 16.3621
1493 1 9.14188 69.2749 17.6401
1520 1 0.959435 70.8479 17.6309
7711 2 2.78133 70.8539 18.9158
7745 2 1.86712 72.4171 16.347
7741 2 0.0547776 72.4254 18.9094
1494 1 6.41567 70.8479 17.6309
7716 2 4.59412 70.8431 16.3532
1518 1 3.6889 72.4209 17.6245
7713 2 5.51102 72.4254 18.9094
7666 2 8.23757 70.8539 18.9158
7682 2 10.0504 70.8431 16.3532
1496 1 9.14513 72.4209 17.6245
7714 2 7.32336 72.4171 16.347
1519 1 0.961437 73.994 17.6209
7701 2 2.78367 73.9969 18.9058
8159 2 1.86761 75.5653 16.3428
8158 2 0.0554556 75.5683 18.9052
1477 1 6.41768 73.994 17.6209
7715 2 4.59578 73.9912 16.3435
8141 2 5.51169 75.5683 18.9052
1920 1 3.68948 75.567 17.6203
7665 2 8.23991 73.9969 18.9058
7667 2 10.052 73.9912 16.3435
8148 2 7.32385 75.5653 16.3428
1894 1 9.14572 75.567 17.6203
1530 1 1.84416 56.7282 20.3727
7722 2 0.93791 58.3159 21.6322
7732 2 3.66223 56.7478 21.661
1503 1 4.5757 58.2974 20.3445
7686 2 6.39415 58.3159 21.6322
1452 1 10.0319 58.2974 20.3445
1509 1 7.30039 56.7282 20.3727
7685 2 9.11847 56.7478 21.661
1531 1 1.85106 59.8668 20.3176
7721 2 0.945826 61.4527 21.5789
1502 1 4.58275 61.4366 20.2923
7678 2 6.40206 61.4527 21.5789
7720 2 3.66992 59.8842 21.6047
1451 1 10.039 61.4366 20.2923
1501 1 7.3073 59.8668 20.3176
7687 2 9.12616 59.8842 21.6047
1523 1 1.85829 63.0068 20.2691
7708 2 0.954279 64.5905 21.534
1524 1 1.86578 66.1477 20.2302
1491 1 4.59015 64.5771 20.2483
7677 2 6.41052 64.5905 21.534
7723 2 3.67811 63.0215 21.5552
1450 1 10.0464 64.5771 20.2483
1504 1 7.31453 63.0068 20.2691
7676 2 9.13435 63.0215 21.5552
1489 1 7.32202 66.1477 20.2302
7707 2 0.962803 67.7286 21.5001
1516 1 1.8727 69.2888 20.2024
1490 1 4.59753 67.7183 20.2148
7663 2 6.41904 67.7286 21.5001
7706 2 3.68672 66.1596 21.5156
7709 2 3.69476 69.2975 21.4877
1443 1 10.0538 67.7183 20.2148
7679 2 9.14296 66.1596 21.5156
1492 1 7.32894 69.2888 20.2024
7661 2 9.151 69.2975 21.4877
7700 2 0.969834 70.8662 21.4783
1517 1 1.87738 72.4295 20.1864
1476 1 4.60356 70.8592 20.1929
7662 2 6.42607 70.8662 21.4783
7698 2 3.70022 72.4346 21.4718
1442 1 10.0598 70.8592 20.1929
1474 1 7.33362 72.4295 20.1864
7664 2 9.15646 72.4346 21.4718
7699 2 0.973231 74.0027 21.4684
1914 1 1.87822 75.5698 20.1822
1475 1 4.60646 73.9997 20.1828
7645 2 6.42947 74.0027 21.4684
8140 2 3.70121 75.5708 21.4678
1427 1 10.0627 73.9997 20.1828
1893 1 7.33446 75.5698 20.1822
8093 2 9.15745 75.5708 21.4678
1483 1 0.935364 58.3706 25.4907
1499 1 2.75619 58.3306 22.9166
1529 1 0.0239768 56.7637 22.9469
7718 2 1.84142 56.7874 24.2358
1446 1 6.3916 58.3706 25.4907
1497 1 3.6586 56.8064 25.5236
1498 1 5.48022 56.7637 22.9469
7674 2 4.57407 58.3531 24.2049
1445 1 9.11484 56.8064 25.5236
1449 1 8.21243 58.3306 22.9166
7620 2 10.0303 58.3531 24.2049
7684 2 7.29766 56.7874 24.2358
1482 1 0.94585 61.4994 25.4282
1487 1 2.7648 61.4652 22.8599
1521 1 0.0322928 59.8978 22.8874
7719 2 1.85067 59.9188 24.175
1438 1 6.40209 61.4994 25.4282
1481 1 3.66857 59.9348 25.4586
1500 1 5.48853 59.8978 22.8874
7673 2 4.58373 61.4847 24.1469
1447 1 9.12481 59.9348 25.4586
1448 1 8.22104 61.4652 22.8599
7619 2 10.04 61.4847 24.1469
7672 2 7.3069 59.9188 24.175
1468 1 0.957929 64.6299 25.3761
1486 1 2.77426 64.6012 22.8124
1522 1 0.0412932 63.0331 22.8348
7704 2 1.86085 63.0509 24.1212
1437 1 6.41417 64.6299 25.3761
1484 1 3.67975 63.0645 25.4005
1485 1 5.49753 63.0331 22.8348
7659 2 4.59451 64.6173 24.0984
1436 1 9.13599 63.0645 25.4005
1441 1 8.2305 64.6012 22.8124
7618 2 10.0508 64.6173 24.0984
7675 2 7.31709 63.0509 24.1212
1467 1 0.971614 67.7606 25.3394
1472 1 2.78428 67.7374 22.7773
1514 1 0.0511556 66.1694 22.7932
7705 2 1.87217 66.1837 24.0789
1423 1 6.42785 67.7606 25.3394
1466 1 3.69276 66.1954 25.3557
1488 1 5.50739 66.1694 22.7932
7658 2 4.60606 67.7499 24.0629
1439 1 9.149 66.1954 25.3557
1440 1 8.24052 67.7374 22.7773
7611 2 10.0623 67.7499 24.0629
7657 2 7.32841 66.1837 24.0789
1460 1 0.984138 70.8884 25.3186
1471 1 2.79293 70.8724 22.7552
1515 1 0.0608303 69.3051 22.7646
7696 2 1.88337 69.3155 24.0504
7697 2 1.89133 72.445 24.0353
1513 1 0.0676815 72.4392 22.7488
1422 1 6.44038 70.8884 25.3186
1469 1 3.7064 69.325 25.3272
1470 1 5.51707 69.3051 22.7646
7644 2 4.61611 70.8806 24.0413
1458 1 3.71651 72.4506 25.3132
1473 1 5.52392 72.4392 22.7488
7642 2 7.34757 72.445 24.0353
1424 1 9.17275 72.4506 25.3132
7610 2 10.0723 70.8806 24.0413
1426 1 8.24917 70.8724 22.7552
7660 2 7.33961 69.3155 24.0504
1421 1 9.16264 69.325 25.3272
1461 1 2.79723 74.0056 22.7454
1459 1 0.990581 74.012 25.3104
1913 1 0.0689341 75.5719 22.7449
8126 2 1.8928 75.5725 24.0316
1406 1 6.44682 74.012 25.3104
7643 2 4.62113 74.0088 24.0321
1881 1 3.71844 75.573 25.3099
1882 1 5.52517 75.5719 22.7449
7596 2 10.0774 74.0088 24.0321
1425 1 8.25347 74.0056 22.7454
1829 1 9.17468 75.573 25.3099
8092 2 7.34904 75.5725 24.0316
1479 1 1.83488 56.8597 28.1039
7670 2 2.75237 58.3986 26.7796
7717 2 0.0188717 56.8355 26.813
1434 1 4.56876 58.4207 28.0684
7669 2 5.47511 56.8355 26.813
1386 1 10.025 58.4207 28.0684
1444 1 7.29112 56.8597 28.1039
7617 2 8.20861 58.3986 26.7796
1480 1 1.84672 59.981 28.0328
7655 2 2.76408 61.5239 26.7156
7702 2 0.0299178 59.9612 26.7468
1433 1 4.58137 61.5417 27.9983
7671 2 5.48616 59.9612 26.7468
1385 1 10.0376 61.5417 27.9983
1432 1 7.30295 59.981 28.0328
7616 2 8.22032 61.5239 26.7156
1464 1 1.86052 63.1031 27.9668
7654 2 2.77778 64.6498 26.6621
7703 2 0.0425103 63.0867 26.687
7636 2 0.959457 64.6903 29.2243
1419 1 4.59678 64.6651 27.9394
7653 2 5.49875 63.0867 26.687
7605 2 6.4157 64.6903 29.2243
7652 2 3.67844 63.1317 29.2525
1384 1 10.053 64.6651 27.9394
1435 1 7.31675 63.1031 27.9668
7609 2 8.23401 64.6498 26.6621
7604 2 9.13468 63.1317 29.2525
1465 1 1.87777 66.2275 27.9177
7640 2 2.79349 67.7756 26.6252
7694 2 0.0573868 66.2129 26.6413
7635 2 0.980987 67.8069 29.1865
1418 1 4.61575 67.7892 27.9014
7656 2 5.51363 66.2129 26.6413
7592 2 6.43722 67.8069 29.1865
7634 2 3.69798 66.2489 29.2021
1377 1 10.072 67.7892 27.9014
1417 1 7.33401 66.2275 27.9177
7608 2 8.24972 67.7756 26.6252
7607 2 9.15422 66.2489 29.2021
1456 1 1.89721 69.3496 27.8911
7639 2 2.80793 70.8978 26.6057
7695 2 0.0731144 69.3373 26.6134
7628 2 1.00192 70.9179 29.1725
1405 1 4.63389 70.9082 27.8848
7638 2 5.52935 69.3373 26.6134
7591 2 6.45816 70.9179 29.1725
7637 2 3.72034 69.3634 29.1769
1376 1 10.0901 70.9082 27.8848
1420 1 7.35345 69.3496 27.8911
7595 2 8.26417 70.8978 26.6057
7590 2 9.17658 69.3634 29.1769
1457 1 1.91221 72.4644 27.8821
7629 2 2.81539 74.0153 26.5989
7693 2 0.0847394 72.4571 26.6011
7627 2 1.01277 74.0219 29.1714
1863 1 1.91514 75.573 27.8806
8125 2 0.0869723 75.5733 26.5984
1404 1 4.64366 74.0189 27.8812
7641 2 5.54098 72.4571 26.6011
7581 2 6.46901 74.0219 29.1714
7626 2 3.73735 72.4704 29.1716
8077 2 5.54321 75.5733 26.5984
8076 2 3.74049 75.5733 29.1708
1365 1 10.0999 74.0189 27.8812
1403 1 7.36844 72.4644 27.8821
7594 2 8.27162 74.0153 26.5989
7593 2 9.19359 72.4704 29.1716
1828 1 7.37138 75.573 27.8806
8021 2 9.19673 75.5733 29.1708
1430 1 2.74287 58.4865 30.6521
1478 1 0.008215 56.9283 30.6891
7647 2 1.8216 56.972 31.9762
7651 2 0.928131 58.4563 29.3574
1429 1 5.46445 56.9283 30.6891
7602 2 4.55636 58.5313 31.9387
7614 2 6.38437 58.4563 29.3574
7668 2 3.65002 56.8957 29.3932
1383 1 8.19911 58.4865 30.6521
7572 2 10.0126 58.5313 31.9387
7612 2 7.27783 56.972 31.9762
7613 2 9.10626 56.8957 29.3932
1415 1 2.7577 61.5969 30.5734
1462 1 0.0219216 60.0423 30.6132
7648 2 1.83589 60.0872 31.8987
7650 2 0.942193 61.5735 29.2853
1431 1 5.47816 60.0423 30.6132
7601 2 4.57274 61.6399 31.8573
7606 2 6.39843 61.5735 29.2853
7649 2 3.66302 60.0153 29.3209
1382 1 8.21394 61.5969 30.5734
7571 2 10.029 61.6399 31.8573
7600 2 7.29213 60.0872 31.8987
7615 2 9.11926 60.0153 29.3209
1414 1 2.77717 64.7094 30.504
1463 1 0.0382165 63.1524 30.5359
7632 2 1.85435 63.1909 31.8171
1413 1 5.49445 63.1524 30.5359
7588 2 4.59436 64.7423 31.7837
1375 1 8.23341 64.7094 30.504
7570 2 10.0506 64.7423 31.7837
7603 2 7.31059 63.1909 31.8171
1401 1 2.8043 67.8246 30.4647
1454 1 0.0612932 66.2673 30.4796
7633 2 1.87987 66.2934 31.7583
1416 1 5.51753 66.2673 30.4796
7587 2 4.62424 67.8439 31.7449
1374 1 8.26054 67.8246 30.4647
7567 2 10.0805 67.8439 31.7449
7586 2 7.33611 66.2934 31.7583
1400 1 2.83118 70.9312 30.4576
1455 1 0.0893808 69.3801 30.458
7624 2 1.9127 69.3924 31.7402
1399 1 5.54562 69.3801 30.458
7580 2 4.65557 70.9374 31.7453
1364 1 8.28742 70.9312 30.4576
7566 2 10.1118 70.9374 31.7453
7589 2 7.36894 69.3924 31.7402
1392 1 2.84505 74.0257 30.461
1453 1 0.112651 72.4785 30.4603
7625 2 1.93768 72.4825 31.7498
1862 1 0.116398 75.5726 30.4603
8055 2 1.9423 75.5735 31.7511
1402 1 5.56889 72.4785 30.4603
7579 2 4.67098 74.028 31.7519
1813 1 5.57264 75.5726 30.4603
1363 1 8.30129 74.0257 30.461
7563 2 10.1272 74.028 31.7519
7578 2 7.39391 72.4825 31.7498
8020 2 7.39854 75.5735 31.7511
1411 1 0.912545 58.5771 33.2432
7598 2 2.72401 58.6295 34.5217
1428 1 3.63397 57.0181 33.2786
1407 1 1.79923 57.1345 35.8683
1380 1 6.36878 58.5771 33.2432
7597 2 5.44637 57.0679 34.5592
1368 1 4.5316 58.7029 35.8386
1378 1 7.25547 57.1345 35.8683
1379 1 9.09021 57.0181 33.2786
7569 2 8.18025 58.6295 34.5217
10910 2 10.9026 57.0679 34.5592
1350 1 9.98784 58.7029 35.8386
1410 1 0.929384 61.6779 33.1618
7584 2 2.74043 61.7339 34.4327
7630 2 0.00318862 60.1853 34.4798
1408 1 1.809 60.265 35.8063
1372 1 6.38562 61.6779 33.1618
1409 1 3.64851 60.13 33.2041
7599 2 5.45943 60.1853 34.4798
1367 1 4.54353 61.8152 35.7688
1366 1 7.26524 60.265 35.8063
1381 1 9.10475 60.13 33.2041
7568 2 8.19667 61.7339 34.4327
1349 1 9.99977 61.8152 35.7688
1397 1 0.950673 64.7689 33.0753
7583 2 2.76438 64.8126 34.3341
7631 2 0.0240539 63.2757 34.3821
1393 1 1.82593 63.3567 35.7291
1371 1 6.40691 64.7689 33.0753
1412 1 3.66655 63.2221 33.1163
7582 2 5.48029 63.2757 34.3821
1357 1 4.56224 64.8744 35.6781
1370 1 9.12279 63.2221 33.1163
7565 2 8.22062 64.8126 34.3341
1369 1 7.28217 63.3567 35.7291
1348 1 10.0185 64.8744 35.6781
1396 1 0.989969 67.8705 33.0304
7576 2 2.80653 67.8839 34.2946
7622 2 0.0581941 66.3495 34.3057
1394 1 1.84704 66.415 35.6378
1361 1 6.44621 67.8705 33.0304
1395 1 3.69607 66.3188 33.0481
7585 2 5.51443 66.3495 34.3057
1356 1 4.64228 67.9086 35.6351
1373 1 9.1523 66.3188 33.0481
7564 2 8.26277 67.8839 34.2946
1355 1 7.30328 66.415 35.6378
1347 1 10.0985 67.9086 35.6351
1391 1 1.03598 70.9473 33.0469
7575 2 2.85844 70.9485 34.3272
7623 2 0.107839 69.412 34.311
1387 1 1.94477 69.4088 35.6653
1360 1 6.49222 70.9473 33.0469
1398 1 3.74174 69.4126 33.0385
7574 2 5.56408 69.412 34.311
1353 1 4.69419 70.9512 35.6458
1359 1 9.19798 69.4126 33.0385
7562 2 8.31468 70.9485 34.3272
1358 1 7.40101 69.4088 35.6653
1346 1 10.1504 70.9512 35.6458
7573 2 2.88385 74.032 34.3402
1390 1 1.05118 74.0309 33.05
1388 1 1.97801 72.4914 35.6424
7621 2 0.147876 72.4893 34.336
8054 2 0.155024 75.5757 34.3391
1791 1 1.98081 75.5786 35.643
1354 1 6.50742 74.0309 33.05
1389 1 3.7743 72.4879 33.0487
7577 2 5.60411 72.4893 34.336
1352 1 4.70954 74.032 35.6432
1812 1 3.77865 75.5736 33.0493
8005 2 5.61126 75.5757 34.3391
7561 2 8.34009 74.032 34.3402
1362 1 9.23054 72.4879 33.0487
1351 1 7.43425 72.4914 35.6424
1345 1 10.1658 74.032 35.6432
1763 1 9.23489 75.5736 33.0493
1762 1 7.43705 75.5786 35.643
7774 2 0.889758 58.7551 37.0998
13937 1 2.68163 58.8777 38.4229
7776 2 3.61451 57.1842 37.1363
7763 2 6.346 58.7551 37.0998
13936 1 5.41587 57.2798 38.4467
7762 2 9.07075 57.1842 37.1363
13902 1 8.13787 58.8777 38.4229
16764 1 10.8721 57.2798 38.4467
7773 2 0.901021 61.8729 37.0079
13933 1 2.65665 62.0924 38.3727
7772 2 3.62328 60.3184 37.0574
7760 2 6.35726 61.8729 37.0079
13938 1 5.40105 60.4776 38.4005
7764 2 9.07952 60.3184 37.0574
13901 1 8.11289 62.0924 38.3727
16762 1 10.8573 60.4776 38.4005
7770 2 0.928036 64.9324 36.8803
13932 1 2.40982 65.5297 38.4396
7759 2 6.38427 64.9324 36.8803
7775 2 3.6423 63.4075 36.9429
13931 1 5.35462 63.7015 38.3437
7758 2 9.09854 63.4075 36.9429
13896 1 7.86606 65.5297 38.4396
16763 1 10.8109 63.7015 38.3437
7769 2 0.965948 67.8995 36.877
13922 1 2.18539 69.1027 38.3094
7756 2 6.42219 67.8995 36.877
7768 2 3.64633 66.4214 36.8214
13934 1 4.8845 67.2496 38.3828
7761 2 9.10257 66.4214 36.8214
13895 1 7.64163 69.1027 38.3094
16760 1 10.3407 67.2496 38.3828
7767 2 1.10078 70.937 36.9054
13921 1 2.18083 72.4264 38.254
7755 2 6.55702 70.937 36.9054
7771 2 3.78079 69.3946 36.8797
13920 1 4.91053 70.7875 38.2483
7754 2 9.23703 69.3946 36.8797
13882 1 7.63707 72.4264 38.254
16761 1 10.3668 70.7875 38.2483
7766 2 1.12272 74.0325 36.9216
7753 2 6.57896 74.0325 36.9216
7765 2 3.84297 72.4789 36.9205
13923 1 4.91223 74.0175 38.2493
8184 2 3.84964 75.5833 36.92
7757 2 9.29921 72.4789 36.9205
16759 1 10.3685 74.0175 38.2493
8170 2 9.30588 75.5833 36.92
19559 2 1.78652 57.3195 39.7001
19542 2 2.68971 59.0626 42.2094
13929 1 0.85228 59.0432 40.9715
13935 1 3.58859 57.4233 41.0008
19546 2 4.51366 58.9127 39.6642
19541 2 5.42124 57.4507 42.2485
13899 1 6.30852 59.0432 40.9715
19548 2 7.24276 57.3195 39.7001
22378 2 10.8775 57.4507 42.2485
13898 1 9.04483 57.4233 41.0008
19497 2 8.14595 59.0626 42.2094
19500 2 9.9699 58.9127 39.6642
19560 2 1.78448 60.5116 39.6225
13928 1 0.817902 62.3186 40.9079
19534 2 2.67448 62.3141 42.1127
13927 1 3.56711 60.6699 40.9396
19545 2 4.50739 62.115 39.5777
19543 2 5.41238 60.6824 42.1651
13893 1 6.27414 62.3186 40.9079
19544 2 7.24072 60.5116 39.6225
22374 2 10.8686 60.6824 42.1651
13900 1 9.02335 60.6699 40.9396
19496 2 8.13072 62.3141 42.1127
19499 2 9.96363 62.115 39.5777
19556 2 1.7734 63.7405 39.5176
13918 1 0.825322 65.6302 40.6963
19533 2 2.62896 65.6569 41.9805
13930 1 3.52891 63.9721 40.8613
19538 2 4.46399 65.3806 39.4397
13892 1 6.28156 65.6302 40.6963
19532 2 5.3844 63.9788 42.0523
19547 2 7.22964 63.7405 39.5176
22375 2 10.8406 63.9788 42.0523
13891 1 8.98515 63.9721 40.8613
19489 2 8.08519 65.6569 41.9805
19498 2 9.92023 65.3806 39.4397
19557 2 1.61802 67.2701 39.3909
13917 1 0.743478 68.944 40.649
19520 2 2.55136 68.9959 41.9562
13916 1 3.55345 67.2153 40.5644
19537 2 4.29263 69.051 39.4274
13879 1 6.19972 68.944 40.649
19535 2 5.31932 67.3193 41.9506
19536 2 7.07426 67.2701 39.3909
22370 2 10.7756 67.3193 41.9506
13894 1 9.00969 67.2153 40.5644
19488 2 8.0076 68.9959 41.9562
19491 2 9.74887 69.051 39.4274
19552 2 1.52202 70.7407 39.4679
13910 1 0.635102 72.3253 40.7749
19519 2 2.50216 72.3461 42.0105
13919 1 3.40152 70.635 40.7344
13878 1 6.09134 72.3253 40.7749
19518 2 5.24961 70.6759 41.9878
19524 2 4.22928 72.3768 39.4938
19539 2 6.97826 70.7407 39.4679
22371 2 10.7059 70.6759 41.9878
13877 1 8.85776 70.635 40.7344
19474 2 7.95839 72.3461 42.0105
19490 2 9.68552 72.3768 39.4938
19553 2 1.49125 74.0142 39.5078
13908 1 3.35147 73.9925 40.788
19521 2 5.22054 74.0036 42.0227
19522 2 6.94748 74.0142 39.5078
22369 2 10.6768 74.0036 42.0227
13880 1 8.80771 73.9925 40.788
13925 1 1.77386 57.5447 43.5355
19530 2 0.872476 59.1879 44.7458
19540 2 3.60503 57.566 44.7877
13889 1 4.49538 59.1723 43.4987
19494 2 6.32871 59.1879 44.7458
13897 1 7.2301 57.5447 43.5355
13836 1 9.95162 59.1723 43.4987
19493 2 9.06127 57.566 44.7877
13926 1 1.7606 60.8076 43.4559
19529 2 0.855638 62.4571 44.6472
19528 2 3.59395 60.8181 44.6991
13871 1 2.67667 62.5356 45.9188
13888 1 4.48628 62.4499 43.3948
19486 2 6.31188 62.4571 44.6472
13887 1 7.21684 60.8076 43.4559
13835 1 9.94252 62.4499 43.3948
19495 2 9.05019 60.8181 44.6991
13832 1 8.13291 62.5356 45.9188
13914 1 1.7501 64.0954 43.3168
19516 2 0.822313 65.7432 44.5521
19531 2 3.56779 64.1006 44.595
13870 1 2.6476 65.7959 45.8315
13875 1 4.45295 65.7327 43.2661
19485 2 6.27855 65.7432 44.5521
13890 1 7.20634 64.0954 43.3168
13869 1 5.39212 64.1669 45.8703
16733 1 10.8484 64.1669 45.8703
13834 1 9.90919 65.7327 43.2661
19484 2 9.02403 64.1006 44.595
13825 1 8.10384 65.7959 45.8315
13915 1 1.69945 67.3637 43.2291
19515 2 0.77742 69.0336 44.5155
19514 2 3.52794 67.3868 44.5258
13856 1 2.61666 69.0591 45.7857
13874 1 4.40543 68.9866 43.2044
19471 2 6.23366 69.0336 44.5155
13873 1 7.15569 67.3637 43.2291
13872 1 5.35972 67.4258 45.8025
16724 1 10.816 67.4258 45.8025
13827 1 9.86167 68.9866 43.2044
19487 2 8.98418 67.3868 44.5258
13824 1 8.0729 69.0591 45.7857
13906 1 1.66138 70.6439 43.2233
19508 2 0.749146 72.3433 44.5283
19517 2 3.48781 70.685 44.5197
13855 1 2.59948 72.348 45.7789
13860 1 4.36715 72.3152 43.2577
19470 2 6.20538 72.3433 44.5283
13876 1 7.11762 70.6439 43.2233
13854 1 5.33389 70.6978 45.777
16725 1 10.7901 70.6978 45.777
13826 1 9.82339 72.3152 43.2577
19469 2 8.94405 70.685 44.5197
13810 1 8.05572 72.348 45.7789
13907 1 1.62513 73.994 43.2771
19506 2 3.4722 74.0043 44.5336
13858 1 7.08137 73.994 43.2771
13857 1 5.32464 74.0058 45.7822
16723 1 10.7809 74.0058 45.7822
19472 2 8.92844 74.0043 44.5336
13867 1 0.881818 59.3448 48.5535
13885 1 2.69003 59.2701 46.0214
19526 2 1.79233 57.6616 47.325
13883 1 3.61405 57.7196 48.5966
13830 1 6.33806 59.3448 48.5535
13884 1 5.42194 57.6419 46.0646
19482 2 4.51562 59.2863 47.2827
19492 2 7.24857 57.6616 47.325
16744 1 10.8782 57.6419 46.0646
13829 1 9.07029 57.7196 48.5966
13833 1 8.14626 59.2701 46.0214
19434 2 9.97185 59.2863 47.2827
13866 1 0.867521 62.5972 48.4659
19527 2 1.78057 60.9151 47.238
13865 1 3.60394 60.9711 48.5089
13822 1 6.32376 62.5972 48.4659
13886 1 5.41318 60.9021 45.9718
19481 2 4.49944 62.5461 47.1932
19480 2 7.23681 60.9151 47.238
16732 1 10.8694 60.9021 45.9718
13831 1 9.06018 60.9711 48.5089
19433 2 9.95568 62.5461 47.1932
13852 1 0.846247 65.8487 48.3939
19512 2 1.76015 64.1776 47.152
13868 1 3.58559 64.2229 48.427
13821 1 6.30249 65.8487 48.3939
19467 2 4.47552 65.8091 47.117
19483 2 7.21639 64.1776 47.152
13820 1 9.04183 64.2229 48.427
19432 2 9.93175 65.8091 47.117
13851 1 0.826858 69.1054 48.3474
19513 2 1.73386 67.4417 47.0913
13850 1 3.56387 67.4756 48.3673
13807 1 6.2831 69.1054 48.3474
19466 2 4.44936 69.0774 47.0752
19465 2 7.1901 67.4417 47.0913
13823 1 9.02011 67.4756 48.3673
19425 2 9.90559 69.0774 47.0752
13844 1 0.816762 72.3767 48.3246
19504 2 1.71056 70.7177 47.0668
13853 1 3.54863 70.7391 48.3335
13806 1 6.273 72.3767 48.3246
19453 2 4.43193 72.3632 47.0633
19468 2 7.1668 70.7177 47.0668
13805 1 9.00487 70.7391 48.3335
19424 2 9.88816 72.3632 47.0633
19505 2 1.70076 74.0131 47.0621
13842 1 3.54351 74.018 48.3202
19451 2 7.157 74.0131 47.0621
13808 1 8.99975 74.018 48.3202
13863 1 1.80507 57.7823 51.1354
19478 2 2.70468 59.3612 49.8245
19459 2 0.895293 59.4198 52.3709
19476 2 3.62776 57.7998 52.4085
13818 1 4.52883 59.4039 51.0954
19477 2 5.43761 57.7382 49.8648
13828 1 7.26131 57.7823 51.1354
19428 2 6.35153 59.4198 52.3709
22345 2 10.8939 57.7382 49.8648
13776 1 9.98507 59.4039 51.0954
19431 2 8.16092 59.3612 49.8245
19427 2 9.084 57.7998 52.4085
13864 1 1.79508 61.0259 51.0559
19463 2 2.69119 62.6105 49.7451
19458 2 0.884298 62.6613 52.2989
19457 2 3.61825 61.0404 52.334
13817 1 4.51641 62.6478 51.0185
19479 2 5.42667 60.9855 49.7841
13816 1 7.25132 61.0259 51.0559
19420 2 6.34054 62.6613 52.2989
22330 2 10.8829 60.9855 49.7841
13775 1 9.97265 62.6478 51.0185
19430 2 8.14743 62.6105 49.7451
19429 2 9.07449 61.0404 52.334
13848 1 1.78077 64.2698 50.9842
19462 2 2.67399 65.8614 49.6784
19445 2 0.871707 65.9041 52.238
19460 2 3.60615 64.2825 52.2666
13803 1 4.50123 65.8923 50.954
19461 2 5.41093 64.2357 49.7094
13819 1 7.23701 64.2698 50.9842
19419 2 6.32794 65.9041 52.238
22331 2 10.8672 64.2357 49.7094
13774 1 9.95747 65.8923 50.954
19423 2 8.13022 65.8614 49.6784
19418 2 9.06239 64.2825 52.2666
19443 2 3.5938 67.5266 52.2136
13849 1 1.7661 67.5159 50.9284
19449 2 2.65731 69.1175 49.634
19444 2 0.860379 69.1505 52.1938
19409 2 6.31662 69.1505 52.1938
13802 1 4.4884 69.1411 50.9075
19464 2 5.39335 67.4883 49.6531
13801 1 7.22234 67.5159 50.9284
22322 2 10.8496 67.4883 49.6531
19421 2 9.05004 67.5266 52.2136
13768 1 9.94464 69.1411 50.9075
19422 2 8.11354 69.1175 49.634
19446 2 3.58422 70.776 52.1788
19439 2 0.853138 72.4031 52.1686
13840 1 1.75606 70.7682 50.8915
19448 2 2.64646 72.3851 49.612
19408 2 6.30938 72.4031 52.1686
13791 1 4.48149 72.3973 50.8805
19447 2 5.379 70.7497 49.6206
13804 1 7.2123 70.7682 50.8915
22323 2 10.8352 70.7497 49.6206
19407 2 9.04046 70.776 52.1788
13767 1 9.93773 72.3973 50.8805
19412 2 8.10269 72.3851 49.612
19437 2 3.57974 74.0314 52.163
13841 1 1.7521 74.0276 50.8745
19450 2 5.3724 74.0227 49.6074
13789 1 7.20834 74.0276 50.8745
19410 2 9.03597 74.0314 52.163
22321 2 10.8286 74.0227 49.6074
13814 1 2.71996 59.4528 53.6428
19455 2 1.81858 57.8506 54.9555
13813 1 5.45213 57.8342 53.6798
19416 2 4.5429 59.468 54.9203
19426 2 7.27482 57.8506 54.9555
16682 1 10.9084 57.8342 53.6798
13773 1 8.1762 59.4528 53.6428
19398 2 9.99914 59.468 54.9203
13799 1 2.70977 62.6903 53.5728
19456 2 1.81048 61.0855 54.8862
13815 1 5.44327 61.0715 53.6069
19415 2 4.53395 62.7032 54.8538
19414 2 7.26672 61.0855 54.8862
16666 1 10.8995 61.0715 53.6069
13772 1 8.16601 62.6903 53.5728
19397 2 9.99019 62.7032 54.8538
13798 1 2.69864 65.9285 53.5133
19441 2 1.80101 64.3211 54.824
13797 1 5.43227 64.3092 53.5415
19405 2 4.5244 65.9392 54.7972
19417 2 7.25725 64.3211 54.824
16667 1 10.8885 64.3092 53.5415
13766 1 8.15488 65.9285 53.5133
19396 2 9.98064 65.9392 54.7972
19442 2 1.79189 67.5578 54.7739
13787 1 2.68949 69.169 53.4685
19403 2 7.24812 67.5578 54.7739
19404 2 4.51618 69.1771 54.7547
13800 1 5.42178 67.5483 53.4889
16658 1 10.878 67.5483 53.4889
19395 2 9.97242 69.1771 54.7547
13765 1 8.14573 69.169 53.4685
19435 2 1.785 70.7971 54.7397
13786 1 2.68421 72.4127 53.4414
19406 2 7.24124 70.7971 54.7397
19401 2 4.51098 72.4178 54.7293
13785 1 5.41444 70.7905 53.4526
16659 1 10.8707 70.7905 53.4526
19394 2 9.96722 72.4178 54.7293
13759 1 8.14045 72.4127 53.4414
19436 2 1.78174 74.039 54.7236
13788 1 5.41125 74.0355 53.4354
19399 2 7.23798 74.039 54.7236
16657 1 10.8675 74.0355 53.4354
13795 1 0.911406 59.4945 56.1933
14111 1 1.83414 57.9176 58.7786
19752 2 0.00968681 57.8943 57.5051
19745 2 2.7345 59.5091 57.4718
13812 1 3.64311 57.8785 56.2279
13770 1 6.36764 59.4945 56.1933
14098 1 4.55913 59.5313 58.7458
19744 2 5.46593 57.8943 57.5051
14052 1 10.0154 59.5313 58.7458
13769 1 9.09934 57.8785 56.2279
14100 1 7.29038 57.9176 58.7786
19710 2 8.19074 59.5091 57.4718
13794 1 0.903088 62.7265 56.1283
14112 1 1.82762 61.1448 58.7143
19750 2 0.00277789 61.124 57.4398
19741 2 2.7271 62.7388 57.4096
13793 1 3.63551 61.1106 56.1599
14097 1 4.55221 62.7581 58.6846
13763 1 6.35933 62.7265 56.1283
19746 2 5.45902 61.124 57.4398
14051 1 10.0084 62.7581 58.6846
13771 1 9.09174 61.1106 56.1599
14096 1 7.28386 61.1448 58.7143
19709 2 8.18334 62.7388 57.4096
13783 1 0.894534 65.9587 56.0727
14108 1 1.82056 64.3714 58.6572
19740 2 2.71957 65.9686 57.3565
13796 1 3.62685 64.3426 56.0991
14090 1 4.54532 65.9845 58.6325
13762 1 6.35077 65.9587 56.0727
19739 2 5.45139 64.3537 57.3816
14099 1 7.2768 64.3714 58.6572
14050 1 10.0016 65.9845 58.6325
13761 1 9.08308 64.3426 56.0991
19704 2 8.17581 65.9686 57.3565
22571 2 10.9076 64.3537 57.3816
13782 1 0.887514 69.1915 56.0304
14109 1 1.81414 67.5975 58.6109
19730 2 2.71323 69.1989 57.3163
13781 1 3.61886 67.5749 56.0497
14089 1 4.53964 69.2105 58.5927
13756 1 6.34375 69.1915 56.0304
19742 2 5.44429 67.5836 57.3346
14088 1 7.27038 67.5975 58.6109
14043 1 9.99588 69.2105 58.5927
13764 1 9.07509 67.5749 56.0497
19703 2 8.16947 69.1989 57.3163
22568 2 10.9005 67.5836 57.3346
13779 1 0.883266 72.4254 56.0046
14104 1 1.80945 70.8234 58.5785
19729 2 2.70923 72.4301 57.2919
13784 1 3.61312 70.8083 56.0153
14076 1 4.53611 72.4364 58.5684
13755 1 6.3395 72.4254 56.0046
19728 2 5.439 70.8144 57.3019
14091 1 7.26569 70.8234 58.5785
14042 1 9.99235 72.4364 58.5684
13754 1 9.06936 70.8083 56.0153
19690 2 8.16547 72.4301 57.2919
22569 2 10.8952 70.8144 57.3019
14105 1 1.8072 74.0493 58.5628
13777 1 3.61048 74.0426 55.9987
19731 2 5.43647 74.046 57.2863
14074 1 7.26344 74.0493 58.5628
13757 1 9.06671 74.0426 55.9987
22567 2 10.8927 74.046 57.2863
14094 1 2.75043 59.5647 61.2999
14110 1 0.0250632 57.9533 61.3312
19737 2 0.926027 59.5456 60.025
14093 1 5.4813 57.9533 61.3312
19707 2 6.38227 59.5456 60.025
19743 2 3.65703 57.9331 60.0566
19697 2 4.57353 59.5794 62.5793
14049 1 8.20667 59.5647 61.2999
19706 2 9.11327 57.9331 60.0566
19644 2 10.0298 59.5794 62.5793
14086 1 2.74453 62.7867 61.2419
14106 1 0.0193991 61.1758 61.27
19736 2 0.919772 62.7702 59.9661
19734 2 1.84272 61.1894 62.5504
14095 1 5.47564 61.1758 61.27
19701 2 6.37601 62.7702 59.9661
19735 2 3.65107 61.158 59.9946
19696 2 4.5681 62.7991 62.5232
14048 1 8.20077 62.7867 61.2419
19708 2 9.10731 61.158 59.9946
19643 2 10.0243 62.7991 62.5232
19695 2 7.29896 61.1894 62.5504
14085 1 2.73875 66.0075 61.1926
14107 1 0.0134483 64.3972 61.216
19726 2 0.91359 65.9942 59.916
19722 2 1.83729 64.4084 62.4982
14084 1 5.46969 64.3972 61.216
19700 2 6.36983 65.9942 59.916
19738 2 3.64473 64.3823 59.9397
19683 2 4.56285 66.0175 62.4757
14041 1 8.19499 66.0075 61.1926
19699 2 9.10097 64.3823 59.9397
19642 2 10.0191 66.0175 62.4757
19698 2 7.29353 64.4084 62.4982
14072 1 2.73399 69.2274 61.1551
14102 1 0.00807351 67.6176 61.1722
19725 2 0.908449 69.2177 59.878
19723 2 1.83239 67.6262 62.4561
19724 2 3.63895 67.6059 59.8953
14087 1 5.46431 67.6176 61.1722
19687 2 6.36469 69.2177 59.878
19682 2 4.5585 69.2348 62.4396
14040 1 8.19023 69.2274 61.1551
19702 2 9.09519 67.6059 59.8953
19635 2 10.0147 69.2348 62.4396
19681 2 7.28863 67.6262 62.4561
14071 1 2.73097 72.4465 61.1321
14103 1 0.00410604 70.837 61.1417
19718 2 0.90519 72.4411 59.8548
19727 2 3.63466 70.8294 59.8644
19714 2 1.82876 70.8432 62.4267
14070 1 5.46034 70.837 61.1417
19686 2 6.36143 72.4411 59.8548
19668 2 4.55572 72.4514 62.4175
14026 1 8.18721 72.4465 61.1321
19685 2 9.0909 70.8294 59.8644
19634 2 10.012 72.4514 62.4175
19684 2 7.285 70.8432 62.4267
19716 2 3.63257 74.0528 59.8494
19715 2 1.82694 74.0596 62.4121
14101 1 0.00215479 74.056 61.1266
14073 1 5.45839 74.056 61.1266
19688 2 9.0888 74.0528 59.8494
19666 2 7.28318 74.0596 62.4121
14082 1 0.941391 59.5963 63.8557
19693 2 2.76441 59.6119 65.1345
19732 2 0.0386143 58.0037 65.1638
19733 2 1.84797 57.969 62.6097
14046 1 6.39763 59.5963 63.8557
14092 1 3.67196 57.9871 63.8858
19692 2 5.49485 58.0037 65.1638
14045 1 9.1282 57.9871 63.8858
19641 2 8.22065 59.6119 65.1345
19705 2 7.30421 57.969 62.6097
14081 1 0.936225 62.8136 63.8002
19679 2 2.75958 62.8268 65.0806
19720 2 0.033889 61.2196 65.1067
14038 1 6.39246 62.8136 63.8002
14080 1 3.66695 61.2052 63.827
19694 2 5.49013 61.2196 65.1067
14047 1 9.12319 61.2052 63.827
19640 2 8.21582 62.8268 65.0806
14068 1 0.931239 66.0292 63.7532
19678 2 2.75496 66.0399 65.0351
19721 2 0.0290867 64.4336 65.0566
14037 1 6.38748 66.0292 63.7532
14083 1 3.66179 64.4216 63.7754
19677 2 5.48533 64.4336 65.0566
14036 1 9.11802 64.4216 63.7754
19633 2 8.21119 66.0399 65.0351
14067 1 0.927119 69.2433 63.7176
19664 2 2.75114 69.2513 65.0007
19712 2 0.0247907 67.6458 65.0164
14023 1 6.38336 69.2433 63.7176
14066 1 3.65715 67.6364 63.7338
19680 2 5.48103 67.6458 65.0164
14039 1 9.11339 67.6364 63.7338
19632 2 8.20738 69.2513 65.0007
19713 2 0.0215864 70.8566 64.9882
14069 1 3.6537 70.85 63.7048
19662 2 5.47782 70.8566 64.9882
14021 1 9.10994 70.85 63.7048
14060 1 0.924472 72.4565 63.6956
19663 2 2.74866 72.4617 64.9793
19711 2 0.0199336 74.0667 64.974
14022 1 6.38071 72.4565 63.6956
14058 1 3.65195 74.0628 63.6902
19665 2 5.47617 74.0667 64.974
14024 1 9.10819 74.0628 63.6902
19618 2 8.2049 72.4617 64.9793
14078 1 1.86215 58.0203 66.4429
19675 2 0.954785 59.6448 67.6895
14030 1 2.7775 59.6596 68.9773
14077 1 0.0514022 58.0544 69.0056
14034 1 4.58805 59.6275 66.4138
19638 2 6.41102 59.6448 67.6895
19691 2 3.68506 58.0387 67.7179
14029 1 5.50764 58.0544 69.0056
13986 1 10.0443 59.6275 66.4138
14044 1 7.31839 58.0203 66.4429
19637 2 9.1413 58.0387 67.7179
13983 1 8.23373 59.6596 68.9773
14079 1 1.85763 61.2341 66.3862
19674 2 0.950343 62.855 67.6374
14015 1 2.77333 62.8678 68.9255
14062 1 0.0472978 61.2641 68.9505
14033 1 4.58343 62.8402 66.3603
19630 2 6.40658 62.855 67.6374
19673 2 3.68069 61.2502 67.6626
14031 1 5.50354 61.2641 68.9505
13985 1 10.0397 62.8402 66.3603
14032 1 7.31387 61.2341 66.3862
19639 2 9.13692 61.2502 67.6626
13982 1 8.22957 62.8678 68.9255
14064 1 1.85305 64.4457 66.3366
19660 2 0.946123 66.0627 67.5936
14014 1 2.76938 66.0733 68.8819
14063 1 0.0431839 64.4709 68.9026
14019 1 4.57902 66.0507 66.3153
19629 2 6.40236 66.0627 67.5936
19676 2 3.67629 64.4591 67.6143
14013 1 5.49942 64.4709 68.9026
13984 1 10.0353 66.0507 66.3153
14035 1 7.30928 64.4457 66.3366
19628 2 9.13253 64.4591 67.6143
13975 1 8.22562 66.0733 68.8819
14065 1 1.84894 67.6552 66.2967
19659 2 0.942631 69.2683 67.5603
14001 1 2.76611 69.2765 68.8489
14054 1 0.039515 67.6751 68.864
14018 1 4.57537 69.2594 66.2811
19615 2 6.39887 69.2683 67.5603
19658 2 3.67237 67.6657 67.5755
14016 1 5.49575 67.6751 68.864
13977 1 10.0316 69.2594 66.2811
14017 1 7.30518 67.6552 66.2967
19631 2 9.12861 67.6657 67.5755
13974 1 8.22235 69.2765 68.8489
14056 1 1.84587 70.8632 66.2687
14055 1 0.0367516 70.8774 68.8369
19661 2 3.66943 70.8704 67.5482
13999 1 5.49299 70.8774 68.8369
14020 1 7.30211 70.8632 66.2687
19613 2 9.12566 70.8704 67.5482
19652 2 0.940325 72.4724 67.5394
14000 1 2.76395 72.4781 68.8282
14057 1 1.84426 74.0702 66.2545
14053 1 0.0352661 74.0785 68.8229
14005 1 4.57298 72.4667 66.2598
19614 2 6.39656 72.4724 67.5394
19650 2 3.66784 74.0741 67.5341
14002 1 5.4915 74.0785 68.8229
13976 1 10.0292 72.4667 66.2598
13964 1 8.22019 72.4781 68.8282
14003 1 7.3005 74.0702 66.2545
19616 2 9.12408 74.0741 67.5341
14011 1 0.96302 59.692 71.5571
19671 2 1.87509 58.0745 70.2673
13980 1 6.41926 59.692 71.5571
14028 1 3.69293 58.0888 71.5846
19626 2 4.60117 59.6786 70.2395
13979 1 9.14917 58.0888 71.5846
19584 2 10.0574 59.6786 70.2395
19636 2 7.33133 58.0745 70.2673
14010 1 0.959354 62.8957 71.5066
19672 2 1.87096 61.2818 70.2132
13972 1 6.41559 62.8957 71.5066
14009 1 3.68931 61.2943 71.531
19625 2 4.59699 62.884 70.1887
13981 1 9.14554 61.2943 71.531
19583 2 10.0532 62.884 70.1887
19624 2 7.3272 61.2818 70.2132
13997 1 0.955885 66.0959 71.4643
19656 2 1.86684 64.4855 70.1662
13971 1 6.41212 66.0959 71.4643
14012 1 3.68569 64.4962 71.4843
19611 2 4.59305 66.0861 70.1461
13970 1 9.14193 64.4962 71.4843
19582 2 10.0493 66.0861 70.1461
19627 2 7.32308 64.4855 70.1662
13996 1 0.95302 69.2933 71.4323
19657 2 1.86318 67.6861 70.1285
13961 1 6.40926 69.2933 71.4323
13995 1 3.68247 67.6949 71.4469
19610 2 4.58979 69.2855 70.1138
13973 1 9.13871 67.6949 71.4469
19576 2 10.046 69.2855 70.1138
19609 2 7.31942 67.6861 70.1285
19648 2 1.86043 70.8843 70.1021
13998 1 3.68005 70.8912 71.4207
13959 1 9.13629 70.8912 71.4207
19612 2 7.31667 70.8843 70.1021
13991 1 0.951127 72.4887 71.4122
19649 2 1.85895 74.0811 70.0884
13960 1 6.40737 72.4887 71.4122
19599 2 4.58764 72.4828 70.0936
13989 1 3.67875 74.0859 71.4071
19575 2 10.0439 72.4828 70.0936
13962 1 9.13499 74.0859 71.4071
19597 2 7.31519 74.0811 70.0884
14007 1 1.83466 58.1222 74.2418
19603 2 0.95742 59.7463 75.2623
19622 2 2.78955 59.7139 72.777
19670 2 0.0634083 58.1119 72.8043
13968 1 4.5629 59.7237 74.2144
19578 2 6.41366 59.7463 75.2623
19620 2 3.68676 58.1459 75.2887
19621 2 5.51965 58.1119 72.8043
13950 1 10.0191 59.7237 74.2144
13978 1 7.2909 58.1222 74.2418
19577 2 9.143 58.1459 75.2887
19581 2 8.24579 59.7139 72.777
14008 1 1.83485 61.3242 74.1885
19602 2 0.95484 62.9429 75.2141
19607 2 2.78551 62.9144 72.7273
19654 2 0.0594139 61.3148 72.7513
13967 1 4.56302 62.9236 74.1644
19571 2 6.41108 62.9429 75.2141
19601 2 3.68426 61.3453 75.2373
19623 2 5.51565 61.3148 72.7513
13949 1 10.0193 62.9236 74.1644
13966 1 7.29109 61.3242 74.1885
19579 2 9.1405 61.3453 75.2373
19580 2 8.24175 62.9144 72.7273
13993 1 1.83492 64.522 74.1422
19591 2 0.952337 66.1342 75.1738
19606 2 2.78167 66.1106 72.6857
19655 2 0.0554185 64.513 72.7053
13957 1 4.56305 66.1195 74.1224
19570 2 6.40858 66.1342 75.1738
19604 2 3.68168 64.5392 75.1928
19605 2 5.51166 64.513 72.7053
13948 1 10.0193 66.1195 74.1224
13969 1 7.29116 64.522 74.1422
19569 2 9.13792 64.5392 75.1928
19574 2 8.23791 66.1106 72.6857
13994 1 1.83494 67.716 74.1051
19595 2 2.77849 69.3031 72.6542
19646 2 0.0518537 67.7073 72.6685
19589 2 3.67934 67.7281 75.1573
19608 2 5.50809 67.7073 72.6685
13955 1 7.29118 67.716 74.1051
19572 2 9.13558 67.7281 75.1573
19573 2 8.23473 69.3031 72.6542
19590 2 0.950241 69.321 75.1435
13987 1 1.83495 70.9069 74.0791
19647 2 0.0491649 70.8983 72.6428
13956 1 4.56307 69.3118 74.0906
19564 2 6.40648 69.321 75.1435
19592 2 3.67756 70.9131 75.1325
19593 2 5.5054 70.8983 72.6428
13947 1 10.0193 69.3118 74.0906
13958 1 7.29119 70.9069 74.0791
19562 2 9.1338 70.9131 75.1325
19587 2 0.948847 72.5045 75.1246
19594 2 2.77639 72.4931 72.6345
19645 2 0.0477173 74.0874 72.6295
13988 1 1.83496 74.0958 74.0657
13953 1 4.56308 72.5015 74.0708
19563 2 6.40509 72.5045 75.1246
19596 2 5.50396 74.0874 72.6295
19585 2 3.6766 74.0955 75.1198
13946 1 10.0193 72.5015 74.0708
19567 2 8.23263 72.4931 72.6345
19565 2 9.13284 74.0955 75.1198
13951 1 7.2912 74.0958 74.0657
7953 2 0.934428 77.1289 -1.57758
7961 2 2.76471 77.1269 -4.07108
1728 1 1.87689 78.7098 -3.01609
7966 2 0.036231 78.718 -4.06799
1714 1 4.60556 77.1213 -3.01924
7923 2 6.39067 77.1289 -1.57758
7951 2 3.66231 78.7181 -1.57441
7962 2 5.49247 78.718 -4.06799
1668 1 10.0618 77.1213 -3.01924
7926 2 8.22094 77.1269 -4.07108
1712 1 7.33312 78.7098 -3.01609
7924 2 9.11855 78.7181 -1.57441
7952 2 0.933807 80.307 -1.56915
7957 2 2.76377 80.3089 -4.06287
1724 1 1.87472 81.8863 -3.0036
7967 2 0.0348511 81.8995 -4.05575
1713 1 4.60409 80.2982 -3.01086
7917 2 6.39005 80.307 -1.56915
7954 2 3.6614 81.8956 -1.56184
7955 2 5.49109 81.8995 -4.05575
1667 1 10.0603 80.2982 -3.01086
7925 2 8.22001 80.3089 -4.06287
1715 1 7.33096 81.8863 -3.0036
7915 2 9.11764 81.8956 -1.56184
7942 2 0.932637 83.4838 -1.55254
7956 2 2.76198 83.4896 -4.0467
1706 1 4.60125 83.4742 -2.99436
7916 2 6.38888 83.4838 -1.55254
1666 1 10.0575 83.4742 -2.99436
7920 2 8.21821 83.4896 -4.0467
1725 1 1.87125 85.0617 -2.98322
7941 2 0.93104 86.6584 -1.5283
7946 2 2.75948 86.6682 -4.02312
7964 2 0.0326848 85.0792 -4.0358
1705 1 4.5972 86.6487 -2.97026
7903 2 6.38728 86.6584 -1.5283
7940 2 3.66 85.0714 -1.54134
7958 2 5.48892 85.0792 -4.0358
1659 1 10.0534 86.6487 -2.97026
1704 1 7.32749 85.0617 -2.98322
7918 2 9.11624 85.0714 -1.54134
7919 2 8.21571 86.6682 -4.02312
1720 1 1.86666 88.2353 -2.95558
7934 2 0.929155 89.8302 -1.49718
7945 2 2.75644 89.8439 -3.99285
7965 2 0.0298944 88.2565 -4.00876
1692 1 4.59213 89.8212 -2.93929
7902 2 6.38539 89.8302 -1.49718
7943 2 3.65824 88.2447 -1.51355
7944 2 5.48613 88.2565 -4.00876
1658 1 10.0484 89.8212 -2.93929
1707 1 7.3229 88.2353 -2.95558
7901 2 9.11448 88.2447 -1.51355
7906 2 8.21268 89.8439 -3.99285
1721 1 1.86117 91.4064 -2.92152
7933 2 0.927106 92.9987 -1.46014
7935 2 2.75303 93.016 -3.95682
7963 2 0.0266503 91.4304 -3.97549
1691 1 4.58626 92.9909 -2.90239
7885 2 6.38334 92.9987 -1.46014
7932 2 3.65626 91.4149 -1.47934
7947 2 5.48289 91.4304 -3.97549
1643 1 10.0425 92.9909 -2.90239
1690 1 7.31741 91.4064 -2.92152
7904 2 9.1125 91.4149 -1.47934
7905 2 8.20926 93.016 -3.95682
1698 1 0.939342 77.1271 2.22885
1710 1 2.75813 77.1259 -0.358632
1722 1 0.0297362 78.7131 -0.355448
7950 2 1.8461 78.715 0.97134
1662 1 6.39558 77.1271 2.22885
7913 2 4.57447 77.1285 0.968099
1696 1 3.6672 78.7121 2.23212
1711 1 5.48597 78.7131 -0.355448
1665 1 8.21436 77.1259 -0.358632
7860 2 10.0307 77.1285 0.968099
1663 1 9.12343 78.7121 2.23212
7911 2 7.30234 78.715 0.97134
1697 1 0.938641 80.2969 2.23755
1702 1 2.75741 80.3002 -0.350168
1723 1 0.0286866 81.8869 -0.342833
7938 2 1.84515 81.8874 0.984173
1654 1 6.39488 80.2969 2.23755
7912 2 4.57382 80.3014 0.976712
1699 1 3.66617 81.8815 2.24508
1700 1 5.48493 81.8869 -0.342833
1664 1 8.21365 80.3002 -0.350168
7859 2 10.0301 80.3014 0.976712
1652 1 9.1224 81.8815 2.24508
7914 2 7.30138 81.8874 0.984173
1684 1 0.93731 83.4658 2.25467
1701 1 2.75605 83.4734 -0.333501
1653 1 6.39355 83.4658 2.25467
7899 2 4.57258 83.473 0.993662
1682 1 3.66456 85.0496 2.26623
1657 1 8.21229 83.4734 -0.333501
7858 2 10.0288 83.473 0.993662
1655 1 9.1208 85.0496 2.26623
1683 1 0.935468 86.633 2.27968
1688 1 2.75416 86.6448 -0.309148
1718 1 0.0270447 85.0593 -0.322244
7939 2 1.84366 85.0582 1.0051
1639 1 6.39171 86.633 2.27968
1703 1 5.48328 85.0593 -0.322244
7898 2 4.57088 86.6429 1.01841
1656 1 8.2104 86.6448 -0.309148
7851 2 10.0271 86.6429 1.01841
7897 2 7.2999 85.0582 1.0051
1676 1 0.93325 89.7983 2.3118
1687 1 2.75188 89.8139 -0.277856
1719 1 0.0249401 88.2297 -0.294314
7930 2 1.84178 88.227 1.03347
1638 1 6.38949 89.7983 2.3118
1685 1 3.66252 88.2159 2.29491
1686 1 5.48118 88.2297 -0.294314
7884 2 4.56885 89.8104 1.05017
1637 1 9.11876 88.2159 2.29491
1642 1 8.20811 89.8139 -0.277856
7850 2 10.0251 89.8104 1.05017
7900 2 7.29802 88.227 1.03347
1675 1 0.930774 92.9611 2.35003
1677 1 2.74932 92.9803 -0.240576
1717 1 0.0225053 91.3975 -0.259899
7931 2 1.83963 91.3931 1.06838
1621 1 6.38701 92.9611 2.35003
1674 1 3.66016 91.38 2.33022
1689 1 5.47874 91.3975 -0.259899
7883 2 4.5666 92.9751 1.08796
1640 1 9.1164 91.38 2.33022
1641 1 8.20556 92.9803 -0.240576
7835 2 10.0228 92.9751 1.08796
7882 2 7.29586 91.3931 1.06838
7909 2 2.75875 77.1294 3.52714
1695 1 1.85093 78.7122 4.80436
7936 2 0.0303543 78.7135 3.53046
1650 1 4.57935 77.1293 4.80099
7910 2 5.48659 78.7135 3.53046
1596 1 10.0356 77.1293 4.80099
7857 2 8.21499 77.1294 3.52714
1648 1 7.30717 78.7122 4.80436
7895 2 2.75802 80.2975 3.53596
1680 1 1.84977 81.8775 4.81771
7937 2 0.0292758 81.8812 3.54359
1649 1 4.57856 80.2949 4.80995
7893 2 5.48551 81.8812 3.54359
1595 1 10.0348 80.2949 4.80995
7856 2 8.21426 80.2975 3.53596
1651 1 7.30601 81.8775 4.81771
7894 2 2.75662 83.4646 3.5533
1681 1 1.84798 85.0415 4.83948
7928 2 0.0276035 85.0476 3.56501
1635 1 4.57706 83.4597 4.82758
7896 2 5.48384 85.0476 3.56501
1594 1 10.0333 83.4597 4.82758
7849 2 8.21286 83.4646 3.5533
1633 1 7.30421 85.0415 4.83948
1672 1 1.8457 88.204 4.86898
7880 2 2.75471 86.6301 3.57862
1634 1 4.57501 86.623 4.85332
1636 1 7.30194 88.204 4.86898
1587 1 10.0312 86.623 4.85332
7848 2 8.21095 86.6301 3.57862
7929 2 0.0254818 88.2121 3.59402
7879 2 2.75242 89.7936 3.6111
7878 2 5.48172 88.2121 3.59402
1620 1 4.57255 89.7845 4.88635
7834 2 8.20865 89.7936 3.6111
1586 1 10.0288 89.7845 4.88635
7927 2 0.0230487 91.3745 3.62971
7869 2 2.74987 92.9548 3.64971
1673 1 1.8431 91.3645 4.90528
7881 2 5.47929 91.3745 3.62971
1619 1 4.56983 92.9439 4.92562
7833 2 8.20611 92.9548 3.64971
1618 1 7.29934 91.3645 4.90528
1572 1 10.0261 92.9439 4.92562
1646 1 2.76265 77.1326 7.36784
7891 2 0.942455 77.1316 6.09014
1678 1 0.0341375 78.7136 7.3715
7888 2 1.85409 78.7141 8.65799
7842 2 4.58267 77.134 8.6542
7854 2 6.39869 77.1316 6.09014
1647 1 5.49038 78.7136 7.3715
7889 2 3.67022 78.7136 6.09367
1593 1 8.21889 77.1326 7.36784
7800 2 10.0389 77.134 8.6542
7840 2 7.31032 78.7141 8.65799
7855 2 9.12646 78.7136 6.09367
1631 1 2.76165 80.2944 7.37745
7890 2 0.941552 80.2955 6.09945
1679 1 0.0327416 81.875 7.38566
7872 2 1.8525 81.8737 8.67254
7841 2 4.58151 80.294 8.66413
7846 2 6.39779 80.2955 6.09945
1629 1 5.48898 81.875 7.38566
7892 2 3.66894 81.8771 6.10744
1592 1 8.21789 80.2944 7.37745
7799 2 10.0378 80.294 8.66413
7843 2 7.30874 81.8737 8.67254
7844 2 9.12518 81.8771 6.10744
1630 1 2.7599 83.4553 7.39606
7876 2 0.939932 83.4585 6.11756
7873 2 1.85019 85.0322 8.6959
1670 1 0.0306763 85.0353 7.40854
7827 2 4.57954 83.4531 8.68316
7845 2 6.39617 83.4585 6.11756
1632 1 5.48691 85.0353 7.40854
7874 2 3.66702 85.0394 6.12973
1585 1 8.21614 83.4553 7.39606
7798 2 10.0358 83.4531 8.68316
7825 2 7.30643 85.0322 8.6959
7847 2 9.12326 85.0394 6.12973
1616 1 2.75757 86.615 7.42302
7875 2 0.937754 86.62 6.14384
7864 2 1.84739 88.1893 8.72726
1671 1 0.028125 88.1942 7.43936
7826 2 4.57696 86.611 8.71064
7831 2 6.39399 86.62 6.14384
1614 1 5.48436 88.1942 7.43936
7877 2 3.66463 88.2002 6.15979
1584 1 8.21381 86.615 7.42302
7792 2 10.0332 86.611 8.71064
7828 2 7.30363 88.1893 8.72726
7829 2 9.12086 88.2002 6.15979
1615 1 2.75484 89.7729 7.45743
7868 2 0.935178 89.7798 6.17743
7865 2 1.84426 91.3447 8.7655
1669 1 0.025237 91.3512 7.47707
7815 2 4.57398 89.7672 8.74559
7830 2 6.39142 89.7798 6.17743
1617 1 5.48148 91.3512 7.47707
1571 1 8.21107 89.7729 7.45743
7791 2 10.0302 89.7672 8.74559
7813 2 7.3005 91.3447 8.7655
1605 1 2.75182 92.929 7.49813
7867 2 0.932329 92.9375 6.21721
8295 2 1.8409 94.4982 8.80933
7814 2 4.57072 92.9217 8.78681
7816 2 6.38857 92.9375 6.21721
7866 2 3.6619 91.3589 6.19662
1570 1 8.20806 92.929 7.49813
7784 2 10.027 92.9217 8.78681
7832 2 9.11814 91.3589 6.19662
8260 2 7.29713 94.4982 8.80933
1627 1 0.946754 77.1351 9.93288
7838 2 2.76721 77.1362 11.2182
7870 2 0.0384623 78.7144 11.2223
1624 1 1.85899 78.7146 12.5012
1590 1 6.40299 77.1351 9.93288
1578 1 4.58785 77.1373 12.4969
1625 1 3.67434 78.7143 9.93684
7839 2 5.4947 78.7144 11.2223
7797 2 8.22345 77.1362 11.2182
1548 1 10.0441 77.1373 12.4969
1591 1 9.13058 78.7143 9.93684
1576 1 7.31523 78.7146 12.5012
1626 1 0.945442 80.2932 9.9432
7823 2 2.76567 80.2924 11.2289
7871 2 0.0364017 81.8702 11.2378
1608 1 1.85663 81.8686 12.5173
1582 1 6.40168 80.2932 9.9432
1577 1 4.58606 80.2917 12.508
1628 1 3.67256 81.872 9.95191
7821 2 5.49264 81.8702 11.2378
7796 2 8.22191 80.2924 11.2289
1547 1 10.0423 80.2917 12.508
1580 1 9.1288 81.872 9.95191
1579 1 7.31286 81.8686 12.5173
1612 1 0.943251 83.4505 9.96289
7822 2 2.76316 83.4478 11.249
7862 2 0.0335226 85.0251 11.2624
1609 1 1.85339 85.0218 12.5428
1581 1 6.39949 83.4505 9.96289
1564 1 4.58321 83.4454 12.5289
7824 2 5.48976 85.0251 11.2624
1610 1 3.67003 85.0287 9.97604
7790 2 8.2194 83.4478 11.249
1546 1 10.0394 83.4454 12.5289
1562 1 7.30963 85.0218 12.5428
1583 1 9.12626 85.0287 9.97604
1611 1 0.94044 86.6066 9.99125
7811 2 2.75999 86.6021 11.2779
7863 2 0.030131 88.1787 11.2953
1600 1 1.84966 88.1737 12.5769
1568 1 6.39668 86.6066 9.99125
1563 1 4.57969 86.5979 12.5589
7809 2 5.48637 88.1787 11.2953
1613 1 3.66699 88.1841 10.0084
7789 2 8.21623 86.6021 11.2779
1543 1 10.0359 86.5979 12.5589
1565 1 7.3059 88.1737 12.5769
1566 1 9.12323 88.1841 10.0084
1604 1 0.937233 89.7612 10.0272
7810 2 2.75643 89.7549 11.3145
7861 2 0.0264392 91.3307 11.3353
1567 1 6.39347 89.7612 10.0272
7812 2 5.48268 91.3307 11.3353
1602 1 3.66364 91.3378 10.0477
7783 2 8.21267 89.7549 11.3145
1569 1 9.11988 91.3378 10.0477
1603 1 0.933761 92.914 10.0696
7804 2 2.75263 92.9061 11.3575
8294 2 0.0225497 94.4811 11.3808
1557 1 6.39 92.914 10.0696
2028 1 3.66007 94.4898 10.0927
8245 2 5.47879 94.4811 11.3808
7782 2 8.20887 92.9061 11.3575
1973 1 9.1163 94.4898 10.0927
1574 1 2.77362 77.139 15.06
7819 2 0.952522 77.1381 13.7818
1606 1 0.0444686 78.7143 15.0646
7794 2 6.40876 77.1381 13.7818
1575 1 5.50071 78.7143 15.0646
7817 2 3.67978 78.7143 13.7862
1545 1 8.22986 77.139 15.06
7795 2 9.13601 78.7143 13.7862
1560 1 2.77114 80.2894 15.072
7818 2 0.95043 80.2904 13.7932
1607 1 0.0412325 81.8645 15.0819
7787 2 6.40667 80.2904 13.7932
1558 1 5.49747 81.8645 15.0819
7820 2 3.67702 81.8663 13.8027
1544 1 8.22738 80.2894 15.072
7785 2 9.13326 81.8663 13.8027
1559 1 2.76732 83.4393 15.0943
7807 2 0.947129 83.442 13.8146
1598 1 0.0369887 85.0139 15.1092
7786 2 6.40337 83.442 13.8146
1561 1 5.49323 85.0139 15.1092
7805 2 3.6733 85.0174 13.8289
1541 1 8.22355 83.4393 15.0943
7788 2 9.12954 85.0174 13.8289
1552 1 2.7628 86.5882 15.1262
7806 2 0.943115 86.5926 13.8453
1599 1 0.0323052 88.1622 15.1454
7780 2 6.39935 86.5926 13.8453
1550 1 5.48854 88.1622 15.1454
7808 2 3.66909 88.1674 13.8636
1540 1 8.21903 86.5882 15.1262
7778 2 9.12533 88.1674 13.8636
1601 1 1.84568 91.3241 12.6182
1597 1 0.0274816 91.3092 15.189
1551 1 2.75802 89.7359 15.1664
7803 2 0.938767 89.7419 13.8838
7801 2 3.66465 91.316 13.9056
1553 1 5.48372 91.3092 15.189
1556 1 4.57581 89.7491 12.5968
7779 2 6.39501 89.7419 13.8838
7781 2 9.12089 91.316 13.9056
1554 1 7.30191 91.3241 12.6182
1542 1 10.0321 89.7491 12.5968
1538 1 8.21426 89.7359 15.1664
2006 1 0.0225874 94.4549 15.2382
7802 2 0.934266 92.8898 13.9288
1549 1 2.75316 92.8822 15.2131
2007 1 1.84152 94.4729 12.6652
1555 1 4.57174 92.8987 12.6411
7777 2 6.3905 92.8898 13.9288
1957 1 5.47883 94.4549 15.2382
8244 2 3.6601 94.4633 13.9532
1539 1 10.028 92.8987 12.6411
1537 1 8.2094 92.8822 15.2131
1972 1 7.29776 94.4729 12.6652
8201 2 9.11633 94.4633 13.9532
8142 2 2.78262 77.1398 18.9074
1918 1 0.960548 77.14 17.6224
8154 2 0.0527595 78.7113 18.9126
8160 2 1.86573 78.7134 16.3496
8146 2 4.59507 77.1394 16.3448
1895 1 6.41679 77.14 17.6224
8143 2 5.509 78.7113 18.9126
1916 1 3.68718 78.713 17.6275
8097 2 8.23886 77.1398 18.9074
8100 2 10.0513 77.1394 16.3448
8144 2 7.32197 78.7134 16.3496
1896 1 9.14342 78.713 17.6275
1917 1 0.957021 80.286 17.6353
8134 2 2.77849 80.2829 18.9205
8155 2 0.0474887 81.8544 18.9313
8156 2 1.86195 81.8612 16.3672
8145 2 4.59215 80.2874 16.3571
1891 1 6.41326 80.286 17.6353
1919 1 3.68267 81.8589 17.6459
8132 2 5.50373 81.8544 18.9313
8096 2 8.23472 80.2829 18.9205
8099 2 10.0484 80.2874 16.3571
1889 1 9.13891 81.8589 17.6459
8147 2 7.31819 81.8612 16.3672
1911 1 0.951799 83.4317 17.6592
8133 2 2.77242 83.426 18.9449
8157 2 1.85705 85.0085 16.3951
8150 2 0.0409447 84.9974 18.9611
8138 2 4.58771 83.435 16.38
1890 1 6.40804 83.4317 17.6592
1909 1 3.67701 85.0044 17.6751
8135 2 5.49718 84.9974 18.9611
8089 2 8.22866 83.426 18.9449
8098 2 10.044 83.435 16.38
1892 1 9.13325 85.0044 17.6751
8136 2 7.31329 85.0085 16.3951
1910 1 0.945914 86.5768 17.6933
8120 2 2.76566 86.5687 18.9797
8152 2 1.85173 88.1548 16.4321
8151 2 0.0341618 88.1397 19.0006
8137 2 4.58253 86.5818 16.4125
1879 1 6.40215 86.5768 17.6933
1912 1 3.67105 88.149 17.7138
8118 2 5.4904 88.1397 19.0006
8088 2 8.2219 86.5687 18.9797
8091 2 10.0388 86.5818 16.4125
8139 2 7.30797 88.1548 16.4321
1877 1 9.12729 88.149 17.7138
1904 1 0.939979 89.7208 17.7362
8119 2 2.75895 89.7104 19.0235
8153 2 1.84633 91.2998 16.4765
8149 2 0.0275648 91.2808 19.0481
1878 1 6.39622 89.7208 17.7362
8124 2 4.57715 89.7274 16.4535
1902 1 3.66517 91.2923 17.7603
8121 2 5.4838 91.2808 19.0481
8074 2 8.21519 89.7104 19.0235
8090 2 10.0334 89.7274 16.4535
1880 1 9.12141 91.2923 17.7603
8122 2 7.30257 91.2998 16.4765
1903 1 0.934143 92.8635 17.7858
8109 2 2.75247 92.8511 19.074
8567 2 1.84095 94.4437 16.5265
8566 2 0.0211695 94.4212 19.1009
1861 1 6.39038 92.8635 17.7858
8123 2 4.57176 92.8719 16.501
8549 2 5.47741 94.4212 19.1009
2304 1 3.65937 94.4345 17.8123
8073 2 8.2087 92.8511 19.074
8075 2 10.028 92.8719 16.501
8556 2 7.29719 94.4437 16.5265
2278 1 9.1156 94.4345 17.8123
8130 2 0.971692 77.139 21.4701
1915 1 1.87487 78.7102 20.1899
1887 1 4.60514 77.14 20.1846
8094 2 6.42793 77.139 21.4701
8128 2 3.69729 78.7074 21.4754
1836 1 10.0614 77.14 20.1846
1885 1 7.3311 78.7102 20.1899
8095 2 9.15353 78.7074 21.4754
8129 2 0.965757 80.2761 21.4837
1907 1 1.86848 81.8512 20.2095
1886 1 4.60006 80.2806 20.1982
8086 2 6.422 80.2761 21.4837
8131 2 3.68985 81.845 21.495
1835 1 10.0563 80.2806 20.1982
1888 1 7.32472 81.8512 20.2095
8084 2 9.14609 81.845 21.495
8116 2 0.957388 83.414 21.5094
1908 1 1.86085 84.9923 20.2406
1875 1 4.59284 83.4217 20.2236
8085 2 6.41363 83.414 21.5094
8114 2 3.68106 84.9831 21.5267
1834 1 10.0491 83.4217 20.2236
1873 1 7.31709 84.9923 20.2406
8087 2 9.1373 84.9831 21.5267
8115 2 0.948545 86.5521 21.5468
1900 1 1.85326 88.1328 20.2823
1874 1 4.58513 86.5627 20.2603
8071 2 6.40478 86.5521 21.5468
8117 2 3.67241 88.1209 21.5694
1827 1 10.0414 86.5627 20.2603
1876 1 7.3095 88.1328 20.2823
8069 2 9.12865 88.1209 21.5694
8108 2 0.940186 89.6895 21.5941
1901 1 1.84606 91.2721 20.3323
1860 1 4.57773 89.7026 20.3065
8070 2 6.39642 89.6895 21.5941
8106 2 3.66434 91.2578 21.6205
1826 1 10.034 89.7026 20.3065
1858 1 7.3023 91.2721 20.3323
8072 2 9.12058 91.2578 21.6205
8107 2 0.932375 92.826 21.6482
2298 1 1.83916 94.4105 20.3876
1859 1 4.5707 92.8414 20.3595
8053 2 6.38861 92.826 21.6482
8548 2 3.65674 94.3942 21.6767
1811 1 10.0269 92.8414 20.3595
2277 1 7.2954 94.4105 20.3876
8501 2 9.11298 94.3942 21.6767
1867 1 0.987639 77.1345 25.3117
1883 1 2.79528 77.1384 22.7472
1905 1 0.0639787 78.7052 22.7525
8127 2 1.88705 78.7009 24.0388
1830 1 6.44388 77.1345 25.3117
8082 2 4.61886 77.1365 24.0338
1865 1 3.71108 78.6969 25.3162
1884 1 5.52022 78.7052 22.7525
1833 1 8.25152 77.1384 22.7472
8028 2 10.0751 77.1365 24.0338
1831 1 9.16732 78.6969 25.3162
8080 2 7.34329 78.7009 24.0388
1866 1 0.976774 80.2604 25.3239
1871 1 2.78786 80.2725 22.7609
1906 1 0.0548603 81.8402 22.7725
8112 2 1.87649 81.8318 24.0584
1822 1 6.43301 80.2604 25.3239
8081 2 4.61026 80.266 24.0469
1868 1 3.69798 81.8249 25.3353
1869 1 5.5111 81.8402 22.7725
1832 1 8.2441 80.2725 22.7609
8027 2 10.0665 80.266 24.0469
1820 1 9.15422 81.8249 25.3353
8083 2 7.33273 81.8318 24.0584
1852 1 0.962722 83.3901 25.3507
1870 1 2.77781 83.4083 22.7875
1898 1 0.0445507 84.9765 22.8057
8113 2 1.86463 84.9644 24.092
1821 1 6.41896 83.3901 25.3507
8067 2 4.59866 83.398 24.0734
1850 1 3.684 84.9557 25.3703
1872 1 5.50079 84.9765 22.8057
1825 1 8.23405 83.4083 22.7875
8026 2 10.0549 83.398 24.0734
1823 1 9.14023 84.9557 25.3703
8065 2 7.32087 84.9644 24.092
1851 1 0.949467 86.5212 25.3938
1856 1 2.76771 86.5446 22.827
1899 1 0.0348717 88.1125 22.8511
8104 2 1.85364 88.097 24.1385
1807 1 6.40571 86.5212 25.3938
8066 2 4.5871 86.5308 24.1138
1853 1 3.6717 88.0863 25.4206
1854 1 5.49111 88.1125 22.8511
1824 1 8.22394 86.5446 22.827
8019 2 10.0433 86.5308 24.1138
1805 1 9.12793 88.0863 25.4206
8068 2 7.30988 88.097 24.1385
1844 1 0.938082 89.651 25.4499
1855 1 2.75851 89.68 22.8775
1897 1 0.0260897 91.2472 22.9056
8105 2 1.84382 91.2289 24.1943
1806 1 6.39432 89.651 25.4499
8052 2 4.57672 89.663 24.1655
1842 1 3.66102 91.2154 25.4808
1857 1 5.48233 91.2472 22.9056
8050 2 7.30005 91.2289 24.1943
1808 1 9.11726 91.2154 25.4808
8018 2 10.033 89.663 24.1655
1810 1 8.21475 89.68 22.8775
8534 2 1.83483 94.361 24.2543
2297 1 0.0178915 94.3813 22.9647
1845 1 2.75005 92.8142 22.9348
1843 1 0.927962 92.7798 25.5125
2266 1 5.47413 94.3813 22.9647
2265 1 3.65136 94.3446 25.5442
8051 2 4.56735 92.7948 24.2241
1790 1 6.3842 92.7798 25.5125
8500 2 7.29107 94.361 24.2543
2213 1 9.1076 94.3446 25.5442
8004 2 10.0236 92.7948 24.2241
1809 1 8.20629 92.8142 22.9348
8078 2 2.81202 77.1317 26.5996
1864 1 1.90412 78.6843 27.8824
8110 2 0.078502 78.6911 26.6034
8059 2 1.00803 77.125 29.1699
1818 1 4.63923 77.1278 27.8805
8079 2 5.53474 78.6911 26.6034
8022 2 6.46427 77.125 29.1699
8057 2 3.72822 78.6779 29.1701
1770 1 10.0955 77.1278 27.8805
8025 2 8.26825 77.1317 26.5996
1816 1 7.36036 78.6843 27.8824
8023 2 9.18446 78.6779 29.1701
8063 2 2.79956 80.2518 26.6103
1848 1 1.8853 81.8038 27.8977
8111 2 0.0634365 81.8137 26.6213
8058 2 0.98995 80.2327 29.1738
1817 1 4.62326 80.2432 27.888
8061 2 5.51967 81.8137 26.6213
8014 2 6.44619 80.2327 29.1738
8060 2 3.70656 81.7896 29.1829
1769 1 10.0795 80.2432 27.888
8024 2 8.2558 80.2518 26.6103
1819 1 7.34154 81.8038 27.8977
8012 2 9.1628 81.7896 29.1829
8062 2 2.7834 83.3765 26.6367
1849 1 1.86607 84.9282 27.9346
8102 2 0.0474394 84.9397 26.6566
8044 2 0.9672 83.3478 29.1981
1803 1 4.60341 83.3657 27.9134
8064 2 5.50368 84.9397 26.6566
8013 2 6.42344 83.3478 29.1981
8042 2 3.68485 84.9066 29.2197
1768 1 10.0596 83.3657 27.9134
8017 2 8.23964 83.3765 26.6367
1801 1 7.32231 84.9282 27.9346
8015 2 9.14109 84.9066 29.2197
8048 2 2.76831 86.5029 26.6806
1840 1 1.8505 88.0518 27.9919
8103 2 0.0335463 88.0658 26.7082
8043 2 0.947546 86.4653 29.2473
1802 1 4.58596 86.4903 27.9612
8046 2 5.48978 88.0658 26.7082
8000 2 6.40378 86.4653 29.2473
1761 1 10.0422 86.4903 27.9612
8016 2 8.22455 86.5029 26.6806
1804 1 7.30673 88.0518 27.9919
8047 2 2.75552 89.6286 26.7384
1841 1 1.8377 91.1733 28.0595
8101 2 0.0216553 91.1914 26.7701
1789 1 4.57199 89.6126 28.0252
8049 2 5.47789 91.1914 26.7701
1760 1 10.0282 89.6126 28.0252
8003 2 8.21176 89.6286 26.7384
1787 1 7.29394 91.1733 28.0595
8037 2 2.74435 92.7548 26.8023
2247 1 1.82653 94.2975 28.1267
8533 2 0.0111498 94.3192 26.8342
1788 1 4.56002 92.7347 28.0936
8485 2 5.46739 94.3192 26.8342
1749 1 10.0163 92.7347 28.0936
8002 2 8.20059 92.7548 26.8023
2212 1 7.28277 94.2975 28.1267
1814 1 2.8392 77.1199 30.4581
1846 1 0.100604 78.6678 30.4546
8056 2 1.92489 78.6643 31.7417
8010 2 4.66417 77.119 31.7474
1815 1 5.55684 78.6678 30.4546
1767 1 8.29543 77.1199 30.4581
7980 2 10.1204 77.119 31.7474
8008 2 7.38113 78.6643 31.7417
1799 1 2.81471 80.2198 30.4546
1847 1 0.0730785 81.7757 30.4611
8040 2 1.89269 81.7591 31.7415
8009 2 4.63772 80.21 31.7365
1797 1 5.52932 81.7757 30.4611
1766 1 8.27094 80.2198 30.4546
7979 2 10.094 80.21 31.7365
8011 2 7.34893 81.7591 31.7415
1798 1 2.78619 83.3333 30.4761
1838 1 0.0457736 84.8914 30.5003
8041 2 1.86302 84.8614 31.7803
7996 2 4.60462 83.3101 31.755
1800 1 5.50201 84.8914 30.5003
1759 1 8.24242 83.3333 30.4761
7978 2 10.0609 83.3101 31.755
7994 2 7.31926 84.8614 31.7803
1785 1 2.76316 86.4484 30.5318
1839 1 0.0263908 88.0039 30.5682
8032 2 1.84126 87.9644 31.8527
7995 2 4.57922 86.4128 31.8135
1783 1 5.48263 88.0039 30.5682
8045 2 3.66744 88.0237 29.2792
1758 1 8.2194 86.4484 30.5318
7975 2 10.0355 86.4128 31.8135
7997 2 7.2975 87.9644 31.8527
7998 2 9.12368 88.0237 29.2792
1784 1 2.74672 89.5589 30.6064
8036 2 0.931917 89.5822 29.3136
1837 1 0.0113654 91.1155 30.6436
8033 2 1.82478 91.0748 31.9307
7988 2 4.56053 89.518 31.8924
7999 2 6.38816 89.5822 29.3136
1786 1 5.4676 91.1155 30.6436
8034 2 3.65319 91.1417 29.3487
1748 1 8.20296 89.5589 30.6064
7974 2 10.0168 89.518 31.8924
7986 2 7.28102 91.0748 31.9307
8001 2 9.10943 91.1417 29.3487
1776 1 2.73298 92.6745 30.679
8035 2 0.91884 92.7029 29.3832
8463 2 1.81281 94.1989 31.9998
7987 2 4.54634 92.635 31.9665
7989 2 6.37508 92.7029 29.3832
2197 1 5.45535 94.2367 30.7122
8484 2 3.64138 94.2661 29.4163
8428 2 7.26905 94.1989 31.9998
5318 1 10.9116 94.2367 30.7122
1747 1 8.18921 92.6745 30.679
7971 2 10.0026 92.635 31.9665
8429 2 9.09762 94.2661 29.4163
1795 1 1.04451 77.1165 33.0464
8006 2 2.87353 77.1182 34.3328
8038 2 0.126433 78.6586 34.3215
1792 1 1.96302 78.6587 35.6446
1764 1 6.50075 77.1165 33.0464
1793 1 3.76045 78.6567 33.0427
8007 2 5.58267 78.6586 34.3215
1752 1 4.70499 77.1185 35.6409
7977 2 8.32977 77.1182 34.3328
1765 1 9.21669 78.6567 33.0427
1734 1 10.1612 77.1185 35.6409
1750 1 7.41926 78.6587 35.6446
1794 1 1.00899 80.1927 33.0333
7992 2 2.83121 80.1947 34.3038
8039 2 0.0740707 81.7241 34.2905
1777 1 1.90311 81.7021 35.6246
1756 1 6.46523 80.1927 33.0333
1796 1 3.71404 81.737 33.0266
7990 2 5.53031 81.7241 34.2905
1751 1 4.66611 80.1983 35.6582
7976 2 8.28745 80.1947 34.3038
1754 1 9.17028 81.737 33.0266
1733 1 10.1223 80.1983 35.6582
1753 1 7.35934 81.7021 35.6246
1781 1 0.963424 83.2893 33.045
7991 2 2.78184 83.2595 34.3035
8030 2 0.0325173 84.7961 34.3332
1778 1 1.83099 84.738 35.6799
1755 1 6.41966 83.2893 33.045
1779 1 3.67491 84.8387 33.0736
7993 2 5.48876 84.7961 34.3332
1741 1 4.56989 83.1989 35.6383
7973 2 8.23808 83.2595 34.3035
1757 1 9.13115 84.8387 33.0736
1732 1 10.0261 83.1989 35.6383
1739 1 7.28723 84.738 35.6799
1780 1 0.935128 86.3851 33.1139
7984 2 2.74851 86.3341 34.381
8031 2 0.00837326 87.8776 34.4294
1771 1 1.8125 87.8034 35.7615
1745 1 6.39137 86.3851 33.1139
1782 1 3.65405 87.93 33.1571
7982 2 5.46461 87.8776 34.4294
1740 1 4.55139 86.2568 35.7263
1742 1 7.26874 87.8034 35.7615
7972 2 8.20475 86.3341 34.381
1743 1 9.11029 87.93 33.1571
1731 1 10.0076 86.2568 35.7263
1775 1 0.916689 89.4795 33.197
7983 2 2.7275 89.4279 34.4742
1772 1 1.80041 90.9192 35.8277
1773 1 3.63706 91.0338 33.2342
1737 1 4.53416 89.3552 35.7973
1735 1 7.25665 90.9192 35.8277
1744 1 6.37293 89.4795 33.197
7985 2 5.44844 90.9852 34.514
11293 2 10.9047 90.9852 34.514
1730 1 9.9904 89.3552 35.7973
1746 1 9.0933 91.0338 33.2342
7970 2 8.18374 89.4279 34.4742
2175 1 1.79327 94.0632 35.8827
2196 1 3.62525 94.159 33.2989
7981 2 2.71475 92.5482 34.5496
1774 1 0.902341 92.594 33.2679
1736 1 4.52429 92.4887 35.856
2146 1 7.24951 94.0632 35.8827
8413 2 5.43874 94.1162 34.5817
1738 1 6.35858 92.594 33.2679
7969 2 8.17099 92.5482 34.5496
11726 2 10.895 94.1162 34.5817
2147 1 9.08149 94.159 33.2989
1729 1 9.98053 92.4887 35.856
8182 2 1.11121 77.1362 36.9172
13911 1 2.18437 75.6179 38.2498
8171 2 6.56745 77.1362 36.9172
14296 1 4.90704 77.2081 38.2554
8180 2 3.82426 78.6765 36.8979
13881 1 7.64061 75.6179 38.2498
8172 2 9.2805 78.6765 36.8979
17124 1 10.3633 77.2081 38.2554
8181 2 1.04223 80.2189 36.8685
14297 1 2.18363 78.8596 38.246
8168 2 6.49847 80.2189 36.8685
14298 1 4.91515 80.5644 38.3128
8183 2 3.68226 81.7054 36.863
14262 1 7.63987 78.8596 38.246
8166 2 9.1385 81.7054 36.863
17122 1 10.3714 80.5644 38.3128
8178 2 0.916033 83.1882 36.8227
14293 1 2.17996 82.4104 38.3876
8167 2 6.37227 83.1882 36.8227
14291 1 5.17324 84.1386 38.431
8176 2 3.65352 84.6809 36.8846
14261 1 7.6362 82.4104 38.3876
8169 2 9.10976 84.6809 36.8846
17123 1 10.6295 84.1386 38.431
8177 2 0.910163 86.2104 36.9432
14292 1 2.63408 85.9432 38.3292
8179 2 3.62538 87.7475 37.0055
8164 2 6.3664 86.2104 36.9432
14294 1 5.3875 87.5469 38.3621
14256 1 8.09032 85.9432 38.3292
8162 2 9.08161 87.7475 37.0055
17120 1 10.8437 87.5469 38.3621
8175 2 0.891367 89.3045 37.0522
14282 1 2.67356 89.1611 38.3882
8173 2 3.61425 90.8696 37.092
8163 2 6.34761 89.3045 37.0522
14280 1 5.40936 90.7601 38.4096
14255 1 8.12979 89.1611 38.3882
8165 2 9.07048 90.8696 37.092
17121 1 10.8656 90.7601 38.4096
8592 2 3.60926 94.019 37.1571
8174 2 0.883005 92.442 37.1264
14281 1 2.68652 92.3573 38.4328
8161 2 6.33924 92.442 37.1264
14283 1 5.41758 93.9504 38.4562
8578 2 9.0655 94.019 37.1571
14242 1 8.14276 92.3573 38.4328
17119 1 10.8738 93.9504 38.4562
19919 2 1.50395 77.2738 39.4865
13909 1 0.625353 75.665 40.7844
19509 2 2.49311 75.6569 42.0203
14295 1 3.36737 77.3348 40.7673
19901 2 5.23309 77.3162 42.004
13861 1 6.08159 75.665 40.7844
19523 2 4.21955 75.6312 39.5071
19908 2 6.96019 77.2738 39.4865
14258 1 8.82361 77.3348 40.7673
19473 2 7.94935 75.6569 42.0203
19475 2 9.67579 75.6312 39.5071
22738 2 10.6893 77.3162 42.004
19920 2 1.57367 80.6119 39.4154
19902 2 2.52614 78.9886 41.9786
14289 1 0.681139 79.0248 40.7216
14287 1 3.4842 80.7165 40.6299
19906 2 4.25656 78.9139 39.4564
19903 2 5.28568 80.6688 41.9472
14259 1 6.13738 79.0248 40.7216
19904 2 7.02991 80.6119 39.4154
14260 1 8.94044 80.7165 40.6299
19857 2 7.98238 78.9886 41.9786
19860 2 9.71279 78.9139 39.4564
22734 2 10.7419 80.6688 41.9472
19916 2 1.74265 84.2762 39.4423
14288 1 0.828669 82.4326 40.5675
19894 2 2.59704 82.3416 41.9455
14290 1 3.54955 84.0216 40.7091
19905 2 4.36026 82.4102 39.3848
14253 1 6.28491 82.4326 40.5675
19892 2 5.3606 84.0057 41.9789
19907 2 7.19889 84.2762 39.4423
22735 2 10.8168 84.0057 41.9789
14251 1 9.00579 84.0216 40.7091
19856 2 8.05327 82.3416 41.9455
19859 2 9.8165 82.4102 39.3848
19917 2 1.77814 87.5255 39.5734
14278 1 0.802548 85.687 40.8606
19893 2 2.65856 85.6827 42.051
14276 1 3.54873 87.3383 40.8983
19898 2 4.50177 85.9061 39.5166
14252 1 6.25879 85.687 40.8606
19895 2 5.40263 87.3429 42.109
19896 2 7.23438 87.5255 39.5734
22730 2 10.8589 87.3429 42.109
14254 1 9.00496 87.3383 40.8983
19849 2 8.11479 85.6827 42.051
19858 2 9.95801 85.9061 39.5166
19912 2 1.78296 90.7259 39.6558
14277 1 0.8408 88.9837 40.9278
19880 2 2.68318 88.9713 42.1585
14279 1 3.58095 90.6084 40.9587
19897 2 4.51056 89.1279 39.616
14239 1 6.29704 88.9837 40.9278
19878 2 5.41603 90.5895 42.2006
19899 2 7.2392 90.7259 39.6558
22731 2 10.8723 90.5895 42.2006
14237 1 9.03719 90.6084 40.9587
19848 2 8.13941 88.9713 42.1585
19851 2 9.9668 89.1279 39.616
19913 2 1.78422 93.9121 39.7205
14270 1 0.86006 92.2268 40.9867
19879 2 2.69092 92.2007 42.2377
14268 1 3.59348 93.8368 41.0125
14238 1 6.3163 92.2268 40.9867
19881 2 5.42104 93.8074 42.271
19884 2 4.51188 92.3193 39.6897
19882 2 7.24046 93.9121 39.7205
22729 2 10.8773 93.8074 42.271
14240 1 9.04972 93.8368 41.0125
19834 2 8.14716 92.2007 42.2377
19850 2 9.96812 92.3193 39.6897
14285 1 1.64181 77.3502 43.2505
19507 2 0.74455 75.6663 44.532
19900 2 3.47871 77.3269 44.5237
13845 1 2.59668 75.6663 45.781
13859 1 4.35437 75.6727 43.2743
19454 2 6.20079 75.6663 44.532
14257 1 7.09804 77.3502 43.2505
14244 1 5.32806 77.3232 45.7757
17104 1 10.7843 77.3232 45.7757
19853 2 8.93495 77.3269 44.5237
13811 1 9.8106 75.6727 43.2743
13809 1 8.05292 75.6663 45.781
14286 1 1.67926 80.6725 43.2014
19890 2 0.762127 78.9843 44.5135
19888 2 3.50866 80.6347 44.5094
14245 1 2.60683 78.972 45.7731
14249 1 4.39196 79.0194 43.2155
19854 2 6.21837 78.9843 44.5135
14247 1 7.1355 80.6725 43.2014
14246 1 5.34631 80.6101 45.7809
17092 1 10.8025 80.6101 45.7809
14196 1 9.8482 79.0194 43.2155
19855 2 8.9649 80.6347 44.5094
14193 1 8.06307 78.972 45.7731
14274 1 1.72822 83.9286 43.2614
19889 2 0.802657 82.2809 44.5205
19891 2 3.55254 83.9237 44.5475
14231 1 2.63334 82.2432 45.7971
14248 1 4.43088 82.2959 43.2254
19846 2 6.2589 82.2809 44.5205
14250 1 7.18445 83.9286 43.2614
14229 1 5.37736 83.8731 45.8258
17093 1 10.8336 83.8731 45.8258
14195 1 9.88712 82.2959 43.2254
19844 2 9.00878 83.9237 44.5475
14192 1 8.08957 82.2432 45.7971
14275 1 1.75836 87.2139 43.3905
19876 2 0.840917 85.5662 44.5908
19874 2 3.58401 87.2093 44.6422
14230 1 2.66523 85.5025 45.8639
14235 1 4.48009 85.5674 43.3142
19845 2 6.29716 85.5662 44.5908
14233 1 7.2146 87.2139 43.3905
14232 1 5.40528 87.1344 45.9118
17084 1 10.8615 87.1344 45.9118
14194 1 9.93633 85.5674 43.3142
19847 2 9.04025 87.2093 44.6422
14185 1 8.12147 85.5025 45.8639
14266 1 1.76722 90.4896 43.4871
19875 2 0.865116 88.8471 44.6921
19877 2 3.59917 90.4758 44.7366
14234 1 4.48883 88.8556 43.4472
19831 2 6.32135 88.8471 44.6921
14236 1 7.22345 90.4896 43.4871
14187 1 9.94507 88.8556 43.4472
19829 2 9.05541 90.4758 44.7366
14267 1 1.77806 93.7358 43.5541
19868 2 0.875052 92.0968 44.7765
19866 2 3.60603 93.7126 44.8126
14220 1 4.50142 92.1161 43.5222
19830 2 6.33129 92.0968 44.7765
14218 1 7.2343 93.7358 43.5541
19832 2 9.06227 93.7126 44.8126
14186 1 9.95766 92.1161 43.5222
19886 2 1.70453 77.3137 47.0603
13843 1 0.815416 75.6606 48.3195
14243 1 3.54503 77.3016 48.3225
13792 1 6.27165 75.6606 48.3195
19452 2 4.42911 75.6644 47.061
19852 2 7.16077 77.3137 47.0603
14189 1 9.00127 77.3016 48.3225
19413 2 9.88535 75.6644 47.061
14227 1 0.820877 78.9388 48.3299
19887 2 1.72257 80.5978 47.0699
14225 1 3.55553 80.5721 48.3425
14190 1 6.27711 78.9388 48.3299
19842 2 4.43986 78.9583 47.0624
19840 2 7.17881 80.5978 47.0699
14191 1 9.01177 80.5721 48.3425
19794 2 9.8961 78.9583 47.0624
14226 1 0.836428 82.2016 48.3614
19872 2 1.74835 83.8652 47.1111
14228 1 3.57499 83.8285 48.387
14182 1 6.29267 82.2016 48.3614
19841 2 4.46323 82.2329 47.0857
19843 2 7.20459 83.8652 47.1111
14180 1 9.03123 83.8285 48.387
19793 2 9.91947 82.2329 47.0857
14212 1 0.857843 85.4545 48.4192
19873 2 1.77118 87.1281 47.1859
14210 1 3.59559 87.0804 48.457
14181 1 6.31408 85.4545 48.4192
19827 2 4.48871 85.4966 47.1456
19825 2 7.22742 87.1281 47.1859
14183 1 9.05183 87.0804 48.457
19792 2 9.94494 85.4966 47.1456
14211 1 0.875271 88.7069 48.4988
19864 2 1.78622 90.3873 47.2725
14213 1 3.6089 90.3335 48.5419
14216 1 2.68473 88.7683 45.9635
14167 1 6.33151 88.7069 48.4988
14214 1 5.41729 90.4001 46.0108
19826 2 4.50797 88.759 47.2295
19828 2 7.24246 90.3873 47.2725
17085 1 10.8735 90.4001 46.0108
14165 1 9.06514 90.3335 48.5419
19785 2 9.96421 88.759 47.2295
14184 1 8.14097 88.7683 45.9635
14204 1 0.884531 91.9587 48.5833
14215 1 2.69267 92.0278 46.0518
19865 2 1.79382 93.6317 47.3505
14202 1 3.61542 93.5816 48.6219
14166 1 6.34077 91.9587 48.5833
14217 1 5.42402 93.651 46.0883
19813 2 4.51875 92.0115 47.3129
19811 2 7.25006 93.6317 47.3505
17083 1 10.8803 93.651 46.0883
14168 1 9.07166 93.5816 48.6219
14170 1 8.14891 92.0278 46.0518
19784 2 9.97499 92.0115 47.3129
14223 1 1.75335 77.2887 50.8783
19440 2 2.64438 75.6613 49.6066
19438 2 0.851621 75.6599 52.1622
19836 2 3.58126 77.288 52.1661
19837 2 5.37486 77.2987 49.6095
13790 1 4.48021 75.6584 50.8738
14188 1 7.20959 77.2887 50.8783
19402 2 6.30786 75.6599 52.1622
22705 2 10.8311 77.2987 49.6095
13760 1 9.93645 75.6584 50.8738
19411 2 8.10061 75.6613 49.6066
19787 2 9.0375 77.288 52.1661
14224 1 1.7603 80.5446 50.9023
19838 2 2.65128 78.9336 49.6167
19819 2 0.856077 78.915 52.1748
19817 2 3.58841 80.5403 52.1883
14178 1 4.48417 78.9176 50.8878
19839 2 5.38585 80.5653 49.6289
14176 1 7.21654 80.5446 50.9023
19788 2 6.31232 78.915 52.1748
22690 2 10.8421 80.5653 49.6289
14136 1 9.94041 78.9176 50.8878
19791 2 8.10751 78.9336 49.6167
19789 2 9.04464 80.5403 52.1883
14208 1 1.77304 83.7933 50.9461
19823 2 2.66556 82.1941 49.647
19818 2 0.865481 82.1641 52.2067
19820 2 3.59946 83.7866 52.2297
14177 1 4.49423 82.1697 50.9218
19821 2 5.40225 83.8208 49.6713
14179 1 7.22928 83.7933 50.9461
19780 2 6.32172 82.1641 52.2067
22691 2 10.8585 83.8208 49.6713
14135 1 9.95047 82.1697 50.9218
19790 2 8.1218 82.1941 49.647
19778 2 9.0557 83.7866 52.2297
14209 1 1.78779 87.0382 51.008
19822 2 2.68266 85.4466 49.7013
19803 2 3.61158 87.0297 52.2881
19805 2 0.877456 85.4084 52.2571
14163 1 4.50865 85.4159 50.975
19824 2 5.41879 87.0719 49.736
14161 1 7.24403 87.0382 51.008
19779 2 6.33369 85.4084 52.2571
22682 2 10.875 87.0719 49.736
14134 1 9.96489 85.4159 50.975
19783 2 8.1389 85.4466 49.7013
19781 2 9.06782 87.0297 52.2881
19806 2 3.62203 90.2717 52.3572
19804 2 0.889026 88.6509 52.3218
14200 1 1.79955 90.2827 51.0822
19809 2 2.69763 88.6971 49.7737
19769 2 6.34526 88.6509 52.3218
14162 1 4.52238 88.6605 51.0441
19807 2 5.43151 90.3215 49.8127
14164 1 7.25579 90.2827 51.0822
22683 2 10.8877 90.3215 49.8127
19767 2 9.07827 90.2717 52.3572
14128 1 9.97861 88.6605 51.0441
19782 2 8.15387 88.6971 49.7737
19797 2 3.62946 93.5112 52.4295
19799 2 0.898017 91.892 52.3934
14201 1 1.80658 93.5256 51.1586
19808 2 2.70787 91.9444 49.8514
19768 2 6.35426 91.892 52.3934
14151 1 4.53172 91.9047 51.1208
19810 2 5.43936 93.565 49.8888
14149 1 7.26282 93.5256 51.1586
19770 2 9.08569 93.5112 52.4295
22681 2 10.8956 93.565 49.8888
14127 1 9.98795 91.9047 51.1208
19772 2 8.16411 91.9444 49.8514
19815 2 1.7827 77.2815 54.7266
13780 1 2.68309 75.6585 53.4345
14173 1 5.41219 77.2813 53.4389
19400 2 4.50981 75.6603 54.7227
19786 2 7.23894 77.2815 54.7266
17042 1 10.8684 77.2813 53.4389
13758 1 8.13933 75.6585 53.4345
19393 2 9.96605 75.6603 54.7227
14174 1 2.68611 78.9036 53.4484
19816 2 1.78767 80.5222 54.7485
14175 1 5.41732 80.5251 53.4626
19776 2 4.51285 78.9022 54.7353
19774 2 7.2439 80.5222 54.7485
17026 1 10.8736 80.5251 53.4626
14133 1 8.14235 78.9036 53.4484
19758 2 9.96909 78.9022 54.7353
14159 1 2.69328 82.1458 53.4814
19801 2 1.79559 83.7603 54.7876
14157 1 5.42627 83.7658 53.5042
19775 2 4.51947 82.1416 54.766
19777 2 7.25183 83.7603 54.7876
17027 1 10.8825 83.7658 53.5042
14132 1 8.14952 82.1458 53.4814
19757 2 9.97571 82.1416 54.766
14158 1 2.7035 85.3852 53.5308
19802 2 1.80476 86.9967 54.8412
19763 2 7.261 86.9967 54.8412
14160 1 5.43705 87.0045 53.5607
19765 2 4.52826 85.3786 54.8129
17018 1 10.8933 87.0045 53.5607
19756 2 9.9845 85.3786 54.8129
14126 1 8.15974 85.3852 53.5308
19795 2 1.81331 90.2326 54.9047
14147 1 2.71409 88.6236 53.5933
19766 2 7.26955 90.2326 54.9047
19764 2 4.53733 88.6147 54.8721
14145 1 5.44678 90.2427 53.6278
17019 1 10.903 90.2427 53.6278
19755 2 9.99357 88.6147 54.8721
14125 1 8.17032 88.6236 53.5933
19796 2 1.82002 93.4673 54.973
14146 1 2.72249 91.8616 53.6635
19761 2 4.54505 91.8502 54.9386
14148 1 5.45367 93.4802 53.6994
19759 2 7.27626 93.4673 54.973
19754 2 10.0013 91.8502 54.9386
14119 1 8.17873 91.8616 53.6635
17017 1 10.9099 93.4802 53.6994
14471 1 1.80771 77.2754 58.5651
13778 1 0.882284 75.6599 55.9978
19719 2 2.70826 75.662 57.2852
14172 1 3.61117 77.2772 56.0017
20104 2 5.4371 77.2779 57.2888
14075 1 4.53523 75.6623 58.5616
13753 1 6.33852 75.6599 55.9978
14460 1 7.26395 77.2754 58.5651
14129 1 9.06741 77.2772 56.0017
14027 1 9.99147 75.6623 58.5616
19689 2 8.1645 75.662 57.2852
22932 2 10.8933 77.2779 57.2888
14155 1 0.884644 78.8944 56.0104
14472 1 1.81088 80.5016 58.5849
20105 2 2.71047 78.8937 57.2968
14153 1 3.61514 80.5113 56.0236
14130 1 6.34088 78.8944 56.0104
14458 1 4.5371 78.8884 58.5729
20106 2 5.44077 80.5093 57.3091
14456 1 7.26712 80.5016 58.5849
14412 1 9.99334 78.8884 58.5729
14131 1 9.07138 80.5113 56.0236
20070 2 8.1667 78.8937 57.2968
22930 2 10.897 80.5093 57.3091
14154 1 0.890109 82.128 56.0411
14468 1 1.81623 83.728 58.6205
20101 2 2.71542 82.1247 57.3255
14156 1 3.62188 83.7446 56.0623
14457 1 4.54145 82.1148 58.6009
14123 1 6.34635 82.128 56.0411
20099 2 5.44677 83.74 57.3455
14459 1 7.27247 83.728 58.6205
14411 1 9.99769 82.1148 58.6009
14121 1 9.07812 83.7446 56.0623
20069 2 8.17166 82.1247 57.3255
22931 2 10.903 83.74 57.3455
14143 1 0.897807 85.3609 56.0869
14469 1 1.82283 86.955 58.669
20100 2 2.72219 85.3551 57.3689
14141 1 3.63013 86.9773 56.1145
14450 1 4.54756 85.3415 58.6433
14122 1 6.35405 85.3609 56.0869
20102 2 5.45397 86.9703 57.3951
14448 1 7.27906 86.955 58.669
14410 1 10.0038 85.3415 58.6433
14124 1 9.08636 86.9773 56.1145
20064 2 8.17843 85.3551 57.3689
22928 2 10.9102 86.9703 57.3951
14142 1 0.906136 88.5936 56.1445
14464 1 1.82949 90.1826 58.7269
20109 2 0.004829 90.2006 57.4543
20090 2 2.72949 88.5854 57.4238
14144 1 3.63811 90.21 56.1764
14449 1 4.55434 88.5687 58.697
14116 1 6.36237 88.5936 56.1445
20088 2 5.46107 90.2006 57.4543
14403 1 10.0106 88.5687 58.697
14451 1 7.28572 90.1826 58.7269
14114 1 9.09434 90.21 56.1764
20063 2 8.18573 88.5854 57.4238
14139 1 0.913408 91.8264 56.2097
14465 1 1.83519 93.4106 58.7908
20107 2 0.0108203 93.4308 57.519
20089 2 2.73612 91.8158 57.4862
14137 1 3.64444 93.4426 56.2438
14436 1 4.56062 91.7966 58.7583
14115 1 6.36965 91.8264 56.2097
20091 2 5.46706 93.4308 57.519
14402 1 10.0169 91.7966 58.7583
14434 1 7.29143 93.4106 58.7908
14117 1 9.10068 93.4426 56.2438
20050 2 8.19236 91.8158 57.4862
14061 1 2.73016 75.6655 61.1253
19717 2 0.904339 75.6646 59.8482
20103 2 3.63299 77.2763 59.8513
20093 2 1.82721 77.276 62.4134
14470 1 0.00250678 77.275 61.1282
14453 1 5.45875 77.275 61.1282
19669 2 6.36058 75.6646 59.8482
19667 2 4.55493 75.6678 62.4107
20066 2 9.08923 77.2763 59.8513
14025 1 8.1864 75.6655 61.1253
20065 2 7.28345 77.276 62.4134
19619 2 10.0112 75.6678 62.4107
14454 1 2.73166 78.8846 61.1352
14466 1 0.00509209 80.4944 61.1462
20097 2 0.906013 78.8881 59.8585
20095 2 3.63584 80.5 59.8698
20094 2 1.82951 80.4929 62.4303
14455 1 5.46133 80.4944 61.1462
20067 2 6.36225 78.8881 59.8585
20057 2 4.55624 78.8844 62.4199
14409 1 8.1879 78.8846 61.1352
20068 2 9.09208 80.5 59.8698
20004 2 10.0125 78.8844 62.4199
20055 2 7.28575 80.4929 62.4303
14446 1 2.73522 82.1045 61.1609
14467 1 0.00948678 83.7147 61.179
20096 2 0.909912 82.1119 59.8849
20082 2 1.83345 83.7105 62.4614
20098 2 3.64061 83.7239 59.9035
14444 1 5.46573 83.7147 61.179
20061 2 6.36615 82.1119 59.8849
20056 2 4.55943 82.1016 62.4442
14408 1 8.19146 82.1045 61.1609
20059 2 9.09685 83.7239 59.9035
20003 2 10.0157 82.1016 62.4442
20058 2 7.28969 83.7105 62.4614
14445 1 2.74026 85.3253 61.2002
14462 1 0.0149702 86.9362 61.2242
20086 2 0.915353 85.336 59.9252
20083 2 1.83841 86.9293 62.5047
14447 1 5.47121 86.9362 61.2242
20060 2 6.37159 85.336 59.9252
20084 2 3.64649 86.9483 59.9497
20043 2 4.56397 85.3198 62.4817
14401 1 8.1965 85.3253 61.2002
20062 2 9.10272 86.9483 59.9497
20002 2 10.0202 85.3198 62.4817
20041 2 7.29465 86.9293 62.5047
14432 1 2.74597 88.5473 61.2506
14463 1 0.0206753 90.1588 61.2789
20085 2 0.921415 88.5608 59.9765
20074 2 1.84366 90.1494 62.5574
14430 1 5.47691 90.1588 61.2789
20047 2 6.37765 88.5608 59.9765
20087 2 3.65251 90.1735 60.0053
20042 2 4.56917 88.5392 62.5301
14400 1 8.20221 88.5473 61.2506
20045 2 9.10874 90.1735 60.0053
19995 2 10.0254 88.5392 62.5301
20044 2 7.2999 90.1494 62.5574
14431 1 2.75148 91.7705 61.3088
14461 1 0.0258217 93.3823 61.3399
20078 2 0.927188 91.7863 60.0356
14433 1 5.48206 93.3823 61.3399
20046 2 6.38343 91.7863 60.0356
20076 2 3.65787 93.3991 60.067
20028 2 4.5743 91.7598 62.5864
14386 1 8.20771 91.7705 61.3088
20048 2 9.11411 93.3991 60.067
19994 2 10.0305 91.7598 62.5864
20092 2 0.0200709 77.2766 64.9746
14059 1 0.923694 75.6692 63.6887
19653 2 2.74789 75.6716 64.9724
14452 1 3.65217 77.2756 63.6912
20052 2 5.47631 77.2766 64.9746
14006 1 6.37993 75.6692 63.6887
14405 1 9.10841 77.2756 63.6912
19617 2 8.20413 75.6716 64.9724
14442 1 0.924894 78.8821 63.6975
20053 2 2.74893 78.8817 64.9805
20080 2 0.0219676 80.487 64.99
14406 1 6.38113 78.8821 63.6975
14440 1 3.6543 80.4889 63.7075
20054 2 5.47821 80.487 64.99
14407 1 9.11054 80.4889 63.7075
20001 2 8.20517 78.8817 64.9805
14441 1 0.92787 82.096 63.7211
20039 2 2.75161 82.0926 65.0029
20081 2 0.0253305 83.6986 65.0191
14398 1 6.38411 82.096 63.7211
14443 1 3.658 83.7034 63.738
20037 2 5.48157 83.6986 65.0191
14396 1 9.11424 83.7034 63.738
20000 2 8.20785 82.0926 65.0029
14428 1 0.93215 85.3112 63.7579
20038 2 2.75553 85.3049 65.0382
20072 2 0.0296638 86.9117 65.0599
14397 1 6.38839 85.3112 63.7579
14426 1 3.6627 86.9194 63.7805
20040 2 5.4859 86.9117 65.0599
14399 1 9.11894 86.9194 63.7805
19993 2 8.21177 85.3049 65.0382
14427 1 0.937092 88.528 63.8054
20024 2 2.76013 88.5189 65.084
20073 2 0.0343781 90.1266 65.1102
14383 1 6.39333 88.528 63.8054
14429 1 3.66772 90.1371 63.8325
20022 2 5.49062 90.1266 65.1102
14381 1 9.12396 90.1371 63.8325
19992 2 8.21637 88.5189 65.084
14420 1 0.942024 91.7465 63.8611
20023 2 2.76482 91.7348 65.1381
20071 2 0.0389213 93.3434 65.1673
20075 2 1.84854 93.3706 62.6166
14382 1 6.39826 91.7465 63.8611
14418 1 3.67243 93.3562 63.8911
20025 2 5.49516 93.3434 65.1673
20026 2 7.30478 93.3706 62.6166
14384 1 9.12867 93.3562 63.8911
19978 2 8.22106 91.7348 65.1381
14438 1 1.84434 77.277 66.2549
19651 2 0.939519 75.6758 67.5323
14437 1 0.0352661 77.2793 68.8229
13992 1 2.76319 75.6789 68.8211
20051 2 3.66784 77.2775 67.5341
14004 1 4.5722 75.6735 66.2528
19600 2 6.39576 75.6758 67.5323
14389 1 5.4915 77.2793 68.8229
14404 1 7.30058 77.277 66.2549
19997 2 9.12408 77.2775 67.5341
13965 1 10.0284 75.6735 66.2528
13963 1 8.21943 75.6789 68.8211
14439 1 1.8461 80.4844 66.2699
20035 2 0.940325 78.8793 67.5394
14390 1 2.76395 78.8799 68.8282
14422 1 0.0367516 80.4807 68.8369
14394 1 4.57314 78.8806 66.2606
19998 2 6.39656 78.8793 67.5394
20033 2 3.66943 80.4814 67.5482
14391 1 5.49299 80.4807 68.8369
14346 1 10.0294 78.8806 66.2606
14392 1 7.30234 80.4844 66.2699
19999 2 9.12566 80.4814 67.5482
14343 1 8.22019 78.8799 68.8282
14424 1 1.84927 83.6932 66.2984
20034 2 0.942631 82.0839 67.5603
14375 1 2.76611 82.0819 68.8489
14423 1 0.039515 83.6836 68.864
14393 1 4.57565 82.0886 66.2825
19990 2 6.39887 82.0839 67.5603
20036 2 3.67237 83.6868 67.5755
14373 1 5.49575 83.6836 68.864
14345 1 10.0319 82.0886 66.2825
14395 1 7.30551 83.6932 66.2984
19988 2 9.12861 83.6868 67.5755
14342 1 8.22235 82.0819 68.8489
14425 1 1.85339 86.9037 66.3387
20020 2 0.946123 85.2901 67.5936
14374 1 2.76938 85.2858 68.8819
14414 1 0.0431839 86.8886 68.9026
14379 1 4.57936 85.2982 66.3172
19989 2 6.40236 85.2901 67.5936
20018 2 3.67629 86.8941 67.6143
14376 1 5.49942 86.8886 68.9026
14344 1 10.0356 85.2982 66.3172
14377 1 7.30963 86.9037 66.3387
19991 2 9.13253 86.8941 67.6143
14335 1 8.22562 85.2858 68.8819
14416 1 1.85791 90.1164 66.3885
20019 2 0.950343 88.4986 67.6374
14361 1 2.77333 88.492 68.9255
14415 1 0.0472979 90.0962 68.9505
14378 1 4.58375 88.5098 66.3626
19975 2 6.40658 88.4986 67.6374
20021 2 3.68069 90.1038 67.6626
14359 1 5.50354 90.0962 68.9505
14337 1 10.04 88.5098 66.3626
14380 1 7.31415 90.1164 66.3885
19973 2 9.13692 90.1038 67.6626
14334 1 8.22957 88.492 68.9255
14417 1 1.86231 93.3312 66.4452
20012 2 0.954785 91.7096 67.6895
14360 1 2.7775 91.701 68.9773
14413 1 0.0514023 93.3065 69.0056
14365 1 4.58827 91.7235 66.4162
19974 2 6.41102 91.7096 67.6895
20010 2 3.68506 93.3161 67.7179
14362 1 5.50764 93.3065 69.0056
14336 1 10.0445 91.7235 66.4162
14363 1 7.31855 93.3312 66.4452
19976 2 9.1413 93.3161 67.7179
14324 1 8.23373 91.701 68.9773
20031 2 1.85895 77.2774 70.0884
13990 1 0.950466 75.683 71.4054
14388 1 3.67875 77.2802 71.4071
13954 1 6.4067 75.683 71.4054
19598 2 4.58688 75.6792 70.0867
14339 1 9.13499 77.2802 71.4071
19996 2 7.31519 77.2774 70.0884
19568 2 10.0431 75.6792 70.0867
14371 1 0.951127 78.8775 71.4122
20032 2 1.86043 80.4744 70.1021
14340 1 6.40737 78.8775 71.4122
14369 1 3.68005 80.4751 71.4207
19986 2 4.58764 78.8757 70.0936
14341 1 9.13629 80.4751 71.4207
19944 2 10.0439 78.8757 70.0936
19984 2 7.31667 80.4744 70.1021
14370 1 0.95302 82.0732 71.4323
20016 2 1.86318 83.673 70.1285
14332 1 6.40926 82.0732 71.4323
14372 1 3.68247 83.6718 71.4469
19985 2 4.58979 82.0734 70.1138
14330 1 9.13871 83.6718 71.4469
19943 2 10.046 82.0734 70.1138
19987 2 7.31942 83.673 70.1285
14357 1 0.955885 85.2711 71.4643
20017 2 1.86684 86.8742 70.1662
14331 1 6.41212 85.2711 71.4643
14355 1 3.68569 86.8711 71.4843
19971 2 4.59305 85.2732 70.1461
14333 1 9.14193 86.8711 71.4843
19942 2 10.0493 85.2732 70.1461
19969 2 7.32308 86.8742 70.1662
14356 1 0.959354 88.472 71.5066
20008 2 1.87096 90.0785 70.2132
14321 1 6.41559 88.472 71.5066
14358 1 3.68931 90.0737 71.531
19970 2 4.59699 88.4759 70.1887
14319 1 9.14554 90.0737 71.531
19936 2 10.0532 88.4759 70.1887
19972 2 7.3272 90.0785 70.2132
14351 1 0.96302 91.6763 71.5571
20009 2 1.87509 93.2863 70.2673
14320 1 6.41926 91.6763 71.5571
14349 1 3.69293 93.2798 71.5846
19959 2 4.60117 91.682 70.2395
14322 1 9.14917 93.2798 71.5846
19935 2 10.0574 91.682 70.2395
19957 2 7.33133 93.2863 70.2673
14367 1 1.83496 77.2842 74.0657
20030 2 0.0477174 77.2759 72.6295
19586 2 0.948359 75.6864 75.1182
19588 2 2.77565 75.6817 72.6278
19980 2 3.6766 77.2772 75.1198
19981 2 5.50396 77.2759 72.6295
13952 1 4.56308 75.69 74.0641
19561 2 6.4046 75.6864 75.1182
14338 1 7.2912 77.2842 74.0657
19937 2 9.13284 77.2772 75.1198
13945 1 10.0193 75.69 74.0641
19566 2 8.23189 75.6817 72.6278
14368 1 1.83495 80.4734 74.0791
19963 2 0.948847 78.8683 75.1246
19982 2 2.77639 78.8704 72.6345
20014 2 0.0491649 80.4652 72.6428
14328 1 4.56308 78.8786 74.0708
19938 2 6.40509 78.8683 75.1246
19961 2 3.67756 80.4599 75.1325
19983 2 5.5054 80.4652 72.6428
14310 1 10.0193 78.8786 74.0708
14326 1 7.29119 80.4734 74.0791
19939 2 9.1338 80.4599 75.1325
19941 2 8.23263 78.8704 72.6345
14353 1 1.83494 83.6649 74.1051
19962 2 0.950241 82.0522 75.1435
19967 2 2.77849 82.0606 72.6542
20015 2 0.0518538 83.6566 72.6685
14327 1 4.56307 82.0688 74.0906
19931 2 6.40648 82.0522 75.1435
19964 2 3.67934 83.6454 75.1573
19965 2 5.50809 83.6566 72.6685
14309 1 10.0193 82.0688 74.0906
14329 1 7.29118 83.6649 74.1051
19929 2 9.13558 83.6454 75.1573
19940 2 8.23473 82.0606 72.6542
14354 1 1.83492 86.8596 74.1422
19951 2 0.952337 85.2396 75.1738
19966 2 2.78167 85.2535 72.6857
20006 2 0.0554185 86.8514 72.7053
14317 1 4.56305 85.2618 74.1224
19930 2 6.40858 85.2396 75.1738
19949 2 3.68168 86.835 75.1928
19968 2 5.51166 86.8514 72.7053
14308 1 10.0193 85.2618 74.1224
14315 1 7.29116 86.8596 74.1422
19932 2 9.13792 86.835 75.1928
19934 2 8.23791 85.2535 72.6857
14347 1 1.83485 90.0584 74.1885
19950 2 0.95484 88.4316 75.2141
19955 2 2.78551 88.4502 72.7273
20007 2 0.059414 90.0502 72.7513
14316 1 4.56302 88.4585 74.1644
19924 2 6.41108 88.4316 75.2141
19952 2 3.68426 90.0296 75.2373
19953 2 5.51565 90.0502 72.7513
14307 1 10.0193 88.4585 74.1644
14318 1 7.29109 90.0584 74.1885
19922 2 9.1405 90.0296 75.2373
19933 2 8.24175 88.4502 72.7273
14348 1 1.83466 93.2616 74.2418
19947 2 0.95742 91.629 75.2623
19954 2 2.78955 91.6512 72.777
20005 2 0.0634084 93.2535 72.8043
19956 2 5.51965 93.2535 72.8043
14313 1 4.5629 91.6595 74.2144
19923 2 6.41366 91.629 75.2623
19945 2 3.68676 93.2298 75.2887
19927 2 8.24579 91.6512 72.777
19925 2 9.143 93.2298 75.2887
14311 1 7.2909 93.2616 74.2418
14306 1 10.0191 91.6595 74.2144
2111 1 1.85497 94.5747 -2.88205
8361 2 0.924981 96.1635 -1.41827
8369 2 2.74937 96.1842 -3.91609
8376 2 0.0231032 94.6006 -3.93697
2098 1 4.5798 96.1575 -2.86065
8331 2 6.38122 96.1635 -1.41827
8367 2 3.65417 94.5815 -1.43974
8368 2 5.47934 94.6006 -3.93697
2052 1 10.036 96.1575 -2.86065
2100 1 7.31121 94.5747 -2.88205
8330 2 9.11041 94.5815 -1.43974
8334 2 8.20561 96.1842 -3.91609
2112 1 1.84829 97.7395 -2.83834
8360 2 0.92283 99.3244 -1.37279
8365 2 2.74559 99.348 -3.87182
8374 2 0.0193731 97.7666 -3.89433
2097 1 4.57294 99.3205 -2.81528
8325 2 6.37907 99.3244 -1.37279
8359 2 3.65203 97.7444 -1.39591
8370 2 5.47561 97.7666 -3.89433
2051 1 10.0292 99.3205 -2.81528
2096 1 7.30453 97.7395 -2.83834
8332 2 9.10826 97.7444 -1.39591
8333 2 8.20183 99.348 -3.87182
2108 1 1.84131 100.901 -2.79162
8350 2 0.92067 102.482 -1.32491
8364 2 2.74175 102.507 -3.82517
8375 2 0.0155508 100.928 -3.84872
2090 1 4.56589 102.48 -2.76751
8324 2 6.37691 102.482 -1.32491
8362 2 3.64987 100.903 -1.34907
8363 2 5.47179 100.928 -3.84872
2050 1 10.0221 102.48 -2.76751
2099 1 7.29755 100.901 -2.79162
8323 2 9.10611 100.903 -1.34907
8328 2 8.19799 102.507 -3.82517
2109 1 1.83423 104.058 -2.7431
8349 2 0.9185 105.635 -1.27587
8354 2 2.73792 105.662 -3.77732
8372 2 0.0117076 104.085 -3.80133
2089 1 4.55884 105.635 -2.71856
8311 2 6.37474 105.635 -1.27587
8348 2 3.64771 104.059 -1.30046
8366 2 5.46795 104.085 -3.80133
2043 1 10.0151 105.635 -2.71856
2088 1 7.29047 104.058 -2.7431
8326 2 9.10394 104.059 -1.30046
8327 2 8.19416 105.662 -3.77732
2104 1 1.82727 107.212 -2.694
8342 2 0.916314 108.785 -1.22678
8353 2 2.73416 108.813 -3.72935
8373 2 0.00790461 107.238 -3.75329
2076 1 4.552 108.787 -2.66957
8310 2 6.37255 108.785 -1.22678
8351 2 3.64553 107.21 -1.25126
8352 2 5.46414 107.238 -3.75329
2042 1 10.0082 108.787 -2.66957
2091 1 7.2835 107.212 -2.694
8309 2 9.10177 107.21 -1.25126
8314 2 8.19039 108.813 -3.72935
2105 1 1.82058 110.362 -2.64538
8341 2 0.914115 111.932 -1.17867
8343 2 2.73052 111.96 -3.68226
8371 2 0.00419839 110.387 -3.70564
2075 1 4.54552 111.935 -2.62156
8293 2 6.37035 111.932 -1.17867
8340 2 3.64333 110.359 -1.20255
8355 2 5.46044 110.387 -3.70564
2027 1 10.0018 111.935 -2.62156
2074 1 7.27682 110.362 -2.64538
8312 2 9.09957 110.359 -1.20255
8313 2 8.18676 111.96 -3.68226
2082 1 0.928123 96.1213 2.39322
2094 1 2.74659 96.1436 -0.198414
2110 1 0.0198517 94.5623 -0.220031
8357 2 1.8373 94.5564 1.10876
2046 1 6.38436 96.1213 2.39322
2092 1 3.65759 94.5415 2.37108
2093 1 5.47609 94.5623 -0.220031
8321 2 4.56422 96.1368 1.13064
2045 1 9.11382 94.5415 2.37108
2049 1 8.20283 96.1436 -0.198414
8268 2 10.0205 96.1368 1.13064
8329 2 7.29354 94.5564 1.10876
2081 1 0.925351 99.2787 2.4401
2086 1 2.74375 99.3035 -0.15258
2106 1 0.0170598 97.724 -0.175878
8358 2 1.83487 97.7165 1.15342
2038 1 6.38159 99.2787 2.4401
2080 1 3.65487 97.7004 2.41628
2095 1 5.4733 97.724 -0.175878
8320 2 4.56175 99.2953 1.17697
2047 1 9.11111 97.7004 2.41628
2048 1 8.19999 99.3035 -0.15258
8267 2 10.018 99.2953 1.17697
8319 2 7.29111 97.7165 1.15342
2068 1 0.922486 102.433 2.48937
2085 1 2.74084 102.46 -0.104329
2107 1 0.0141821 100.882 -0.128678
8346 2 1.83237 100.873 1.2011
2037 1 6.37872 102.433 2.48937
2083 1 3.65205 100.856 2.46451
2084 1 5.47042 100.882 -0.128678
8307 2 4.55921 102.451 1.22567
2036 1 9.10829 100.856 2.46451
2041 1 8.19708 102.46 -0.104329
8266 2 10.0155 102.451 1.22567
8322 2 7.28861 100.873 1.2011
2067 1 0.919557 105.585 2.53975
2072 1 2.7379 105.614 -0.0548944
2102 1 0.0112533 104.037 -0.0796847
8347 2 1.82981 104.027 1.25052
2023 1 6.37579 105.585 2.53975
2066 1 3.64915 104.01 2.51449
2087 1 5.46749 104.037 -0.0796847
8306 2 4.55663 105.603 1.27551
2039 1 9.10539 104.01 2.51449
2040 1 8.19414 105.614 -0.0548944
8259 2 10.0129 105.603 1.27551
8305 2 7.28605 104.027 1.25052
2071 1 2.73495 108.764 -0.00543356
2103 1 0.00830233 107.189 -0.0300994
8338 2 1.82721 107.178 1.30048
2069 1 3.6462 107.161 2.56498
2070 1 5.46454 107.189 -0.0300994
8292 2 4.55401 108.753 1.32531
2021 1 9.10243 107.161 2.56498
2026 1 8.19119 108.764 -0.00543356
8258 2 10.0103 108.753 1.32531
8308 2 7.28344 107.178 1.30048
2061 1 2.73202 111.912 0.0430219
2101 1 0.00536085 110.338 0.0189785
8339 2 1.82458 110.327 1.34987
2073 1 5.4616 110.338 0.0189785
8291 2 4.55139 111.9 1.37405
2025 1 8.18826 111.912 0.0430219
8243 2 10.0076 111.9 1.37405
8290 2 7.28082 110.327 1.34987
2078 1 1.84027 94.5228 4.94722
8317 2 2.74715 96.1134 3.69327
8356 2 0.0204082 94.5344 3.67095
2034 1 4.56691 96.1012 4.96991
8316 2 5.47665 94.5344 3.67095
1980 1 10.0231 96.1012 4.96991
2044 1 7.29651 94.5228 4.94722
8265 2 8.20339 96.1134 3.69327
2079 1 1.83728 97.6789 4.99352
8303 2 2.74431 99.2695 3.74048
8344 2 0.0176241 97.6918 3.7165
2033 1 4.56365 99.2565 5.01862
8318 2 5.47386 97.6918 3.7165
1979 1 10.0199 99.2565 5.01862
2032 1 7.29352 97.6789 4.99352
8264 2 8.20055 99.2695 3.74048
2064 1 1.83389 100.833 5.04358
8302 2 2.74137 102.423 3.79002
8345 2 0.0147312 100.847 3.76504
2019 1 4.5604 102.409 5.06892
8301 2 5.47097 100.847 3.76504
1978 1 10.0166 102.409 5.06892
2035 1 7.29012 100.833 5.04358
8257 2 8.19761 102.423 3.79002
2065 1 1.83066 103.985 5.0945
8288 2 2.73836 105.574 3.84061
8336 2 0.0117537 103.999 3.81526
2018 1 4.55714 105.56 5.12016
8304 2 5.46799 103.999 3.81526
1971 1 10.0134 105.56 5.12016
2017 1 7.2869 103.985 5.0945
8256 2 8.1946 105.574 3.84061
2060 1 0.916592 108.735 2.59006
2056 1 1.82737 107.135 5.14575
8287 2 2.73531 108.724 3.89106
8337 2 0.00872049 107.149 3.86592
2022 1 6.37283 108.735 2.59006
2004 1 4.55385 108.709 5.17114
8286 2 5.46496 107.149 3.86592
1970 1 10.0101 108.709 5.17114
2020 1 7.28361 107.135 5.14575
8242 2 8.19155 108.724 3.89106
2059 1 0.913635 111.883 2.63925
2057 1 1.82409 110.283 5.1962
8277 2 2.73228 111.871 3.94033
8335 2 0.005672 110.298 3.9159
2005 1 6.36987 111.883 2.63925
2058 1 3.64323 110.309 2.61485
2003 1 4.55058 111.857 5.22082
8289 2 5.46191 110.298 3.9159
2024 1 9.09947 110.309 2.61485
1956 1 10.0068 111.857 5.22082
2002 1 7.28033 110.283 5.1962
8241 2 8.18852 111.871 3.94033
2030 1 2.74857 96.0831 7.54381
2077 1 0.0221007 94.5063 7.52042
8299 2 0.92928 96.0932 6.26192
8296 2 1.83735 97.65 8.85734
2029 1 5.47834 94.5063 7.52042
8250 2 4.56726 96.0743 8.83291
8262 2 6.38552 96.0932 6.26192
8315 2 3.65895 94.5156 6.23903
1977 1 8.20481 96.0831 7.54381
8208 2 10.0235 96.0743 8.83291
8261 2 9.11519 94.5156 6.23903
8248 2 7.29359 97.65 8.85734
2015 1 2.74511 99.2354 7.59321
2062 1 0.018767 97.6595 7.56812
8298 2 0.926094 99.2467 6.31024
8280 2 1.83367 100.8 8.90801
2031 1 5.47501 97.6595 7.56812
8249 2 4.56364 99.2253 8.88242
8254 2 6.38233 99.2467 6.31024
8297 2 3.6558 97.6702 6.28572
1976 1 8.20135 99.2354 7.59321
8207 2 10.0199 99.2253 8.88242
8263 2 9.11204 97.6702 6.28572
8251 2 7.28991 100.8 8.90801
2014 1 2.74156 102.386 7.64468
2063 1 0.0152557 100.811 7.61882
8284 2 0.922706 102.398 6.36078
8281 2 1.82988 103.949 8.95989
2013 1 5.47149 100.811 7.61882
8235 2 4.5599 102.375 8.93389
8253 2 6.37894 102.398 6.36078
8300 2 3.65252 100.823 6.33536
1969 1 8.1978 102.386 7.64468
8206 2 10.0161 102.375 8.93389
8252 2 9.10876 100.823 6.33536
8233 2 7.28612 103.949 8.95989
2000 1 2.73792 105.535 7.69669
2054 1 0.0116271 103.961 7.67068
8283 2 0.919289 105.548 6.41207
8272 2 1.82609 107.098 9.01166
2016 1 5.46787 103.961 7.67068
8234 2 4.5561 105.524 8.98586
8239 2 6.37553 105.548 6.41207
8282 2 3.64912 103.974 6.3864
1968 1 8.19416 105.535 7.69669
8200 2 10.0123 105.524 8.98586
8255 2 9.10536 103.974 6.3864
8236 2 7.28232 107.098 9.01166
1999 1 2.73428 108.684 7.74817
2055 1 0.00797824 107.11 7.72257
8276 2 0.915868 108.697 6.46299
8273 2 1.82238 110.245 9.06227
1998 1 5.46422 107.11 7.72257
8223 2 4.55234 108.671 9.03717
8238 2 6.37211 108.697 6.46299
8285 2 3.64569 107.123 6.43764
1955 1 8.19052 108.684 7.74817
8199 2 10.0086 108.671 9.03717
8237 2 9.10193 107.123 6.43764
8221 2 7.27862 110.245 9.06227
1989 1 2.73073 111.831 7.79812
2053 1 0.00437438 110.258 7.77339
8275 2 0.912505 111.844 6.51253
2461 1 0.000891345 113.405 7.82226
8703 2 1.81883 113.393 9.11085
2001 1 5.46061 110.258 7.77339
8222 2 4.5487 111.819 9.08686
8224 2 6.36874 111.844 6.51253
8274 2 3.64229 110.271 6.48799
2413 1 5.45713 113.405 7.82226
1954 1 8.18697 111.831 7.79812
8192 2 10.0049 111.819 9.08686
8240 2 9.09853 110.271 6.48799
8668 2 7.27507 113.393 9.11085
2011 1 0.930085 96.0652 10.1169
8246 2 2.74867 96.0557 11.4052
8278 2 0.0185087 97.6301 11.4303
1974 1 6.38632 96.0652 10.1169
8247 2 5.47475 97.6301 11.4303
2009 1 3.65631 97.6402 10.1419
8205 2 8.2049 96.0557 11.4052
1975 1 9.11254 97.6402 10.1419
2010 1 0.926235 99.2149 10.1675
8231 2 2.74457 99.2042 11.456
8279 2 0.0143593 100.778 11.4822
1966 1 6.38247 99.2149 10.1675
8229 2 5.4706 100.778 11.4822
2012 1 3.65239 100.789 10.1936
8204 2 8.2008 99.2042 11.456
1964 1 9.10862 100.789 10.1936
1996 1 0.922271 102.364 10.2199
8230 2 2.74038 102.352 11.5085
8270 2 0.0101646 103.925 11.5349
1965 1 6.37851 102.364 10.2199
8232 2 5.4664 103.925 11.5349
1994 1 3.64838 103.938 10.2463
8198 2 8.19662 102.352 11.5085
1967 1 9.10462 103.938 10.2463
1995 1 0.918252 105.511 10.2726
8219 2 2.7362 105.499 11.5611
8271 2 0.00602975 107.073 11.5871
1952 1 6.37449 105.511 10.2726
8217 2 5.46227 107.073 11.5871
1997 1 3.64438 107.085 10.2987
8197 2 8.19244 105.499 11.5611
1950 1 9.10062 107.085 10.2987
1988 1 0.914296 108.659 10.3244
8218 2 2.73214 108.646 11.6127
8269 2 0.00206667 110.22 11.6378
1951 1 6.37053 108.659 10.3244
8220 2 5.45831 110.22 11.6378
1986 1 3.64049 110.233 10.3497
8191 2 8.18838 108.646 11.6127
1953 1 9.09673 110.233 10.3497
1987 1 0.910503 111.806 10.3744
8212 2 2.7283 111.794 11.6623
2412 1 3.63681 113.38 10.3985
1941 1 6.36674 111.806 10.3744
8653 2 5.4546 113.368 11.6862
8190 2 8.18454 111.794 11.6623
2357 1 9.09305 113.38 10.3985
11966 2 10.9108 113.368 11.6862
1958 1 2.74823 96.0273 15.2643
8227 2 0.929663 96.0364 13.9785
1990 1 0.0176228 97.5996 15.291
2008 1 1.83722 97.6205 12.716
1962 1 4.5675 96.0469 12.6902
8202 2 6.3859 96.0364 13.9785
1959 1 5.47386 97.5996 15.291
8225 2 3.65545 97.6094 14.0044
1929 1 8.20447 96.0273 15.2643
1932 1 10.0237 96.0469 12.6902
1960 1 7.29345 97.6205 12.716
8203 2 9.11169 97.6094 14.0044
1944 1 2.74325 99.1717 15.318
8226 2 0.924989 99.1823 14.0309
1991 1 0.012639 100.744 15.3453
1992 1 1.83281 100.767 12.7689
1961 1 4.56314 99.194 12.7423
8195 2 6.38123 99.1823 14.0309
1942 1 5.46888 100.744 15.3453
8228 2 3.65076 100.755 14.0576
1928 1 8.19948 99.1717 15.318
1931 1 10.0194 99.194 12.7423
1963 1 7.28904 100.767 12.7689
8193 2 9.107 100.755 14.0576
1943 1 2.7383 102.316 15.3725
8215 2 0.920315 102.328 14.0843
1982 1 0.00775855 103.889 15.3995
1993 1 1.82837 103.914 12.8224
1948 1 4.5587 102.34 12.7957
8194 2 6.37655 102.328 14.0843
1945 1 5.464 103.889 15.3995
8213 2 3.64613 103.901 14.111
1925 1 8.19453 102.316 15.3725
1930 1 10.0149 102.34 12.7957
8196 2 9.10237 103.901 14.111
1946 1 7.28461 103.914 12.8224
1936 1 2.73352 105.461 15.4262
8214 2 0.915759 105.474 14.1375
1983 1 0.00313026 107.034 15.4525
1984 1 1.82404 107.06 12.8752
1947 1 4.55431 105.487 12.849
8188 2 6.372 105.474 14.1375
1934 1 5.45937 107.034 15.4525
8216 2 3.64169 107.047 14.1635
1924 1 8.18976 105.461 15.4262
1927 1 10.0105 105.487 12.849
8186 2 9.09792 107.047 14.1635
1949 1 7.28028 107.06 12.8752
1935 1 2.72907 108.608 15.4782
8211 2 0.911449 108.62 14.1891
1985 1 1.81993 110.207 12.9262
1940 1 4.55007 108.634 12.901
8187 2 6.36769 108.62 14.1891
1937 1 5.45512 110.181 15.5033
8209 2 3.63754 110.194 14.2142
5053 1 10.9114 110.181 15.5033
1938 1 7.27617 110.207 12.9262
8189 2 9.09378 110.194 14.2142
1922 1 8.18531 108.608 15.4782
1926 1 10.0063 108.634 12.901
8652 2 3.63377 113.342 14.2622
8210 2 0.907483 111.768 14.2385
1933 1 2.72504 111.755 15.5277
2391 1 1.81613 113.355 12.9748
1939 1 4.54611 111.781 12.9508
2341 1 5.45131 113.329 15.5513
8185 2 6.36372 111.768 14.2385
2356 1 7.27237 113.355 12.9748
1921 1 8.18127 111.755 15.5277
5462 1 10.9075 113.329 15.5513
8609 2 9.09001 113.342 14.2622
1923 1 10.0023 111.781 12.9508
8550 2 2.74615 95.9913 19.1284
2302 1 0.928361 96.0053 17.8395
8568 2 1.83558 97.587 16.5797
8562 2 0.0149506 97.5615 19.1563
8554 2 4.56638 96.0154 16.5528
2279 1 6.3846 96.0053 17.8395
8551 2 5.47119 97.5615 19.1563
2300 1 3.65361 97.5762 17.8672
8505 2 8.20239 95.9913 19.1284
8508 2 10.0226 96.0154 16.5528
8552 2 7.29181 97.587 16.5797
2280 1 9.10985 97.5762 17.8672
2301 1 0.922653 99.1471 17.8951
8542 2 2.74006 99.1319 19.1843
8564 2 1.83029 100.73 16.6342
8563 2 0.00901704 100.703 19.2121
8553 2 4.56103 99.1586 16.6069
2275 1 6.37889 99.1471 17.8951
2303 1 3.64799 100.718 17.9229
8540 2 5.46526 100.703 19.2121
8504 2 8.19629 99.1319 19.1843
8507 2 10.0173 99.1586 16.6069
8555 2 7.28653 100.73 16.6342
2273 1 9.10423 100.718 17.9229
2295 1 0.917161 102.29 17.9505
8541 2 2.73434 102.274 19.2396
8565 2 1.82522 103.875 16.6883
8546 2 4.55583 102.302 16.6614
2274 1 6.3734 102.29 17.9505
2293 1 3.64267 103.861 17.9777
8497 2 8.19057 102.274 19.2396
8506 2 10.0121 102.302 16.6614
2276 1 9.09891 103.861 17.9777
8544 2 7.28145 103.875 16.6883
2294 1 0.912065 105.434 18.0044
8560 2 1.82051 107.02 16.7409
8545 2 4.55093 105.447 16.7149
2263 1 6.3683 105.434 18.0044
2296 1 3.63783 107.007 18.0306
8499 2 10.0072 105.447 16.7149
8547 2 7.27675 107.02 16.7409
2261 1 9.09407 107.007 18.0306
2288 1 0.907502 108.58 18.056
8561 2 1.81628 110.167 16.7912
2286 1 3.63356 110.154 18.0808
2262 1 6.36374 108.58 18.056
8532 2 4.54645 108.594 16.7664
8530 2 7.27252 110.167 16.7912
8498 2 10.0027 108.594 16.7664
2264 1 9.0898 110.154 18.0808
2287 1 0.903532 111.728 18.1048
8975 2 1.81257 113.316 16.8387
2688 1 3.62989 113.303 18.128
2245 1 6.35977 111.728 18.1048
8531 2 4.54248 111.742 16.8153
8964 2 7.26881 113.316 16.8387
8483 2 9.99872 111.742 16.8153
2662 1 9.08613 113.303 18.128
8538 2 0.92498 95.9627 21.7056
2299 1 1.83249 97.549 20.4449
2271 1 4.56391 95.9797 20.4162
8502 2 6.38122 95.9627 21.7056
8536 2 3.64958 97.5315 21.7345
2220 1 10.0201 95.9797 20.4162
2269 1 7.28873 97.549 20.4449
8503 2 9.10582 97.5315 21.7345
8537 2 0.918091 99.1009 21.7631
2291 1 1.82621 100.689 20.5019
2270 1 4.55741 99.1187 20.4735
8494 2 6.37433 99.1009 21.7631
8539 2 3.64303 100.671 21.7913
2219 1 10.0136 99.1187 20.4735
2272 1 7.28245 100.689 20.5019
8492 2 9.09927 100.671 21.7913
8558 2 0.00355525 103.846 19.2667
8524 2 0.911941 102.242 21.819
2292 1 1.82054 103.831 20.5569
8522 2 3.63732 103.814 21.846
8543 2 5.45979 103.846 19.2667
2259 1 4.55141 102.26 20.5297
8493 2 6.36818 102.242 21.819
2218 1 10.0076 102.26 20.5297
2257 1 7.27678 103.831 20.5569
8495 2 9.09356 103.814 21.846
8528 2 2.72917 105.418 19.2932
8523 2 0.906692 105.386 21.8722
2284 1 1.81564 106.976 20.6093
8525 2 3.63254 106.959 21.8977
8526 2 5.45495 106.991 19.3191
2258 1 4.54611 105.403 20.5835
8479 2 6.36293 105.386 21.8722
2260 1 7.27188 106.976 20.6093
8496 2 8.18541 105.418 19.2932
2211 1 10.0024 105.403 20.5835
8477 2 9.08877 106.959 21.8977
11823 2 10.9112 106.991 19.3191
8527 2 2.72467 108.565 19.3443
8516 2 0.902368 108.533 21.9224
2285 1 1.81154 110.124 20.6587
8514 2 3.62865 110.108 21.9464
8529 2 5.45079 110.139 19.3687
2244 1 4.54161 108.55 20.6344
8478 2 6.35861 108.533 21.9224
2242 1 7.26778 110.124 20.6587
8482 2 8.18091 108.565 19.3443
2210 1 9.99785 108.55 20.6344
8480 2 9.08489 110.108 21.9464
11821 2 10.907 110.139 19.3687
8517 2 2.72084 111.714 19.3924
8515 2 0.898893 111.684 21.9695
2682 1 1.80817 113.275 20.7048
8956 2 3.62555 113.26 21.9918
2243 1 4.53789 111.699 20.6822
8461 2 6.35513 111.684 21.9695
8957 2 5.44729 113.289 19.4153
2661 1 7.26441 113.275 20.7048
8481 2 8.17708 111.714 19.3924
2195 1 9.99413 111.699 20.6822
8909 2 9.08179 113.26 21.9918
12238 2 10.9035 113.289 19.4153
2251 1 0.91878 95.9103 25.5754
2267 1 2.7421 95.9487 22.9947
2289 1 0.0102306 97.5166 23.0244
8535 2 1.82669 97.4956 24.3143
2214 1 6.37502 95.9103 25.5754
8490 2 4.55875 95.9279 24.2845
2249 1 3.64276 97.4771 25.6058
2268 1 5.46647 97.5166 23.0244
2217 1 8.19834 95.9487 22.9947
8436 2 10.015 95.9279 24.2845
2215 1 9.099 97.4771 25.6058
8488 2 7.28293 97.4956 24.3143
2250 1 0.910864 99.0452 25.6352
2255 1 2.7348 99.0853 23.0536
2290 1 0.00337352 100.655 23.0822
8520 2 1.81971 100.634 24.3717
2252 1 3.6356 100.615 25.6636
2206 1 6.3671 99.0452 25.6352
8489 2 4.55116 99.0643 24.3434
2253 1 5.45961 100.655 23.0822
2216 1 8.19104 99.0853 23.0536
8435 2 10.0074 99.0643 24.3434
2204 1 9.09184 100.615 25.6636
8491 2 7.27594 100.634 24.3717
2236 1 0.904491 102.186 25.691
2254 1 2.72845 102.225 23.11
8521 2 1.81403 103.777 24.4258
2234 1 3.63 103.758 25.7174
2205 1 6.36073 102.186 25.691
8475 2 4.54482 102.205 24.3992
2256 1 5.4538 103.797 23.137
8473 2 7.27027 103.777 24.4258
2209 1 8.18469 102.225 23.11
8434 2 10.0011 102.205 24.3992
2207 1 9.08624 103.758 25.7174
5354 1 10.91 103.797 23.137
2235 1 0.899632 105.331 25.7428
2240 1 2.72319 105.369 23.1631
8512 2 1.8096 106.924 24.4765
2237 1 3.62582 106.906 25.7673
2191 1 6.35587 105.331 25.7428
8474 2 4.53979 105.35 24.4516
2238 1 5.44908 106.943 23.1884
8476 2 7.26584 106.924 24.4765
5355 1 10.9053 106.943 23.1884
2208 1 8.17943 105.369 23.1631
8427 2 9.99602 105.35 24.4516
2189 1 9.08206 106.906 25.7673
2228 1 0.896066 108.482 25.791
2239 1 2.719 108.517 23.2129
8513 2 1.80624 110.075 24.5238
2226 1 3.6228 110.058 25.8138
2190 1 6.3523 108.482 25.791
8460 2 4.53592 108.499 24.5005
2241 1 5.44538 110.092 23.2365
8458 2 7.26248 110.075 24.5238
5353 1 10.9016 110.092 23.2365
2194 1 8.17523 108.517 23.2129
8426 2 9.99216 108.499 24.5005
2192 1 9.07904 110.058 25.8138
2227 1 0.893517 111.636 25.8358
2229 1 2.71574 111.669 23.2593
8942 2 1.80375 113.23 24.5678
2649 1 3.62066 113.214 25.8571
2174 1 6.34976 111.636 25.8358
8459 2 4.53302 111.652 24.5462
2650 1 5.44253 113.245 23.2813
8908 2 7.25999 113.23 24.5678
5753 1 10.8988 113.245 23.2813
2597 1 9.0769 113.214 25.8571
2193 1 8.17198 111.669 23.2593
8412 2 9.98926 111.652 24.5462
8486 2 2.73459 95.8849 26.8654
2248 1 1.81735 97.4287 28.1889
8518 2 0.00225462 97.452 26.8956
2202 1 4.54978 95.8622 28.1585
8487 2 5.45849 97.452 26.8956
2200 1 7.27359 97.4287 28.1889
2154 1 10.006 95.8622 28.1585
8433 2 8.19083 95.8849 26.8654
8471 2 2.72663 99.0206 26.9248
2232 1 1.81045 100.568 28.2455
2201 1 4.54174 98.9973 28.2178
8469 2 5.45149 100.591 26.9528
2203 1 7.26669 100.568 28.2455
2153 1 9.99798 98.9973 28.2178
8432 2 8.18287 99.0206 26.9248
11783 2 10.9077 100.591 26.9528
8470 2 2.72056 102.163 26.9797
2233 1 1.80561 103.714 28.2974
2187 1 4.53592 102.14 28.272
8472 2 5.44629 103.736 27.0057
2185 1 7.26185 103.714 28.2974
11774 2 10.9025 103.736 27.0057
2152 1 9.99216 102.14 28.272
8425 2 8.1768 102.163 26.9797
8456 2 2.71616 105.31 27.0306
2224 1 1.80238 106.865 28.3454
2186 1 4.53194 105.289 28.3219
8454 2 5.44259 106.886 27.0547
2188 1 7.25861 106.865 28.3454
11775 2 10.8988 106.886 27.0547
2145 1 9.98818 105.289 28.3219
8424 2 8.1724 105.31 27.0306
8455 2 2.71307 108.462 27.078
2225 1 1.80031 110.021 28.39
2173 1 4.52934 108.443 28.3681
8457 2 5.44004 110.04 27.1004
2171 1 7.25655 110.021 28.39
11773 2 10.8963 110.04 27.1004
2144 1 9.98558 108.443 28.3681
8411 2 8.16931 108.462 27.078
8445 2 2.71097 111.618 27.122
2631 1 1.79906 113.181 28.4317
2172 1 4.52772 111.601 28.4112
8893 2 5.43833 113.197 27.1429
2596 1 7.2553 113.181 28.4317
2133 1 9.98396 111.601 28.4112
8410 2 8.16721 111.618 27.122
12205 2 10.8946 113.197 27.1429
2198 1 2.72238 95.8019 30.7433
8467 2 0.908413 95.8315 29.4479
8464 2 1.80504 97.336 32.0597
8465 2 3.6324 97.3991 29.4779
8418 2 4.53657 95.766 32.0307
8430 2 6.36465 95.8315 29.4479
2199 1 5.4465 97.3699 30.7726
8416 2 7.26127 97.336 32.0597
5302 1 10.9027 97.3699 30.7726
2151 1 8.17862 95.8019 30.7433
8388 2 9.99281 95.766 32.0307
8431 2 9.08864 97.3991 29.4779
2183 1 2.71517 98.9405 30.8003
8466 2 0.900835 98.9689 29.5065
8448 2 1.80041 100.483 32.113
8468 2 3.62612 100.541 29.5337
8417 2 4.53052 98.9086 32.087
8422 2 6.35707 98.9689 29.5065
2181 1 5.44075 100.513 30.8267
8419 2 7.25664 100.483 32.113
5303 1 10.897 100.513 30.8267
2150 1 8.1714 98.9405 30.8003
8387 2 9.98676 98.9086 32.087
8420 2 9.08236 100.541 29.5337
2182 1 2.71067 102.088 30.8519
8452 2 0.895699 102.114 29.5597
8449 2 1.79788 103.638 32.1615
8450 2 3.62198 103.689 29.5846
8404 2 4.52705 102.06 32.1378
8421 2 6.35194 102.114 29.5597
2184 1 5.4373 103.664 30.876
8402 2 7.25412 103.638 32.1615
5294 1 10.8935 103.664 30.876
2143 1 8.16691 102.088 30.8519
8386 2 9.98329 102.06 32.1378
8423 2 9.07821 103.689 29.5846
2169 1 2.70808 105.242 30.8993
8451 2 0.892401 105.266 29.6086
8440 2 1.7967 106.798 32.2066
8453 2 3.61939 106.843 29.6317
8403 2 4.52528 105.217 32.1845
8408 2 6.34864 105.266 29.6086
2167 1 5.4354 106.821 30.9218
8405 2 7.25294 106.798 32.2066
5295 1 10.8916 106.821 30.9218
2142 1 8.16431 105.242 30.8993
8383 2 9.98151 105.217 32.1845
8406 2 9.07562 106.843 29.6317
2168 1 2.70674 108.401 30.9435
8444 2 0.890401 108.422 29.654
8441 2 1.79636 109.961 32.2488
8442 2 3.61787 110.002 29.6756
8396 2 4.52457 108.379 32.228
8407 2 6.34664 108.422 29.654
2170 1 5.43451 109.982 30.9645
8394 2 7.2526 109.961 32.2488
5293 1 10.8908 109.982 30.9645
2132 1 8.16298 108.401 30.9435
8382 2 9.98081 108.379 32.228
8409 2 9.07411 110.002 29.6756
2160 1 2.70621 111.564 30.9849
8443 2 0.889285 111.582 29.6964
8871 2 1.79654 113.128 32.2884
8892 2 3.61708 113.163 29.7166
8395 2 4.52452 111.544 32.2689
8397 2 6.34552 111.582 29.6964
2581 1 5.43426 113.146 31.0046
8836 2 7.25278 113.128 32.2884
2131 1 8.16245 111.564 30.9849
8379 2 9.98076 111.544 32.2689
5702 1 10.8905 113.146 31.0046
8837 2 9.07332 113.163 29.7166
2179 1 0.89315 95.728 33.3278
8414 2 2.70768 95.688 34.6111
2177 1 3.61834 97.3002 33.355
2148 1 6.34939 95.728 33.3278
8415 2 5.43376 97.263 34.6385
2136 1 4.51961 95.6407 35.9083
11710 2 10.89 97.263 34.6385
8385 2 8.16392 95.688 34.6111
2149 1 9.07457 97.3002 33.355
2118 1 9.97584 95.6407 35.9083
2180 1 3.61479 100.452 33.4054
2178 1 0.888114 98.875 33.3808
8400 2 2.70429 98.8403 34.6643
8398 2 5.43157 100.42 34.6889
2140 1 6.34435 98.875 33.3808
11711 2 10.8878 100.42 34.6889
2138 1 9.07102 100.452 33.4054
8384 2 8.16053 98.8403 34.6643
2163 1 3.61328 103.611 33.4519
2165 1 0.88572 102.031 33.4291
8399 2 2.70301 102.001 34.7125
8401 2 5.43099 103.583 34.7352
2139 1 6.34196 102.031 33.4291
11702 2 10.8872 103.583 34.7352
2141 1 9.06952 103.611 33.4519
8381 2 8.15925 102.001 34.7125
8392 2 2.70294 105.166 34.7572
2164 1 0.884889 105.192 33.4741
2166 1 3.61296 106.774 33.4955
2129 1 6.34113 105.192 33.4741
8390 2 5.43131 106.75 34.7785
11703 2 10.8875 106.75 34.7785
8380 2 8.15918 105.166 34.7572
2127 1 9.0692 106.774 33.4955
2157 1 3.61333 109.941 33.5367
2159 1 0.884964 108.357 33.5164
8391 2 2.70356 108.334 34.7992
8393 2 5.43213 109.919 34.8194
2128 1 6.3412 108.357 33.5164
11701 2 10.8884 109.919 34.8194
2130 1 9.06957 109.941 33.5367
8378 2 8.15979 108.334 34.7992
8389 2 2.70454 111.505 34.8389
2158 1 0.885551 111.525 33.5564
2580 1 3.61408 113.11 33.5755
2122 1 6.34179 111.525 33.5564
8821 2 5.43322 113.091 34.858
2531 1 9.07032 113.11 33.5755
12134 2 10.8895 113.091 34.858
8377 2 8.16078 111.505 34.8389
8590 2 0.880184 95.5993 37.1851
14271 1 2.69149 95.5423 38.4796
8588 2 3.60795 97.1819 37.2112
2176 1 1.79046 97.2204 35.9329
8579 2 6.33642 95.5993 37.1851
14656 1 5.42114 97.1331 38.5027
2134 1 7.2467 97.2204 35.9329
14241 1 8.14773 95.5423 38.4796
8580 2 9.06419 97.1819 37.2112
17484 1 10.8774 97.1331 38.5027
8589 2 0.879897 98.7661 37.2359
14657 1 2.69439 98.7235 38.5253
2161 1 1.78995 100.385 35.9797
8591 2 3.60837 100.351 37.2595
8576 2 6.33613 98.7661 37.2359
2135 1 4.51813 98.8019 35.9567
14658 1 5.42379 100.314 38.5476
2137 1 7.24619 100.385 35.9797
14622 1 8.15062 98.7235 38.5253
2117 1 9.97437 98.8019 35.9567
8574 2 9.0646 100.351 37.2595
17482 1 10.88 100.314 38.5476
8586 2 0.880798 101.938 37.2823
14653 1 2.69695 101.904 38.5694
2162 1 1.79061 103.553 36.0239
8584 2 3.60961 103.524 37.3044
8575 2 6.33704 101.938 37.2823
2125 1 4.5183 101.969 36.0021
14651 1 5.42633 103.494 38.5908
2123 1 7.24685 103.553 36.0239
14621 1 8.15319 101.904 38.5694
2116 1 9.97454 101.969 36.0021
8577 2 9.06585 103.524 37.3044
17483 1 10.8826 103.494 38.5908
8585 2 0.882275 105.112 37.3258
14652 1 2.69947 105.084 38.6117
2155 1 1.79186 106.725 36.0659
8587 2 3.61125 106.7 37.3467
8572 2 6.33851 105.112 37.3258
2124 1 4.51931 105.139 36.0451
14654 1 5.42883 106.674 38.6322
2126 1 7.2481 106.725 36.0659
14616 1 8.15571 105.084 38.6117
2115 1 9.97555 105.139 36.0451
8570 2 9.06748 106.7 37.3467
17480 1 10.8851 106.674 38.6322
8583 2 0.884019 108.288 37.367
14642 1 2.70193 108.264 38.6522
2156 1 1.79339 109.898 36.1059
8581 2 3.61305 109.876 37.3869
8571 2 6.34026 108.288 37.367
14640 1 5.43125 109.854 38.6718
2121 1 4.52073 108.311 36.0861
2119 1 7.24963 109.898 36.1059
14615 1 8.15817 108.264 38.6522
2114 1 9.97696 108.311 36.0861
8573 2 9.06929 109.876 37.3869
17481 1 10.8875 109.854 38.6718
9000 2 3.61488 113.054 37.4249
2559 1 1.79502 113.073 36.1439
8582 2 0.885852 111.465 37.4062
14641 1 2.70429 111.444 38.6909
2530 1 7.25126 113.073 36.1439
8569 2 6.34209 111.465 37.4062
14643 1 5.43354 113.035 38.7095
2120 1 4.52232 111.485 36.1251
8986 2 9.07112 113.054 37.4249
14602 1 8.16053 111.444 38.6909
2113 1 9.97856 111.485 36.1251
17479 1 10.8898 113.035 38.7095
20279 2 1.78587 97.0967 39.7749
14269 1 0.869248 95.4425 41.0375
19869 2 2.69465 95.4109 42.3011
14655 1 3.60033 97.0443 41.0616
20261 2 5.42432 97.0124 42.3291
14221 1 6.32549 95.4425 41.0375
19883 2 4.51308 95.5044 39.7486
20268 2 7.24211 97.0967 39.7749
14618 1 9.05657 97.0443 41.0616
19833 2 8.15089 95.4109 42.3011
19835 2 9.96932 95.5044 39.7486
23098 2 10.8806 97.0124 42.3291
20280 2 1.7881 100.281 39.8234
20262 2 2.69774 98.6123 42.3553
14649 1 0.874627 98.6438 41.0851
14647 1 3.60483 100.241 41.108
20266 2 4.51506 98.6888 39.7997
20263 2 5.42738 100.211 42.3801
14619 1 6.33087 98.6438 41.0851
20264 2 7.24434 100.281 39.8234
14620 1 9.06107 100.241 41.108
20217 2 8.15398 98.6123 42.3553
20220 2 9.9713 98.6888 39.7997
23094 2 10.8836 100.211 42.3801
20276 2 1.79059 103.465 39.8683
14648 1 0.878588 101.838 41.1303
20254 2 2.70077 101.809 42.4039
14650 1 3.60845 103.433 41.152
20265 2 4.51745 101.873 39.8462
14613 1 6.33483 101.838 41.1303
20252 2 5.43039 103.406 42.4268
20267 2 7.24683 103.465 39.8683
14611 1 9.06469 103.433 41.152
20216 2 8.15701 101.809 42.4039
20219 2 9.97369 101.873 39.8462
23095 2 10.8866 103.406 42.4268
20277 2 1.79312 106.649 39.9107
14638 1 0.88198 105.028 41.1733
20253 2 2.70374 105.002 42.449
14636 1 3.61167 106.622 41.1941
20258 2 4.51998 105.057 39.8898
14612 1 6.33822 105.028 41.1733
20255 2 5.4333 106.598 42.4705
20256 2 7.24936 106.649 39.9107
14614 1 9.06791 106.622 41.1941
20209 2 8.15998 105.002 42.449
20218 2 9.97622 105.057 39.8898
23090 2 10.8895 106.598 42.4705
20272 2 1.79559 109.832 39.951
14637 1 0.885045 108.216 41.2144
20240 2 2.70659 108.193 42.4914
14639 1 3.6146 109.81 41.2342
20257 2 4.52249 108.241 39.9311
14599 1 6.34128 108.216 41.2144
20238 2 5.43606 109.788 42.5117
20259 2 7.25183 109.832 39.951
14597 1 9.07084 109.81 41.2342
20208 2 8.16282 108.193 42.4914
20211 2 9.97872 108.241 39.9311
23091 2 10.8923 109.788 42.5117
20273 2 1.79792 113.016 39.9892
14630 1 0.887846 111.403 41.2535
20239 2 2.70925 111.383 42.5314
14628 1 3.61727 112.996 41.2724
14598 1 6.34408 111.403 41.2535
20241 2 5.43863 112.978 42.5506
20244 2 4.52489 111.424 39.9703
20242 2 7.25416 113.016 39.9892
14600 1 9.07351 112.996 41.2724
20194 2 8.16549 111.383 42.5314
20210 2 9.98113 111.424 39.9703
23089 2 10.8949 112.978 42.5506
14645 1 1.78471 96.9604 43.6105
19867 2 0.880101 95.3244 44.8454
20260 2 3.61006 96.9332 44.8757
14219 1 4.50982 95.3503 43.5832
19814 2 6.33634 95.3244 44.8454
14617 1 7.24095 96.9604 43.6105
20213 2 9.0663 96.9332 44.8757
14171 1 9.96606 95.3503 43.5832
14646 1 1.78944 100.171 43.661
20250 2 0.883609 98.5395 44.904
20248 2 3.6133 100.144 44.9307
14609 1 4.51535 98.5672 43.6363
20214 2 6.33985 98.5395 44.904
14607 1 7.24568 100.171 43.661
14556 1 9.97159 98.5672 43.6363
20215 2 9.06954 100.144 44.9307
14634 1 1.79327 103.374 43.7078
20249 2 0.886707 101.747 44.9561
20251 2 3.61632 103.348 44.9804
14608 1 4.51955 101.773 43.6848
20206 2 6.34295 101.747 44.9561
14610 1 7.24951 103.374 43.7078
14555 1 9.97579 101.773 43.6848
20204 2 9.07255 103.348 44.9804
14635 1 1.79664 106.572 43.7517
20236 2 0.889655 104.949 45.0037
20234 2 3.6192 106.548 45.0263
14595 1 4.52312 104.973 43.7301
20205 2 6.34589 104.949 45.0037
14593 1 7.25288 106.572 43.7517
14554 1 9.97936 104.973 43.7301
20207 2 9.07544 106.548 45.0263
14626 1 1.79969 109.766 43.7932
20235 2 0.89247 108.147 45.0481
20237 2 3.62194 109.745 45.0692
14594 1 4.52632 108.169 43.7728
20191 2 6.34871 108.147 45.0481
14596 1 7.25593 109.766 43.7932
14547 1 9.98256 108.169 43.7728
20189 2 9.07818 109.745 45.0692
14627 1 1.80246 112.958 43.8324
20228 2 0.895121 111.343 45.0896
20226 2 3.62449 112.94 45.1093
14580 1 4.52923 111.362 43.8131
20190 2 6.35136 111.343 45.0896
14578 1 7.2587 112.958 43.8324
14546 1 9.98547 111.362 43.8131
20192 2 9.08073 112.94 45.1093
20246 2 1.79819 96.8616 47.4178
14203 1 0.88954 95.2017 48.6577
14205 1 2.69869 95.2699 46.1216
14603 1 3.61958 96.8189 48.6911
14604 1 5.42922 96.8849 46.1524
14152 1 6.34578 95.2017 48.6577
19812 2 4.52436 95.2482 47.3854
20212 2 7.25443 96.8616 47.4178
14549 1 9.07581 96.8189 48.6911
14169 1 8.15493 95.2699 46.1216
19773 2 9.9806 95.2482 47.3854
17464 1 10.8855 96.8849 46.1524
14587 1 0.89315 98.4335 48.7223
14605 1 2.70322 98.4966 46.1811
20247 2 1.80137 100.081 47.4769
14585 1 3.62281 100.045 48.7518
14550 1 6.34939 98.4335 48.7223
14606 1 5.43325 100.106 46.2083
20202 2 4.52798 98.4725 47.4482
20200 2 7.2576 100.081 47.4769
14551 1 9.07905 100.045 48.7518
14553 1 8.15946 98.4966 46.1811
20154 2 9.98422 98.4725 47.4482
17452 1 10.8895 100.106 46.2083
14586 1 0.896139 101.655 48.7797
14591 1 2.7069 101.712 46.2341
20232 2 1.80414 103.293 47.53
14588 1 3.62563 103.263 48.8063
14542 1 6.35238 101.655 48.7797
14589 1 5.43669 103.317 46.2588
20201 2 4.5309 101.688 47.5041
20203 2 7.26038 103.293 47.53
14540 1 9.08187 103.263 48.8063
14552 1 8.16314 101.712 46.2341
20153 2 9.98714 101.688 47.5041
17453 1 10.8929 103.317 46.2588
14572 1 0.898842 104.869 48.8318
14590 1 2.71015 104.92 46.2826
20233 2 1.80676 106.5 47.5787
14570 1 3.62825 106.474 48.8562
14541 1 6.35508 104.869 48.8318
14592 1 5.43978 106.522 46.3055
20187 2 4.53358 104.897 47.5548
20185 2 7.26299 106.5 47.5787
14543 1 9.08449 106.474 48.8562
14545 1 8.16639 104.92 46.2826
20152 2 9.98982 104.897 47.5548
17444 1 10.896 106.522 46.3055
14571 1 0.901379 108.078 48.8797
14576 1 2.71312 108.123 46.3277
20224 2 1.80925 109.702 47.6238
14573 1 3.63071 109.68 48.9023
14527 1 6.35762 108.078 48.8797
14574 1 5.44264 109.723 46.3491
20186 2 4.53614 108.102 47.6017
20188 2 7.26549 109.702 47.6238
14525 1 9.08695 109.68 48.9023
14544 1 8.16936 108.123 46.3277
20145 2 9.99238 108.102 47.6017
17445 1 10.8989 109.723 46.3491
14564 1 0.903776 111.282 48.924
14575 1 2.71586 111.322 46.3698
20225 2 1.81162 112.902 47.6657
14562 1 3.63304 112.883 48.945
14526 1 6.36001 111.282 48.924
14577 1 5.44527 112.92 46.3898
20173 2 4.53857 111.303 47.6451
20171 2 7.26785 112.902 47.6657
14528 1 9.08928 112.883 48.945
14530 1 8.1721 111.322 46.3698
20144 2 9.99481 111.303 47.6451
17443 1 10.9015 112.92 46.3898
14583 1 1.81062 96.7625 51.2295
19800 2 2.71381 95.1832 49.9244
19798 2 0.903966 95.129 52.4647
20196 2 3.63417 96.7452 52.4989
20197 2 5.44395 96.799 49.9582
14150 1 4.53696 95.145 51.195
14548 1 7.26686 96.7625 51.2295
19762 2 6.3602 95.129 52.4647
14120 1 9.9932 95.145 51.195
19771 2 8.17005 95.1832 49.9244
20147 2 9.09041 96.7452 52.4989
23065 2 10.9002 96.799 49.9582
14584 1 1.81342 99.9917 51.2936
20198 2 2.7175 98.4125 49.9901
20179 2 0.907737 98.3597 52.5317
20177 2 3.63726 99.9726 52.5632
14538 1 4.54023 98.3781 51.2624
20199 2 5.44705 100.024 50.0205
14536 1 7.26966 99.9917 51.2936
20148 2 6.36398 98.3597 52.5317
23050 2 10.9033 100.024 50.0205
14496 1 9.99647 98.3781 51.2624
20151 2 8.17374 98.4125 49.9901
20149 2 9.0935 99.9726 52.5632
14568 1 1.81572 103.213 51.3516
20183 2 2.72023 101.634 50.0494
20178 2 0.910361 101.584 52.5934
14537 1 4.54273 101.603 51.3233
20181 2 5.44955 103.242 50.0769
14539 1 7.27196 103.213 51.3516
20140 2 6.3666 101.584 52.5934
23051 2 10.9058 103.242 50.0769
14495 1 9.99896 101.603 51.3233
20150 2 8.17646 101.634 50.0494
14569 1 1.81784 106.429 51.4047
20182 2 2.72259 104.848 50.1033
14523 1 4.54492 104.822 51.3787
20184 2 5.45183 106.453 50.1285
14521 1 7.27408 106.429 51.4047
23042 2 10.9081 106.453 50.1285
14494 1 10.0012 104.822 51.3787
20143 2 8.17883 104.848 50.1033
14560 1 1.81986 109.64 51.4534
20169 2 2.7248 108.058 50.1528
14522 1 4.54698 108.035 51.4295
20167 2 5.45399 109.661 50.1761
23043 2 10.9102 109.661 50.1761
14488 1 10.0032 108.035 51.4295
14524 1 7.2761 109.64 51.4534
20142 2 8.18104 108.058 50.1528
14561 1 1.8218 112.847 51.4983
20168 2 2.72691 111.264 50.1985
14511 1 4.54896 111.244 51.4763
20170 2 5.45605 112.865 50.22
14487 1 10.0052 111.244 51.4763
14509 1 7.27804 112.847 51.4983
20132 2 8.18315 111.264 50.1985
23041 2 10.9123 112.865 50.22
14582 1 0.00167255 96.7147 53.7696
20175 2 1.82469 96.6993 55.0411
14140 1 2.72793 95.098 53.735
14533 1 5.45791 96.7147 53.7696
19760 2 4.55071 95.0838 55.0073
20146 2 7.28093 96.6993 55.0411
14118 1 8.18417 95.098 53.735
19753 2 10.0069 95.0838 55.0073
14534 1 2.73128 98.3301 53.8031
14566 1 0.00439015 99.9441 53.8354
20176 2 1.82782 99.9269 55.1063
14535 1 5.46063 99.9441 53.8354
20136 2 4.55453 98.3137 55.0742
14493 1 8.18752 98.3301 53.8031
20118 2 10.0108 98.3137 55.0742
20134 2 7.28406 99.9269 55.1063
14519 1 2.73357 101.557 53.8663
14567 1 0.00640808 103.168 53.896
20161 2 1.83004 103.15 55.1673
14517 1 5.46265 103.168 53.896
20135 2 4.55713 101.539 55.1373
20180 2 3.63957 103.194 52.6223
14492 1 8.18981 101.557 53.8663
20117 2 10.0134 101.539 55.1373
20137 2 7.28628 103.15 55.1673
20138 2 9.09581 103.194 52.6223
14518 1 2.73541 104.778 53.9245
14558 1 0.00814071 106.387 53.9518
20162 2 1.83181 106.368 55.2239
20165 2 0.912465 104.802 52.6501
14520 1 5.46438 106.387 53.9518
20125 2 4.55908 104.76 55.1962
20139 2 6.3687 104.802 52.6501
20163 2 3.64154 106.41 52.6767
14486 1 8.19165 104.778 53.9245
20116 2 10.0153 104.76 55.1962
20123 2 7.28805 106.368 55.2239
20141 2 9.09778 106.41 52.6767
20164 2 0.914349 108.016 52.7022
20155 2 1.83335 109.583 55.2762
14559 1 0.00976095 109.601 54.0031
14507 1 2.73708 107.994 53.978
20166 2 3.64337 109.621 52.7267
20129 2 6.37059 108.016 52.7022
20124 2 4.56072 107.976 55.2506
14505 1 5.466 109.601 54.0031
20127 2 9.0996 109.621 52.7267
20126 2 7.28959 109.583 55.2762
20115 2 10.017 107.976 55.2506
14485 1 8.19332 107.994 53.978
20159 2 0.916125 111.226 52.7502
20156 2 1.8348 112.795 55.3242
14557 1 0.0113236 112.811 54.0502
14506 1 2.73867 111.206 54.0272
20157 2 3.6451 112.83 52.7727
20128 2 6.37236 111.226 52.7502
20121 2 4.5622 111.189 55.3007
14508 1 5.46756 112.811 54.0502
14479 1 8.19491 111.206 54.0272
20130 2 9.10134 112.83 52.7727
20119 2 7.29104 112.795 55.3242
20114 2 10.0184 111.189 55.3007
14831 1 1.83945 96.6383 58.8571
20472 2 0.0153175 96.6597 57.5853
14138 1 0.918721 95.0585 56.2781
20079 2 2.74138 95.0455 57.5521
14532 1 3.64878 96.6738 56.3121
20464 2 5.47156 96.6597 57.5853
14435 1 4.56563 95.0246 58.8238
14113 1 6.37496 95.0585 56.2781
14489 1 9.10501 96.6738 56.3121
14820 1 7.29569 96.6383 58.8571
14387 1 10.0219 95.0246 58.8238
20049 2 8.19761 95.0455 57.5521
14515 1 0.922211 98.2884 56.3456
14832 1 1.84239 99.8644 58.9228
20470 2 0.0184744 99.8861 57.6505
20465 2 2.74516 98.2733 57.6182
14513 1 3.65159 99.9021 56.3783
14490 1 6.37845 98.2884 56.3456
14818 1 4.56918 98.2516 58.8902
20466 2 5.47471 99.8861 57.6505
14772 1 10.0254 98.2516 58.8902
14491 1 9.10783 99.9021 56.3783
14816 1 7.29862 99.8644 58.9228
20430 2 8.2014 98.2733 57.6182
14514 1 0.924517 101.515 56.41
14828 1 1.84438 103.088 58.986
20471 2 0.020694 103.109 57.7127
20461 2 2.74779 101.498 57.682
14516 1 3.65353 103.126 56.4406
14817 1 4.57159 101.477 58.9548
14483 1 6.38076 101.515 56.41
20459 2 5.47693 103.109 57.7127
14771 1 10.0278 101.477 58.9548
14819 1 7.30062 103.088 58.986
14481 1 9.10977 103.126 56.4406
20429 2 8.20403 101.498 57.682
14503 1 0.926203 104.737 56.4701
14829 1 1.84582 106.309 59.0455
20468 2 0.0223559 106.329 57.771
20460 2 2.74969 104.72 57.7423
14501 1 3.65504 106.347 56.4985
14810 1 4.57327 104.699 59.0163
14482 1 6.38244 104.737 56.4701
20462 2 5.47859 106.329 57.771
14770 1 10.0295 104.699 59.0163
14808 1 7.30206 106.309 59.0455
14484 1 9.11128 106.347 56.4985
20424 2 8.20593 104.72 57.7423
14502 1 0.927603 107.955 56.5259
14824 1 1.84698 109.528 59.1008
20469 2 0.0237201 109.546 57.8251
20450 2 2.75118 107.938 57.7986
14504 1 3.65637 109.563 56.552
14809 1 4.57455 107.919 59.0737
14476 1 6.38384 107.955 56.5259
20448 2 5.47996 109.546 57.8251
14763 1 10.0308 107.919 59.0737
14811 1 7.30322 109.528 59.1008
14474 1 9.11261 109.563 56.552
20423 2 8.20742 107.938 57.7986
14499 1 0.928882 111.17 56.5771
14825 1 1.84802 112.743 59.1516
20467 2 0.0249367 112.761 57.875
20449 2 2.75246 111.154 57.8506
14497 1 3.65762 112.777 56.6011
14796 1 4.57563 111.136 59.1267
14475 1 6.38512 111.17 56.5771
20451 2 5.48118 112.761 57.875
14762 1 10.0319 111.136 59.1267
14794 1 7.30425 112.743 59.1516
14477 1 9.11386 112.777 56.6011
20410 2 8.2087 111.154 57.8506
14830 1 0.0299404 96.6064 61.4043
14421 1 2.75614 94.9943 61.3719
20077 2 0.932041 95.012 60.0991
14813 1 5.48618 96.6064 61.4043
20463 2 3.66216 96.6246 60.1315
20029 2 6.38828 95.012 60.0991
20426 2 9.1184 96.6246 60.1315
14385 1 8.21238 94.9943 61.3719
14814 1 2.7597 98.2183 61.4368
14826 1 0.0329549 99.83 61.4693
20457 2 0.935752 98.2371 60.1639
14815 1 5.48919 99.83 61.4693
20427 2 6.39199 98.2371 60.1639
20455 2 3.66532 99.8491 60.1961
14769 1 8.21593 98.2183 61.4368
20428 2 9.12156 99.8491 60.1961
14806 1 2.76222 101.442 61.5013
14827 1 0.0350653 103.053 61.5327
20456 2 0.938434 101.461 60.2278
14804 1 5.4913 103.053 61.5327
20421 2 6.39467 101.461 60.2278
20458 2 3.66759 103.072 60.2589
14768 1 8.21846 101.442 61.5013
20419 2 9.12383 103.072 60.2589
14805 1 2.76399 104.663 61.5634
14822 1 0.0365548 106.274 61.5932
20446 2 0.940359 104.682 60.2891
14807 1 5.49279 106.274 61.5932
20420 2 6.3966 104.682 60.2891
20444 2 3.66924 106.292 60.3184
14761 1 8.22023 104.663 61.5634
20422 2 9.12548 106.292 60.3184
14792 1 2.76527 107.884 61.622
14823 1 0.0376705 109.493 61.6498
20445 2 0.941799 107.902 60.3467
14790 1 5.49391 109.493 61.6498
20407 2 6.39804 107.902 60.3467
20447 2 3.67052 109.511 60.374
14760 1 8.2215 107.884 61.622
20405 2 9.12676 109.511 60.374
14791 1 2.76627 111.102 61.6765
14821 1 0.0385949 112.711 61.702
20438 2 0.942962 111.119 60.4002
14793 1 5.49483 112.711 61.702
20406 2 6.3992 111.119 60.4002
20436 2 3.6716 112.727 60.4253
14746 1 8.22251 111.102 61.6765
20408 2 9.12784 112.727 60.4253
20452 2 0.0428934 96.5618 65.2285
20453 2 1.85264 96.5925 62.6794
14419 1 0.946405 94.9663 63.9221
20013 2 2.76911 94.9524 65.1975
14812 1 3.6764 96.5766 63.9538
20412 2 5.49913 96.5618 65.2285
14366 1 6.40264 94.9663 63.9221
20027 2 4.57882 94.9815 62.6477
14765 1 9.13264 96.5766 63.9538
20425 2 7.30887 96.5925 62.6794
19977 2 8.22535 94.9524 65.1975
19979 2 10.0351 94.9815 62.6477
14802 1 0.949935 98.1871 63.9858
20413 2 2.77272 98.1714 65.2599
20440 2 0.0461141 99.7813 65.2915
20454 2 1.85581 99.8146 62.7433
14766 1 6.40617 98.1871 63.9858
14800 1 3.67948 99.7977 64.0178
20414 2 5.50235 99.7813 65.2915
20417 2 4.58246 98.2036 62.7113
14767 1 9.13572 99.7977 64.0178
20361 2 8.22896 98.1714 65.2599
20364 2 10.0387 98.2036 62.7113
20415 2 7.31205 99.8146 62.7433
14801 1 0.952587 101.408 64.0497
20399 2 2.77556 101.391 65.323
20441 2 0.0485997 103.002 65.3542
20442 2 1.85817 103.036 62.8061
14758 1 6.40883 101.408 64.0497
14803 1 3.68174 103.019 64.0812
20397 2 5.50484 103.002 65.3542
20416 2 4.5852 101.426 62.7749
14756 1 9.13798 103.019 64.0812
20360 2 8.2318 101.391 65.323
20363 2 10.0414 101.426 62.7749
20418 2 7.31441 103.036 62.8061
14788 1 0.954503 104.629 64.112
20398 2 2.77772 104.612 65.3848
20432 2 0.0504543 106.222 65.4148
20443 2 1.85989 106.257 62.8664
14757 1 6.41074 104.629 64.112
14786 1 3.68336 106.239 64.1422
20400 2 5.50669 106.222 65.4148
20403 2 4.58721 104.647 62.8366
14759 1 9.1396 106.239 64.1422
20353 2 8.23395 104.612 65.3848
20362 2 10.0435 104.647 62.8366
20401 2 7.31612 106.257 62.8664
14787 1 0.955874 107.85 64.1714
20384 2 2.77931 107.832 65.444
20433 2 0.0518272 109.442 65.4722
20434 2 1.86117 109.476 62.9231
14743 1 6.41211 107.85 64.1714
14789 1 3.68453 109.459 64.1996
20382 2 5.50807 109.442 65.4722
20402 2 4.58869 107.867 62.8952
14741 1 9.14077 109.459 64.1996
20352 2 8.23555 107.832 65.444
20355 2 10.0449 107.867 62.8952
20404 2 7.31741 109.476 62.9231
14780 1 0.9569 111.069 64.2268
20383 2 2.78051 111.052 65.4994
20431 2 0.0528964 112.662 65.5255
20435 2 1.86221 112.695 62.9756
14742 1 6.41314 111.069 64.2268
14778 1 3.68546 112.679 64.2529
20385 2 5.50913 112.662 65.5255
20388 2 4.58983 111.086 62.9499
14744 1 9.1417 112.679 64.2529
20338 2 8.23674 111.052 65.4994
20354 2 10.0461 111.086 62.9499
20386 2 7.31844 112.695 62.9756
14798 1 1.86619 96.5479 66.5063
20011 2 0.958996 94.9232 67.7474
14797 1 0.055138 96.5196 69.0652
14352 1 2.78145 94.9127 69.0349
20411 2 3.68903 96.5308 67.7777
14364 1 4.59245 94.9393 66.4754
19960 2 6.41523 94.9232 67.7474
14749 1 5.51138 96.5196 69.0652
14764 1 7.32243 96.5479 66.5063
20357 2 9.14527 96.5308 67.7777
14325 1 10.0487 94.9393 66.4754
14323 1 8.23769 94.9127 69.0349
14799 1 1.86934 99.7663 66.5693
20395 2 0.962657 98.1391 67.8086
14750 1 2.78491 98.1271 69.0959
14782 1 0.0582727 99.7352 69.127
14754 1 4.59598 98.1569 66.5377
20358 2 6.4189 98.1391 67.8086
20393 2 3.69236 99.7478 67.8398
14751 1 5.51451 99.7352 69.127
14706 1 10.0522 98.1569 66.5377
14752 1 7.32558 99.7663 66.5693
20359 2 9.14859 99.7478 67.8398
14703 1 8.24115 98.1271 69.0959
14784 1 1.87178 102.986 66.6323
20394 2 0.965658 101.357 67.8711
14735 1 2.78776 101.344 69.1583
14783 1 0.0608269 102.953 69.1895
14753 1 4.59877 101.376 66.601
20350 2 6.4219 101.357 67.8711
20396 2 3.69504 102.967 67.9021
14733 1 5.51707 102.953 69.1895
14705 1 10.055 101.376 66.601
14755 1 7.32802 102.986 66.6323
20348 2 9.15128 102.967 67.9021
14702 1 8.244 101.344 69.1583
14785 1 1.87359 106.206 66.6935
20380 2 0.968038 104.577 67.9328
14734 1 2.79002 104.563 69.2203
14774 1 0.0628126 106.173 69.2505
14739 1 4.60088 104.596 66.6632
20349 2 6.42428 104.577 67.9328
20378 2 3.69712 106.187 67.9629
14736 1 5.51905 106.173 69.2505
14704 1 10.0571 104.596 66.6632
14737 1 7.32983 106.206 66.6935
20351 2 9.15335 106.187 67.9629
14695 1 8.24626 104.563 69.2203
14776 1 1.8749 109.426 66.7514
20379 2 0.969817 107.797 67.9922
14738 1 4.60242 107.816 66.7229
20335 2 6.42606 107.797 67.9922
20381 2 3.69865 109.408 68.0206
14697 1 10.0587 107.816 66.7229
14740 1 7.33114 109.426 66.7514
20333 2 9.15489 109.408 68.0206
14777 1 1.8759 112.647 66.8053
20372 2 0.971157 111.018 68.048
14725 1 4.60355 111.037 66.7789
20334 2 6.4274 111.018 68.048
20370 2 3.69984 112.629 68.0744
14696 1 10.0598 111.037 66.7789
14723 1 7.33214 112.647 66.8053
20336 2 9.15608 112.629 68.0744
20391 2 1.87889 96.4976 70.326
14350 1 0.966524 94.8843 71.6133
14748 1 3.69626 96.4896 71.6429
14314 1 6.42276 94.8843 71.6133
19958 2 4.60517 94.8915 70.2962
14699 1 9.1525 96.4896 71.6429
20356 2 7.33513 96.4976 70.326
19928 2 10.0614 94.8915 70.2962
14731 1 0.969644 98.0958 71.673
20392 2 1.88213 99.7122 70.387
14700 1 6.42588 98.0958 71.673
14729 1 3.69916 99.7027 71.7035
20346 2 4.6087 98.1045 70.3564
14701 1 9.1554 99.7027 71.7035
20304 2 10.0649 98.1045 70.3564
20344 2 7.33837 99.7122 70.387
14730 1 0.972309 101.31 71.7339
20376 2 1.88488 102.93 70.4486
14692 1 6.42855 101.31 71.7339
14732 1 3.70148 102.919 71.7654
20345 2 4.61164 101.321 70.4179
14690 1 9.15772 102.919 71.7654
20303 2 10.0679 101.321 70.4179
20347 2 7.34112 102.93 70.4486
14717 1 0.974315 104.528 71.7962
20377 2 1.88706 106.15 70.5088
14691 1 6.43055 104.528 71.7962
14715 1 3.7033 106.138 71.8262
20331 2 4.61417 104.539 70.479
14693 1 9.15954 106.138 71.8262
20302 2 10.0704 104.539 70.479
20329 2 7.3433 106.15 70.5088
14716 1 0.975955 107.749 71.8555
14721 1 2.79171 107.783 69.28
14775 1 0.0642784 109.394 69.3085
20368 2 1.88873 109.372 70.5663
14681 1 6.43219 107.749 71.8555
14718 1 3.70477 109.36 71.8839
14719 1 5.52052 109.394 69.3085
20330 2 4.61607 107.76 70.538
14679 1 9.16101 109.36 71.8839
14694 1 8.24795 107.783 69.28
20296 2 10.0723 107.76 70.538
20332 2 7.34496 109.372 70.5663
14711 1 0.977284 110.971 71.9113
14720 1 2.793 111.004 69.3361
14773 1 0.0654368 112.615 69.3626
20369 2 1.89006 112.595 70.62
14680 1 6.43352 110.971 71.9113
14709 1 3.706 112.583 71.9378
14722 1 5.52168 112.615 69.3626
20319 2 4.61754 110.983 70.5937
14682 1 9.16224 112.583 71.9378
14684 1 8.24924 111.004 69.3361
20295 2 10.0738 110.983 70.5937
20317 2 7.3463 112.595 70.62
14727 1 1.8343 96.4691 74.2997
20390 2 0.0670714 96.4616 72.8619
19946 2 0.959789 94.832 75.3163
19948 2 2.79342 94.857 72.8326
20340 2 3.68895 96.4356 75.3449
20341 2 5.52331 96.4616 72.8619
14312 1 4.56262 94.8648 74.2703
19921 2 6.41603 94.832 75.3163
14698 1 7.29054 96.4691 74.2997
20297 2 9.14519 96.4356 75.3449
14305 1 10.0189 94.8648 74.2703
19926 2 8.24966 94.857 72.8326
14728 1 1.83386 99.6804 74.3602
20323 2 0.961792 98.0405 75.3741
20342 2 2.79684 98.0673 72.8918
20374 2 0.0702269 99.6742 72.9221
14688 1 4.5622 98.0742 74.3298
20298 2 6.41803 98.0405 75.3741
20321 2 3.69083 99.6467 75.4037
20343 2 5.52647 99.6742 72.9221
14670 1 10.0184 98.0742 74.3298
14686 1 7.2901 99.6804 74.3602
20299 2 9.14706 99.6467 75.4037
20301 2 8.25308 98.0673 72.8918
14713 1 1.83325 102.895 74.4206
20322 2 0.9635 101.254 75.4335
20327 2 2.79966 101.282 72.9524
20375 2 0.072995 102.891 72.9825
14687 1 4.56185 101.287 74.3904
20291 2 6.41974 101.254 75.4335
20324 2 3.69242 102.863 75.4622
20325 2 5.52923 102.891 72.9825
14669 1 10.0181 101.287 74.3904
14689 1 7.28949 102.895 74.4206
20289 2 9.14866 102.863 75.4622
20300 2 8.2559 101.282 72.9524
14714 1 1.83269 106.114 74.4797
20311 2 0.964964 104.472 75.4909
20326 2 2.80232 104.5 73.0124
20366 2 0.0752143 106.111 73.0418
14677 1 4.56103 104.504 74.4504
20290 2 6.4212 104.472 75.4909
20309 2 3.69371 106.083 75.5195
20328 2 5.53145 106.111 73.0418
14668 1 10.0173 104.504 74.4504
14675 1 7.28893 106.114 74.4797
20292 2 9.14994 106.083 75.5195
20294 2 8.25855 104.5 73.0124
14707 1 1.83239 109.336 74.5365
20310 2 0.966159 107.694 75.5475
20315 2 2.80426 107.722 73.0706
20367 2 0.0769571 109.334 73.0986
14676 1 4.56062 107.724 74.5085
20284 2 6.4224 107.694 75.5475
20312 2 3.69479 109.307 75.575
20313 2 5.5332 109.334 73.0986
14667 1 10.0169 107.724 74.5085
14678 1 7.28863 109.336 74.5365
20282 2 9.15103 109.307 75.575
20293 2 8.2605 107.722 73.0706
14708 1 1.83243 112.559 74.5898
20307 2 0.967177 110.92 75.6017
20314 2 2.80582 110.947 73.1257
20365 2 0.0783923 112.559 73.1519
14673 1 4.56048 110.947 74.5637
20283 2 6.42342 110.92 75.6017
20305 2 3.69581 112.533 75.6275
20316 2 5.53463 112.559 73.1519
14666 1 10.0167 110.947 74.5637
14671 1 7.28867 112.559 74.5898
20285 2 9.15205 112.533 75.6275
20287 2 8.26206 110.947 73.1257
2495 1 1.81434 113.509 -2.5982
8769 2 0.911916 115.076 -1.13241
8777 2 2.72705 115.104 -3.63688
8784 2 0.000642233 113.532 -3.65931
2482 1 4.53954 115.081 -2.57539
8739 2 6.36815 115.076 -1.13241
8775 2 3.64113 113.504 -1.15526
8776 2 5.45688 113.532 -3.65931
2484 1 7.27058 113.509 -2.5982
2436 1 9.99578 115.081 -2.57539
8738 2 9.09737 113.504 -1.15526
8742 2 8.18329 115.104 -3.63688
2496 1 1.80864 116.652 -2.55323
8768 2 0.909745 118.218 -1.08869
8773 2 2.72381 118.244 -3.59392
2481 1 4.53414 118.223 -2.53178
8733 2 6.36598 118.218 -1.08869
8767 2 3.63894 116.647 -1.1102
8778 2 5.45352 116.674 -3.61506
2480 1 7.26488 116.652 -2.55323
2435 1 9.99038 118.223 -2.53178
8740 2 9.09518 116.647 -1.1102
8741 2 8.18005 118.244 -3.59392
12046 2 10.9098 116.674 -3.61506
2492 1 1.80355 119.794 -2.5111
8758 2 0.907639 121.358 -1.04807
8772 2 2.72082 121.383 -3.55392
8770 2 3.6368 119.788 -1.06797
2474 1 4.52937 121.364 -2.49125
8732 2 6.36388 121.358 -1.04807
8771 2 5.4504 119.814 -3.57352
2483 1 7.25979 119.794 -2.5111
2434 1 9.9856 121.364 -2.49125
8731 2 9.09304 119.788 -1.06797
8736 2 8.17706 121.383 -3.55392
12047 2 10.9066 119.814 -3.57352
2493 1 1.7991 122.933 -2.47228
8757 2 0.905637 124.497 -1.01095
8762 2 2.71812 124.519 -3.51731
8756 2 3.63474 122.928 -1.02905
2473 1 4.52522 124.502 -2.45422
8719 2 6.36188 124.497 -1.01095
8774 2 5.44755 122.951 -3.53517
2472 1 7.25533 122.933 -2.47228
2427 1 9.98146 124.502 -2.45422
8734 2 9.09098 122.928 -1.02905
8735 2 8.17436 124.519 -3.51731
12044 2 10.9038 122.951 -3.53517
2488 1 1.79525 126.071 -2.43711
8750 2 0.903779 127.634 -0.977614
8761 2 2.71571 127.655 -3.48438
8759 2 3.63281 126.066 -0.993795
2460 1 4.52167 127.639 -2.42097
8718 2 6.36002 127.634 -0.977614
8760 2 5.44499 126.087 -3.50037
2475 1 7.25149 126.071 -2.43711
2426 1 9.97791 127.639 -2.42097
8717 2 9.08905 126.066 -0.993795
8722 2 8.17194 127.655 -3.48438
12045 2 10.9012 126.087 -3.50037
2489 1 1.79199 129.207 -2.40582
8749 2 0.902099 130.771 -0.948254
8751 2 2.7136 130.788 -3.45534
8748 2 3.63103 129.203 -0.962428
2459 1 4.51868 130.775 -2.39168
8701 2 6.35834 130.771 -0.948254
8763 2 5.44273 129.222 -3.46936
2458 1 7.24823 129.207 -2.40582
2411 1 9.97492 130.775 -2.39168
8720 2 9.08727 129.203 -0.962428
8721 2 8.16984 130.788 -3.45534
12043 2 10.899 129.222 -3.46936
2478 1 2.72917 115.057 0.0895948
2494 1 0.00246646 113.485 0.066592
8765 2 1.82196 113.473 1.39775
2477 1 5.4587 113.485 0.066592
8729 2 4.54879 115.046 1.42086
2433 1 8.18541 115.057 0.0895948
8676 2 10.005 115.046 1.42086
8737 2 7.2782 113.473 1.39775
2470 1 2.72643 118.2 0.133575
8766 2 1.81939 116.618 1.44331
2479 1 5.4559 116.629 0.111947
8728 2 4.54626 118.189 1.46503
2432 1 8.18266 118.2 0.133575
8675 2 10.0025 118.189 1.46503
8727 2 7.27563 116.618 1.44331
5562 1 10.9121 116.629 0.111947
2469 1 2.72384 121.342 0.174414
8754 2 1.81692 119.76 1.48595
2468 1 5.45323 119.771 0.154415
8715 2 4.54385 121.331 1.50602
8730 2 7.27316 119.76 1.48595
2425 1 8.18007 121.342 0.174414
8674 2 10.0001 121.331 1.50602
5563 1 10.9095 119.771 0.154415
2456 1 2.72144 124.482 0.211709
8755 2 1.81458 122.902 1.5252
2471 1 5.45073 122.912 0.193524
8714 2 4.54159 124.472 1.54344
8713 2 7.27082 122.902 1.5252
2424 1 8.17768 124.482 0.211709
8667 2 9.99783 124.472 1.54344
5558 1 10.907 122.912 0.193524
2455 1 2.71927 127.621 0.24518
8746 2 1.81242 126.043 1.56072
2454 1 5.44844 126.052 0.228936
8700 2 4.53953 127.613 1.57701
8716 2 7.26866 126.043 1.56072
2410 1 8.1755 127.621 0.24518
8666 2 9.99577 127.613 1.57701
5559 1 10.9047 126.052 0.228936
2445 1 2.71734 130.759 0.274644
8747 2 1.81047 129.182 1.5923
2457 1 5.44639 129.19 0.260421
8699 2 4.53769 130.752 1.60655
8698 2 7.2667 129.182 1.5923
2409 1 8.17358 130.759 0.274644
8651 2 9.99393 130.752 1.60655
5557 1 10.9026 129.19 0.260421
2466 1 0.910734 115.029 2.68643
2462 1 1.82087 113.43 5.24489
8725 2 2.7293 115.017 3.98755
8764 2 0.0026593 113.444 3.96424
2430 1 6.36697 115.029 2.68643
2476 1 3.64029 113.456 2.66314
2418 1 4.54742 115.003 5.26834
8724 2 5.4589 113.444 3.96424
2429 1 9.09653 113.456 2.66314
2364 1 10.0037 115.003 5.26834
2428 1 7.2771 113.43 5.24489
8673 2 8.18554 115.017 3.98755
2465 1 0.90794 118.174 2.73091
2464 1 3.63744 116.601 2.70905
2463 1 1.81777 116.576 5.29108
8711 2 2.72645 118.162 4.03203
2422 1 6.36418 118.174 2.73091
2417 1 4.5444 118.149 5.31304
8726 2 5.45598 116.59 4.01017
2416 1 7.27401 116.576 5.29108
2431 1 9.09368 116.601 2.70905
2363 1 10.0006 118.149 5.31304
8672 2 8.18269 118.162 4.03203
12016 2 10.9122 116.59 4.01017
2452 1 0.905303 121.317 2.77215
2467 1 3.63472 119.745 2.75196
2448 1 1.81485 119.722 5.33416
8710 2 2.72376 121.306 4.07326
2421 1 6.36154 121.317 2.77215
2403 1 4.54159 121.294 5.3544
8709 2 5.4532 119.734 4.05308
2419 1 7.27109 119.722 5.33416
2420 1 9.09096 119.745 2.75196
2362 1 9.99783 121.294 5.3544
8665 2 8.18 121.306 4.07326
12017 2 10.9094 119.734 4.05308
2451 1 0.902865 124.459 2.80976
2450 1 3.63218 122.888 2.79143
2449 1 1.81215 122.866 5.37372
8696 2 2.72129 124.45 4.11085
2407 1 6.3591 124.459 2.80976
2402 1 4.53902 124.438 5.39208
8712 2 5.45062 122.878 4.09253
2401 1 7.26839 122.866 5.37372
2423 1 9.08841 122.888 2.79143
2355 1 9.99526 124.438 5.39208
8664 2 8.17753 124.45 4.11085
12008 2 10.9069 122.878 4.09253
2444 1 0.900659 127.601 2.84346
2453 1 3.62985 126.03 2.82711
2440 1 1.80972 126.01 5.40945
8695 2 2.71906 127.592 4.14454
2441 1 1.80757 129.154 5.44116
2406 1 6.3569 127.601 2.84346
2388 1 4.53673 127.582 5.42582
8694 2 5.44826 126.021 4.12819
2404 1 7.26596 126.01 5.40945
2386 1 7.2638 129.154 5.44116
2405 1 9.08609 126.03 2.82711
2354 1 9.99296 127.582 5.42582
8650 2 8.1753 127.592 4.14454
12009 2 10.9045 126.021 4.12819
2443 1 0.89871 130.742 2.8731
2442 1 3.62777 129.171 2.8588
8685 2 2.7171 130.735 4.17415
2846 1 1.8057 132.298 5.46871
2389 1 6.35495 130.742 2.8731
2387 1 4.53472 130.726 5.45546
8697 2 5.44617 129.164 4.15986
9132 2 5.44434 132.306 4.18739
2812 1 7.26194 132.298 5.46871
2340 1 9.99095 130.726 5.45546
2408 1 9.08401 129.171 2.8588
12007 2 10.9024 129.164 4.15986
8649 2 8.17334 130.735 4.17415
12436 2 10.9006 132.306 4.18739
2414 1 2.72734 114.978 7.84573
8707 2 0.909265 114.991 6.55987
8704 2 1.81552 116.54 9.15673
8658 2 4.54526 114.966 9.13416
8670 2 6.3655 114.991 6.55987
8723 2 3.63898 113.418 6.53652
8656 2 7.27175 116.54 9.15673
2415 1 5.45384 116.552 7.86846
2361 1 8.18357 114.978 7.84573
8616 2 10.0015 114.966 9.13416
8669 2 9.09522 113.418 6.53652
5518 1 10.9101 116.552 7.86846
2399 1 2.72416 118.125 7.89039
8706 2 0.906206 118.137 6.60437
8705 2 3.63583 116.564 6.58251
8688 2 1.81247 119.687 9.19942
8657 2 4.54208 118.113 9.1785
8662 2 6.36244 118.137 6.60437
8659 2 7.26871 119.687 9.19942
2397 1 5.45078 119.698 7.91147
2360 1 8.1804 118.125 7.89039
8615 2 9.99832 118.113 9.1785
8671 2 9.09207 116.564 6.58251
5519 1 10.907 119.698 7.91147
2398 1 2.72124 121.272 7.93166
8692 2 0.903376 121.283 6.64554
8708 2 3.63288 119.71 6.6254
8689 2 1.80973 122.834 9.23855
8690 2 3.63018 122.856 6.66477
8643 2 4.53918 121.261 9.21945
8661 2 6.35961 121.283 6.64554
8641 2 7.26597 122.834 9.23855
2400 1 5.44801 122.845 7.95091
2353 1 8.17748 121.272 7.93166
8614 2 9.99542 121.261 9.21945
8660 2 9.08912 119.71 6.6254
5510 1 10.9042 122.845 7.95091
8663 2 9.08642 122.856 6.66477
2384 1 2.71862 124.418 7.96919
8691 2 0.900809 124.429 6.68304
8693 2 3.62775 126.001 6.70033
8647 2 6.35705 124.429 6.68304
2382 1 5.44554 125.991 7.98649
2352 1 8.17485 124.418 7.96919
5511 1 10.9018 125.991 7.98649
8645 2 9.08399 126.001 6.70033
2383 1 2.7163 127.564 8.00279
8684 2 0.898524 127.574 6.71662
8682 2 3.62561 129.146 6.7319
8646 2 6.35476 127.574 6.71662
2385 1 5.44337 129.138 8.01806
2339 1 8.17253 127.564 8.00279
5509 1 10.8996 129.138 8.01806
8648 2 9.08185 129.146 6.7319
2373 1 2.71429 130.711 8.03229
8683 2 0.896533 130.719 6.74614
9131 2 3.62377 132.291 6.75933
8632 2 6.35277 130.719 6.74614
2797 1 5.44152 132.284 8.04548
2338 1 8.17053 130.711 8.03229
9077 2 9.08001 132.291 6.75933
5917 1 10.8978 132.284 8.04548
2395 1 0.906949 114.954 10.4219
8654 2 2.72474 114.942 11.7094
2393 1 3.6334 116.528 10.4445
2358 1 6.36319 114.954 10.4219
8655 2 5.45121 116.516 11.7318
8613 2 8.18098 114.942 11.7094
2359 1 9.08964 116.528 10.4445
11950 2 10.9074 116.516 11.7318
2394 1 0.903688 118.102 10.4663
8639 2 2.72152 118.09 11.7534
2396 1 3.6303 119.676 10.4872
2350 1 6.35993 118.102 10.4663
8637 2 5.44816 119.664 11.7741
8612 2 8.17776 118.09 11.7534
2348 1 9.08654 119.676 10.4872
11951 2 10.9044 119.664 11.7741
2380 1 0.900752 121.25 10.5073
8638 2 2.71865 121.239 11.7939
2378 1 3.62753 122.824 10.5263
2349 1 6.35699 121.25 10.5073
8640 2 5.44547 122.814 11.8128
8606 2 8.17489 121.239 11.7939
2351 1 9.08377 122.824 10.5263
11942 2 10.9017 122.814 11.8128
2379 1 0.898151 124.398 10.5445
8627 2 2.71613 124.388 11.8308
2381 1 3.6251 125.972 10.5616
8680 2 1.8073 125.982 9.27387
8642 2 4.53659 124.408 9.2567
2336 1 6.35439 124.398 10.5445
8625 2 5.44312 125.963 11.8477
8644 2 7.26354 125.982 9.27387
8608 2 9.99283 124.408 9.2567
8605 2 8.17237 124.388 11.8308
2334 1 9.08133 125.972 10.5616
11943 2 10.8994 125.963 11.8477
2372 1 0.895885 127.547 10.5777
8626 2 2.71395 127.538 11.8637
8681 2 1.80519 129.129 9.30521
2370 1 3.62299 129.121 10.5929
8631 2 4.53432 127.556 9.29005
2335 1 6.35212 127.547 10.5777
8629 2 7.26142 129.129 9.30521
8628 2 5.4411 129.113 11.8787
8607 2 9.99056 127.556 9.29005
8599 2 8.17019 127.538 11.8637
2337 1 9.07923 129.121 10.5929
11941 2 10.8973 129.113 11.8787
2371 1 0.893944 130.696 10.607
8620 2 2.71209 130.688 11.8927
9111 2 1.80338 132.277 9.33246
2796 1 3.62121 132.27 10.62
8630 2 4.53236 130.703 9.31935
2325 1 6.35018 130.696 10.607
9076 2 7.25962 132.277 9.33246
9061 2 5.4394 132.263 11.9057
8600 2 9.9886 130.703 9.31935
8598 2 8.16833 130.688 11.8927
2741 1 9.07745 132.27 10.62
12374 2 10.8956 132.263 11.9057
2342 1 2.72146 114.904 15.5742
8635 2 0.903917 114.917 14.2852
2392 1 1.8127 116.504 13.0203
8633 2 3.63041 116.491 14.3073
2346 1 4.54249 114.929 12.998
8610 2 6.36016 114.917 14.2852
2343 1 5.44797 116.479 15.5962
2344 1 7.26894 116.504 13.0203
2313 1 8.1777 114.904 15.5742
2316 1 9.99872 114.929 12.998
5446 1 10.9042 116.479 15.5962
8611 2 9.08665 116.491 14.3073
2328 1 2.71836 118.055 15.6174
8634 2 0.900768 118.066 14.3286
2376 1 1.80965 119.653 13.0625
8636 2 3.62747 119.642 14.349
2345 1 4.53924 118.078 13.0419
8603 2 6.35701 118.066 14.3286
2326 1 5.44509 119.63 15.6377
2347 1 7.26589 119.653 13.0625
5447 1 10.9013 119.63 15.6377
2312 1 8.17459 118.055 15.6174
2315 1 9.99548 118.078 13.0419
8601 2 9.08371 119.642 14.349
8621 2 3.62492 122.793 14.3871
2327 1 2.71569 121.206 15.6571
8623 2 0.898026 121.217 14.3685
2377 1 1.80698 122.803 13.1011
2330 1 7.26322 122.803 13.1011
2332 1 4.53639 121.228 13.0823
8602 2 6.35426 121.217 14.3685
2329 1 5.44262 122.782 15.6755
8604 2 9.08116 122.793 14.3871
5438 1 10.8989 122.782 15.6755
2309 1 8.17192 121.206 15.6571
2314 1 9.99262 121.228 13.0823
8624 2 3.62274 125.945 14.4215
2368 1 1.80467 125.954 13.1359
2320 1 2.71341 124.359 15.6931
8622 2 0.895666 124.369 14.4048
2333 1 7.26091 125.954 13.1359
2318 1 5.44053 125.935 15.7097
8596 2 6.3519 124.369 14.4048
2331 1 4.5339 124.378 13.119
8594 2 9.07898 125.945 14.4215
2311 1 9.99014 124.378 13.119
2308 1 8.16965 124.359 15.6931
5439 1 10.8968 125.935 15.7097
8617 2 3.62089 129.097 14.452
2369 1 1.80271 129.105 13.1667
8619 2 0.893657 127.521 14.4372
2319 1 2.7115 127.512 15.7253
2322 1 7.25895 129.105 13.1667
2321 1 5.43878 129.089 15.74
8595 2 6.3499 127.521 14.4372
2324 1 4.53177 127.529 13.1518
8597 2 9.07713 129.097 14.452
2310 1 9.98801 127.529 13.1518
2306 1 8.16774 127.512 15.7253
5437 1 10.895 129.089 15.74
8618 2 0.891968 130.673 14.4658
2317 1 2.7099 130.666 15.7537
2775 1 1.80106 132.257 13.1936
9060 2 3.61935 132.25 14.4785
2725 1 5.43733 132.243 15.7663
2740 1 7.2573 132.257 13.1936
8593 2 6.34821 130.673 14.4658
2323 1 4.52997 130.681 13.1806
9017 2 9.07559 132.25 14.4785
5846 1 10.8936 132.243 15.7663
2305 1 8.16614 130.666 15.7537
2307 1 9.9862 130.681 13.1806
2686 1 0.900151 114.878 18.1505
8976 2 1.80937 116.467 16.883
2684 1 3.62679 116.454 18.172
8962 2 4.53903 114.891 16.8612
2663 1 6.35639 114.878 18.1505
8960 2 7.26561 116.467 16.883
8916 2 9.99527 114.891 16.8612
2664 1 9.08302 116.454 18.172
2685 1 0.897309 118.03 18.1928
8972 2 1.80665 119.619 16.9239
2687 1 3.62419 119.607 18.2126
8961 2 4.53607 118.042 16.9039
2659 1 6.35355 118.03 18.1928
8963 2 7.26289 119.619 16.9239
8915 2 9.99231 118.042 16.9039
2657 1 9.08043 119.607 18.2126
2679 1 0.89494 121.184 18.2316
8973 2 1.80435 122.772 16.9613
2677 1 3.62203 122.761 18.2496
8954 2 4.53357 121.195 16.943
2658 1 6.35118 121.184 18.2316
8952 2 7.26059 122.772 16.9613
8914 2 9.98981 121.195 16.943
2660 1 9.07827 122.761 18.2496
2678 1 0.892977 124.339 18.2668
8968 2 1.80243 125.926 16.995
2680 1 3.62025 125.917 18.283
8953 2 4.53147 124.349 16.9786
2647 1 6.34922 124.339 18.2668
8955 2 7.25867 125.926 16.995
8907 2 9.9877 124.349 16.9786
2645 1 9.07648 125.917 18.283
2672 1 0.891356 127.495 18.2983
8969 2 1.80082 129.081 17.0249
2670 1 3.61878 129.073 18.3127
2646 1 6.34759 127.495 18.2983
8940 2 4.52971 127.503 17.0104
8938 2 7.25706 129.081 17.0249
8906 2 9.98595 127.503 17.0104
2648 1 9.07501 129.073 18.3127
2671 1 0.890024 130.651 18.3261
9383 2 1.7995 132.237 17.051
3072 1 3.61757 132.23 18.3385
2629 1 6.34626 130.651 18.3261
8939 2 4.52825 130.659 17.0384
9372 2 7.25574 132.237 17.051
8891 2 9.98449 130.659 17.0384
3046 1 9.07381 132.23 18.3385
8958 2 2.71766 114.865 19.4374
8946 2 0.896142 114.837 22.0133
2683 1 1.80546 116.428 20.7477
8944 2 3.62311 116.415 22.034
8959 2 5.4444 116.441 19.4586
2655 1 4.53486 114.851 20.7267
8910 2 6.35238 114.837 22.0133
2653 1 7.26169 116.428 20.7477
8913 2 8.1739 114.865 19.4374
2604 1 9.9911 114.851 20.7267
8911 2 9.07935 116.415 22.034
12234 2 10.9006 116.441 19.4586
8950 2 2.71503 118.018 19.479
8945 2 0.893979 117.993 22.0538
2675 1 1.80327 119.583 20.7872
8947 2 3.6212 119.571 22.0728
8948 2 5.44202 119.595 19.4986
2654 1 4.53242 118.005 20.7679
8902 2 6.35022 117.993 22.0538
2656 1 7.25951 119.583 20.7872
8912 2 8.17127 118.018 19.479
2603 1 9.98866 118.005 20.7679
8900 2 9.07744 119.571 22.0728
12235 2 10.8983 119.595 19.4986
8949 2 2.71288 121.173 19.5173
8932 2 0.892281 121.15 22.091
2676 1 1.80152 122.74 20.8232
8930 2 3.61969 122.729 22.1083
8951 2 5.44007 122.751 19.5351
2643 1 4.53047 121.161 20.8056
8901 2 6.34852 121.15 22.091
2641 1 7.25776 122.74 20.8232
8905 2 8.16912 121.173 19.5173
2602 1 9.98671 121.161 20.8056
8903 2 9.07593 122.729 22.1083
12230 2 10.8963 122.751 19.5351
8936 2 2.71112 124.329 19.552
8931 2 0.890945 124.309 22.1248
2668 1 1.80012 125.898 20.8558
8933 2 3.61851 125.889 22.1404
8934 2 5.43848 125.907 19.568
2642 1 4.5289 124.319 20.84
8887 2 6.34718 124.309 22.1248
2644 1 7.25636 125.898 20.8558
8904 2 8.16736 124.329 19.552
2595 1 9.98514 124.319 20.84
8885 2 9.07474 125.889 22.1404
12231 2 10.8947 125.907 19.568
8935 2 2.70968 127.486 19.5831
8924 2 0.889889 127.469 22.1551
2669 1 1.79899 129.057 20.8847
8922 2 3.61757 129.049 22.169
8937 2 5.43719 129.065 19.5972
2628 1 4.52764 127.477 20.8707
8886 2 6.34613 127.469 22.1551
2626 1 7.25523 129.057 20.8847
8890 2 8.16592 127.486 19.5831
2594 1 9.98388 127.477 20.8707
8888 2 9.0738 129.049 22.169
12229 2 10.8934 129.065 19.5972
8925 2 2.70851 130.644 19.6105
8923 2 0.889052 130.63 22.1819
3066 1 1.79808 132.217 20.91
9364 2 3.61682 132.21 22.1939
2627 1 4.52663 130.637 20.8978
8869 2 6.34529 130.63 22.1819
9365 2 5.43613 132.224 19.6228
3045 1 7.25432 132.217 20.91
8889 2 8.16475 130.644 19.6105
2579 1 9.98287 130.637 20.8978
9317 2 9.07306 132.21 22.1939
12646 2 10.8924 132.224 19.6228
2635 1 0.89173 114.793 25.8775
2651 1 2.71325 114.823 23.3025
8943 2 1.80191 116.387 24.6087
2633 1 3.61917 116.373 25.8972
2598 1 6.34797 114.793 25.8775
8898 2 4.53088 114.808 24.5886
2652 1 5.44035 116.401 23.3229
8896 2 7.25815 116.387 24.6087
2601 1 8.16949 114.823 23.3025
8844 2 9.98711 114.808 24.5886
2599 1 9.07541 116.373 25.8972
5745 1 10.8966 116.401 23.3229
2634 1 0.890494 117.953 25.9162
2639 1 2.71135 117.98 23.3424
8928 2 1.80056 119.546 24.6464
2590 1 6.34673 117.953 25.9162
8897 2 4.5293 117.966 24.6279
2637 1 5.4387 119.559 23.3612
8899 2 7.2568 119.546 24.6464
2600 1 8.16759 117.98 23.3424
8843 2 9.98554 117.966 24.6279
5746 1 10.8949 119.559 23.3612
2638 1 2.70991 121.138 23.3791
8929 2 1.79957 122.707 24.6809
8883 2 4.52815 121.126 24.664
2640 1 5.43744 122.718 23.3962
8881 2 7.25581 122.707 24.6809
2593 1 8.16615 121.138 23.3791
8842 2 9.98438 121.126 24.664
5738 1 10.8937 122.718 23.3962
2624 1 2.70881 124.298 23.4125
8920 2 1.79883 125.87 24.7121
8882 2 4.52729 124.288 24.6969
2622 1 5.43648 125.879 23.4279
8884 2 7.25507 125.87 24.7121
2592 1 8.16505 124.298 23.4125
8835 2 9.98353 124.288 24.6969
5739 1 10.8927 125.879 23.4279
2623 1 2.70797 127.46 23.4424
8921 2 1.79828 129.033 24.7399
8868 2 4.52666 127.451 24.7264
2625 1 5.43573 129.041 23.4561
8866 2 7.25452 129.033 24.7399
2578 1 8.1642 127.46 23.4424
8834 2 9.9829 127.451 24.7264
5737 1 10.892 129.041 23.4561
2613 1 2.70731 130.622 23.4689
9350 2 1.79786 132.197 24.7643
8867 2 4.52618 130.615 24.7526
3034 1 5.43515 132.204 23.4808
9316 2 7.2541 132.197 24.7643
2577 1 8.16355 130.622 23.4689
8820 2 9.98242 130.615 24.7526
6137 1 10.8914 132.204 23.4808
8894 2 2.70959 114.777 27.163
2632 1 1.79837 116.343 28.4705
2586 1 4.52678 114.762 28.4514
8895 2 5.43721 116.358 27.1824
2584 1 7.2546 116.343 28.4705
12190 2 10.8934 116.358 27.1824
2538 1 9.98302 114.762 28.4514
8841 2 8.16582 114.777 27.163
2636 1 3.61815 119.533 25.9343
8879 2 2.70869 117.939 27.201
2616 1 1.79802 119.507 28.5064
2585 1 4.52628 117.925 28.4888
8877 2 5.4365 119.52 27.2189
2587 1 7.25426 119.507 28.5064
12191 2 10.8927 119.52 27.2189
2588 1 9.07439 119.533 25.9343
2537 1 9.98252 117.925 28.4888
8840 2 8.16493 117.939 27.201
2620 1 0.889645 121.114 25.9517
2618 1 3.61745 122.696 25.9683
8878 2 2.70814 121.102 27.2361
2617 1 1.7979 122.673 28.5394
2589 1 6.34588 121.114 25.9517
2571 1 4.52606 121.09 28.5233
8880 2 5.43607 122.685 27.2524
2569 1 7.25414 122.673 28.5394
12182 2 10.8923 122.685 27.2524
2591 1 9.07368 122.696 25.9683
2536 1 9.9823 121.09 28.5233
8833 2 8.16438 121.102 27.2361
2619 1 0.889062 124.278 25.9841
2621 1 3.61696 125.86 25.9991
8864 2 2.7078 124.267 27.268
2608 1 1.79791 125.84 28.5694
2575 1 6.3453 124.278 25.9841
2570 1 4.52601 124.257 28.5548
8862 2 5.43581 125.85 27.2828
2572 1 7.25415 125.84 28.5694
12183 2 10.892 125.85 27.2828
2573 1 9.0732 125.86 25.9991
2529 1 9.98225 124.257 28.5548
8832 2 8.16404 124.267 27.268
2612 1 0.888658 127.442 26.0133
2610 1 3.61662 129.025 26.0267
8863 2 2.70761 127.433 27.2968
2609 1 1.79798 129.008 28.5963
2574 1 6.3449 127.442 26.0133
2557 1 4.52606 127.424 28.5832
8865 2 5.43566 129.017 27.31
2555 1 7.25422 129.008 28.5963
12181 2 10.8919 129.017 27.31
2576 1 9.07286 129.025 26.0267
2528 1 9.9823 127.424 28.5832
8819 2 8.16385 127.433 27.2968
2611 1 0.888372 130.608 26.0391
8853 2 2.7075 130.6 27.3224
3033 1 3.61638 132.191 26.0508
3015 1 1.79807 132.177 28.6198
2558 1 6.34461 130.608 26.0391
2556 1 4.52614 130.593 28.6085
9301 2 5.43558 132.184 27.3339
2980 1 7.25431 132.177 28.6198
2517 1 9.98238 130.593 28.6085
8818 2 8.16373 130.6 27.3224
2981 1 9.07262 132.191 26.0508
12613 2 10.8918 132.184 27.3339
2582 1 2.70617 114.729 31.0237
8875 2 0.888752 114.745 29.736
8872 2 1.79701 116.297 32.3255
8873 2 3.61676 116.328 29.7548
8826 2 4.52487 114.712 32.3073
8838 2 6.34499 114.745 29.736
2583 1 5.43439 116.312 31.0421
8824 2 7.25325 116.297 32.3255
5686 1 10.8906 116.312 31.0421
2535 1 8.16241 114.729 31.0237
8796 2 9.98111 114.712 32.3073
8839 2 9.07299 116.328 29.7548
2567 1 2.70643 117.896 31.0599
8874 2 0.888592 117.911 29.7729
8856 2 1.79763 119.467 32.3601
8876 2 3.61672 119.494 29.7903
8825 2 4.52543 117.881 32.3431
8830 2 6.34483 117.911 29.7729
2565 1 5.43474 119.48 31.077
8827 2 7.25387 119.467 32.3601
5687 1 10.891 119.48 31.077
2534 1 8.16267 117.896 31.0599
8795 2 9.98166 117.881 32.3431
8828 2 9.07296 119.494 29.7903
2566 1 2.70684 121.065 31.0935
8860 2 0.888654 121.078 29.8069
8857 2 1.7983 122.638 32.392
8858 2 3.61685 122.662 29.8229
8812 2 4.52608 121.052 32.3764
8829 2 6.34489 121.078 29.8069
2568 1 5.43519 122.65 31.1092
8810 2 7.25453 122.638 32.392
5678 1 10.8914 122.65 31.1092
2527 1 8.16308 121.065 31.0935
8794 2 9.98232 121.052 32.3764
8831 2 9.07309 122.662 29.8229
2553 1 2.70731 124.235 31.1242
8859 2 0.888837 124.246 29.8381
8848 2 1.79895 125.81 32.421
8861 2 3.61707 125.83 29.8525
8811 2 4.52675 124.224 32.4069
8816 2 6.34508 124.246 29.8381
2551 1 5.43567 125.82 31.1385
8813 2 7.25519 125.81 32.421
5679 1 10.8919 125.82 31.1385
2526 1 8.16355 124.235 31.1242
8791 2 9.98299 124.224 32.4069
8814 2 9.07331 125.83 29.8525
2552 1 2.70778 127.406 31.1521
8852 2 0.889072 127.415 29.8662
8849 2 1.79956 128.984 32.4471
8850 2 3.61731 129 29.8791
8804 2 4.52738 127.397 32.4344
8815 2 6.34531 127.415 29.8662
2554 1 5.43612 128.992 31.1648
8802 2 7.2558 128.984 32.4471
5677 1 10.8924 128.992 31.1648
2516 1 8.16402 127.406 31.1521
8790 2 9.98362 127.397 32.4344
8817 2 9.07355 129 29.8791
2544 1 2.70822 130.578 31.1768
8851 2 0.889316 130.585 29.8912
9279 2 1.80009 132.157 32.4701
9300 2 3.61755 132.171 29.9025
8803 2 4.52795 130.57 32.459
8805 2 6.34555 130.585 29.8912
2965 1 5.43653 132.164 31.188
9244 2 7.25632 132.157 32.4701
2515 1 8.16446 130.578 31.1768
8787 2 9.98419 130.57 32.459
6086 1 10.8928 132.164 31.188
9245 2 9.07379 132.171 29.9025
2563 1 0.886408 114.695 33.594
8822 2 2.70569 114.678 34.8764
2561 1 3.61501 116.281 33.612
2532 1 6.34265 114.695 33.594
8823 2 5.43441 116.265 34.8943
12118 2 10.8907 116.265 34.8943
8793 2 8.16193 114.678 34.8764
2533 1 9.07124 116.281 33.612
2564 1 3.616 119.453 33.6461
2562 1 0.88738 117.867 33.6294
8808 2 2.7069 117.852 34.9115
8806 2 5.43561 119.439 34.9282
2524 1 6.34362 117.867 33.6294
12119 2 10.8918 119.439 34.9282
2522 1 9.07223 119.453 33.6461
8792 2 8.16314 117.852 34.9115
2547 1 3.61696 122.626 33.6776
2549 1 0.888367 121.039 33.6622
8807 2 2.70807 121.027 34.9442
8809 2 5.43675 122.614 34.9596
2523 1 6.34461 121.039 33.6622
12110 2 10.893 122.614 34.9596
2525 1 9.0732 122.626 33.6776
8789 2 8.16431 121.027 34.9442
2550 1 3.61786 125.8 33.7064
8800 2 2.70916 124.202 34.9742
2548 1 0.889306 124.213 33.6924
8798 2 5.43778 125.79 34.9882
2513 1 6.34554 124.213 33.6924
12111 2 10.894 125.79 34.9882
2511 1 9.0741 125.8 33.7064
8788 2 8.1654 124.202 34.9742
2541 1 3.61866 128.975 33.7323
8799 2 2.71014 127.378 35.0014
2543 1 0.890159 127.388 33.7197
8801 2 5.4387 128.967 35.0139
2512 1 6.3464 127.388 33.7197
2514 1 9.0749 128.975 33.7323
8786 2 8.16638 127.378 35.0014
12109 2 10.8949 128.967 35.0139
8797 2 2.71099 130.555 35.0257
2542 1 0.890904 130.563 33.744
2964 1 3.61935 132.151 33.755
2506 1 6.34714 130.563 33.744
9229 2 5.43948 132.144 35.0366
8785 2 8.16722 130.555 35.0257
12542 2 10.8957 132.144 35.0366
2915 1 9.07559 132.151 33.755
8998 2 0.887664 114.643 37.4432
14631 1 2.70651 114.625 38.7276
2560 1 1.79664 116.248 36.1797
8996 2 3.61666 116.232 37.4609
8987 2 6.3439 114.643 37.4432
2520 1 4.52395 114.66 36.1621
15016 1 5.43566 116.216 38.7452
2518 1 7.25287 116.248 36.1797
2502 1 9.98019 114.66 36.1621
14601 1 8.16274 114.625 38.7276
8988 2 9.0729 116.232 37.4609
17844 1 10.8919 116.216 38.7452
8997 2 0.889386 117.821 37.478
15017 1 2.70853 117.806 38.7622
2545 1 1.79817 119.425 36.2133
8999 2 3.61832 119.411 37.4945
8984 2 6.34562 117.821 37.478
2519 1 4.52553 117.837 36.1968
15018 1 5.43759 119.397 38.7787
2521 1 7.2544 119.425 36.2133
14982 1 8.16477 117.806 38.7622
2501 1 9.98177 117.837 36.1968
8982 2 9.07456 119.411 37.4945
17842 1 10.8938 119.397 38.7787
8994 2 0.890971 121 37.5103
15013 1 2.71036 120.987 38.7945
2546 1 1.79957 122.602 36.2444
8992 2 3.61982 122.59 37.5256
8983 2 6.34721 121 37.5103
2509 1 4.527 121.014 36.2292
15011 1 5.43931 122.578 38.8096
2507 1 7.25581 122.602 36.2444
14981 1 8.1666 120.987 38.7945
2500 1 9.98324 121.014 36.2292
8985 2 9.07606 122.59 37.5256
17843 1 10.8956 122.578 38.8096
8993 2 0.892395 124.18 37.5401
15012 1 2.71197 124.169 38.8242
2539 1 1.80082 125.78 36.2729
8995 2 3.62116 125.77 37.554
8980 2 6.34863 124.18 37.5401
2508 1 4.52833 124.191 36.259
15014 1 5.44082 125.76 38.838
2510 1 7.25705 125.78 36.2729
14976 1 8.16821 124.169 38.8242
2499 1 9.98457 124.191 36.259
8978 2 9.0774 125.77 37.554
17840 1 10.8971 125.76 38.838
8991 2 0.893642 127.36 37.5671
15002 1 2.71337 127.35 38.8511
2540 1 1.8019 128.958 36.2985
8989 2 3.62232 128.95 37.5795
8979 2 6.34988 127.36 37.5671
15000 1 5.44211 128.941 38.8634
2505 1 4.5295 127.369 36.2861
2503 1 7.25814 128.958 36.2985
14975 1 8.16961 127.35 38.8511
2498 1 9.98574 127.369 36.2861
8981 2 9.07856 128.95 37.5795
17841 1 10.8984 128.941 38.8634
8990 2 0.89471 130.54 37.5912
15001 1 2.71456 130.532 38.875
2943 1 1.80281 132.137 36.321
9408 2 3.6233 132.13 37.602
8977 2 6.35095 130.54 37.5912
15003 1 5.4432 132.123 38.8859
2504 1 4.5305 130.548 36.3101
2914 1 7.25905 132.137 36.321
14962 1 8.1708 130.532 38.875
2497 1 9.98674 130.548 36.3101
17839 1 10.8994 132.123 38.8859
9394 2 9.07953 132.13 37.602
20639 2 1.80009 116.199 40.0251
14629 1 0.890394 114.59 41.2906
20229 2 2.71172 114.572 42.5692
15015 1 3.61969 116.182 41.3084
20621 2 5.44099 116.166 42.5871
14581 1 6.34663 114.59 41.2906
20243 2 4.52715 114.607 40.0074
20628 2 7.25633 116.199 40.0251
14978 1 9.07593 116.182 41.3084
20193 2 8.16796 114.572 42.5692
20195 2 9.98339 114.607 40.0074
23458 2 10.8972 116.166 42.5871
20640 2 1.80206 119.382 40.0588
15009 1 0.892687 117.775 41.3255
15007 1 3.62186 119.368 41.342
20626 2 4.52922 117.791 40.0423
14979 1 6.34893 117.775 41.3255
20624 2 7.2583 119.382 40.0588
14980 1 9.0781 119.368 41.342
20580 2 9.98546 117.791 40.0423
20636 2 1.80382 122.566 40.0899
15008 1 0.894726 120.961 41.3579
15010 1 3.62377 122.553 41.3732
20625 2 4.53109 120.974 40.0747
14973 1 6.35096 120.961 41.3579
20627 2 7.26006 122.566 40.0899
14971 1 9.08001 122.553 41.3732
20579 2 9.98732 120.974 40.0747
20637 2 1.80536 125.749 40.1183
14998 1 0.896514 124.146 41.3877
14996 1 3.62543 125.739 41.4016
20618 2 4.53274 124.157 40.1045
14972 1 6.35275 124.146 41.3877
20616 2 7.2616 125.749 40.1183
14974 1 9.08167 125.739 41.4016
20578 2 9.98898 124.157 40.1045
20632 2 1.80669 128.933 40.1438
14997 1 0.898057 127.332 41.4147
14999 1 3.62686 128.924 41.4271
20617 2 4.53417 127.341 40.1314
14959 1 6.3543 127.332 41.4147
20619 2 7.26293 128.933 40.1438
14957 1 9.0831 128.924 41.4271
20571 2 9.99041 127.341 40.1314
20633 2 1.80781 132.116 40.1663
14990 1 0.899366 130.517 41.4387
14988 1 3.62805 132.11 41.4496
14958 1 6.3556 130.517 41.4387
20604 2 4.53539 130.525 40.1554
20602 2 7.26405 132.116 40.1663
14960 1 9.08429 132.11 41.4496
20570 2 9.99163 130.525 40.1554
15005 1 1.80497 116.149 43.8692
20227 2 0.897577 114.536 45.1284
20620 2 3.62685 116.133 45.1469
14579 1 4.53187 114.554 43.8511
20174 2 6.35382 114.536 45.1284
14977 1 7.2612 116.149 43.8692
20573 2 9.08308 116.133 45.1469
14531 1 9.9881 114.554 43.8511
20622 2 2.71396 117.76 42.6045
15006 1 1.8072 119.339 43.9035
20610 2 0.899819 117.729 45.1646
20608 2 3.62897 119.325 45.1817
20623 2 5.44311 119.354 42.6212
14969 1 4.53424 117.744 43.8866
20574 2 6.35606 117.729 45.1646
14967 1 7.26344 119.339 43.9035
20577 2 8.1702 117.76 42.6045
14916 1 9.99048 117.744 43.8866
20575 2 9.08521 119.325 45.1817
23454 2 10.8994 119.354 42.6212
20614 2 2.71597 120.947 42.6372
14994 1 1.80918 122.529 43.935
20609 2 0.901833 120.921 45.198
20611 2 3.63087 122.516 45.2137
20612 2 5.445 122.541 42.6526
14968 1 4.53634 120.934 43.9196
20566 2 6.35807 120.921 45.198
14970 1 7.26542 122.529 43.935
20576 2 8.1722 120.947 42.6372
14915 1 9.99258 120.934 43.9196
20564 2 9.08711 122.516 45.2137
23455 2 10.9012 122.541 42.6526
20613 2 2.71774 124.135 42.6673
14995 1 1.8109 125.718 43.9638
20596 2 0.903617 124.112 45.2285
20594 2 3.63254 125.707 45.2427
20615 2 5.44665 125.728 42.6812
14955 1 4.53819 124.123 43.9498
20565 2 6.35986 124.112 45.2285
14953 1 7.26714 125.718 43.9638
20569 2 8.17397 124.135 42.6673
14914 1 9.99443 124.123 43.9498
20567 2 9.08878 125.707 45.2427
23450 2 10.9029 125.728 42.6812
20600 2 2.71927 127.322 42.6944
14986 1 1.81238 128.907 43.9895
20595 2 0.905172 127.303 45.256
20597 2 3.63399 128.898 45.2686
20598 2 5.44807 128.915 42.7069
14954 1 4.53979 127.312 43.977
20551 2 6.36141 127.303 45.256
14956 1 7.26862 128.907 43.9895
20568 2 8.17551 127.322 42.6944
14907 1 9.99603 127.312 43.977
20549 2 9.09022 128.898 45.2686
23451 2 10.9043 128.915 42.7069
20599 2 2.72058 130.509 42.7185
14987 1 1.81363 132.096 44.0121
20588 2 0.906505 130.493 45.2804
20586 2 3.63521 132.089 45.2913
20601 2 5.44927 132.103 42.7294
14940 1 4.54115 130.501 44.0012
20550 2 6.36274 130.493 45.2804
14938 1 7.26987 132.096 44.0121
20554 2 8.17682 130.509 42.7185
14906 1 9.99739 130.501 44.0012
20552 2 9.09145 132.089 45.2913
23449 2 10.9055 132.103 42.7294
20606 2 1.81381 116.1 47.7046
14563 1 0.906018 114.484 48.9652
14565 1 2.71837 114.519 46.4092
14963 1 3.6352 116.083 48.9845
14964 1 5.44766 116.116 46.4278
14512 1 6.36226 114.484 48.9652
20172 2 4.54086 114.501 47.6855
20572 2 7.27005 116.1 47.7046
14909 1 9.09143 116.083 48.9845
14529 1 8.17461 114.519 46.4092
20133 2 9.99709 114.501 47.6855
17824 1 10.9039 116.116 46.4278
14947 1 0.908089 117.683 49.0031
14965 1 2.72066 117.714 46.4458
20607 2 1.81582 119.296 47.7404
14945 1 3.63717 119.282 49.0209
14910 1 6.36433 117.683 49.0031
14966 1 5.44983 119.311 46.463
20562 2 4.54296 117.698 47.7229
20560 2 7.27206 119.296 47.7404
14911 1 9.09341 119.282 49.0209
14913 1 8.1769 117.714 46.4458
20514 2 9.9992 117.698 47.7229
17812 1 10.9061 119.311 46.463
14946 1 0.909973 120.881 49.0379
14951 1 2.7227 120.907 46.4795
20592 2 1.81764 122.492 47.7732
14902 1 6.36621 120.881 49.0379
14948 1 3.63896 122.479 49.0541
14949 1 5.45176 122.504 46.4953
20561 2 4.54488 120.894 47.7572
20563 2 7.27388 122.492 47.7732
17813 1 10.908 122.504 46.4953
14900 1 9.0952 122.479 49.0541
14912 1 8.17894 120.907 46.4795
20513 2 10.0011 120.894 47.7572
14932 1 0.911662 124.078 49.0695
14950 1 2.72451 124.101 46.5103
20593 2 1.81925 125.686 47.8028
14901 1 6.3679 124.078 49.0695
14930 1 3.64055 125.676 49.084
14952 1 5.45345 125.697 46.5246
20547 2 4.54659 124.089 47.7884
17804 1 10.9097 125.697 46.5246
14903 1 9.09679 125.676 49.084
14905 1 8.18075 124.101 46.5103
20512 2 10.0028 124.089 47.7884
20545 2 7.27548 125.686 47.8028
14931 1 0.913152 127.274 49.0977
14936 1 2.72609 127.293 46.538
20584 2 1.82065 128.88 47.8291
14887 1 6.36939 127.274 49.0977
14933 1 3.64194 128.872 49.1106
14934 1 5.45491 128.889 46.5507
20546 2 4.54809 127.283 47.8164
17805 1 10.9111 128.889 46.5507
14885 1 9.09818 128.872 49.1106
14904 1 8.18233 127.293 46.538
20505 2 10.0043 127.283 47.8164
20548 2 7.27689 128.88 47.8291
14924 1 0.914445 130.47 49.1226
14935 1 2.72744 130.486 46.5625
20585 2 1.82185 132.074 47.8521
14886 1 6.37068 130.47 49.1226
14922 1 3.64314 132.067 49.1338
14937 1 5.45615 132.082 46.5735
20533 2 4.54939 130.477 47.8411
17803 1 10.9124 132.082 46.5735
14888 1 9.09938 132.067 49.1338
14890 1 8.18368 130.486 46.5625
20504 2 10.0056 130.477 47.8411
20531 2 7.27809 132.074 47.8521
14943 1 1.82364 116.051 51.5396
20605 2 0.00175869 116.067 50.2604
20160 2 2.72892 114.467 50.2406
20557 2 5.458 116.067 50.2604
14510 1 4.55085 114.449 51.5194
14908 1 7.27988 116.051 51.5396
14480 1 10.0071 114.449 51.5194
20131 2 8.18516 114.467 50.2406
14944 1 1.82537 119.253 51.5773
20558 2 2.7308 117.668 50.2794
20590 2 0.00356852 119.268 50.2975
14898 1 4.55264 117.652 51.5589
20559 2 5.45981 119.268 50.2975
14856 1 10.0089 117.652 51.5589
14896 1 7.28161 119.253 51.5773
20511 2 8.18704 117.668 50.2794
14928 1 1.82695 122.454 51.6115
20543 2 2.73254 120.867 50.3148
20591 2 0.00522448 122.467 50.3313
14897 1 4.5543 120.854 51.5948
20541 2 5.46146 122.467 50.3313
14855 1 10.0105 120.854 51.5948
14899 1 7.28319 122.454 51.6115
20510 2 8.18877 120.867 50.3148
14929 1 1.82839 125.655 51.6422
20542 2 2.73411 124.066 50.3468
20582 2 0.00671543 125.665 50.3616
14883 1 4.55581 124.055 51.6273
20544 2 5.46295 125.665 50.3616
14854 1 10.0121 124.055 51.6273
14881 1 7.28463 125.655 51.6422
20503 2 8.19035 124.066 50.3468
14920 1 1.82968 128.854 51.6693
20529 2 2.73552 127.264 50.3754
20583 2 0.00803443 128.863 50.3885
14882 1 4.55717 127.254 51.6562
20527 2 5.46427 128.863 50.3885
14848 1 10.0134 127.254 51.6562
14884 1 7.28591 128.854 51.6693
20502 2 8.19175 127.264 50.3754
14921 1 1.83079 132.053 51.6929
20528 2 2.73675 130.461 50.4006
20581 2 0.00917745 132.06 50.4118
14871 1 4.55838 130.453 51.6816
20530 2 5.46542 132.06 50.4118
14847 1 10.0146 130.453 51.6816
14869 1 7.28703 132.053 51.6929
20492 2 8.19299 130.461 50.4006
14942 1 0.0128336 116.019 54.0932
20535 2 1.83617 116.004 55.3681
14500 1 2.7402 114.416 54.0722
20158 2 0.917823 114.433 52.7942
14893 1 5.46907 116.019 54.0932
20556 2 3.64676 116.035 52.8148
20120 2 4.56361 114.399 55.3466
20122 2 6.37406 114.433 52.7942
20506 2 7.29241 116.004 55.3681
20507 2 9.103 116.035 52.8148
14478 1 8.19644 114.416 54.0722
20113 2 10.0199 114.399 55.3466
14894 1 2.74168 117.622 54.1133
14926 1 0.0142789 119.225 54.1324
20536 2 1.8375 119.211 55.4079
20539 2 0.919436 117.638 52.8345
14895 1 5.47052 119.225 54.1324
20496 2 4.56496 117.608 55.3885
20508 2 6.37567 117.638 52.8345
20537 2 3.64833 119.239 52.8533
14853 1 8.19792 117.622 54.1133
20478 2 10.0212 117.608 55.3885
20494 2 7.29373 119.211 55.4079
20509 2 9.10456 119.239 52.8533
14879 1 2.74309 120.828 54.1505
14927 1 0.0156435 122.43 54.1677
20521 2 1.83875 122.417 55.4438
20538 2 0.920951 120.841 52.8711
14877 1 5.47188 122.43 54.1677
20495 2 4.56625 120.814 55.4263
20500 2 6.37719 120.841 52.8711
20540 2 3.64979 122.442 52.8881
14852 1 8.19933 120.828 54.1505
20477 2 10.0225 120.814 55.4263
20497 2 7.29499 122.417 55.4438
20498 2 9.10603 122.442 52.8881
14878 1 2.74441 124.032 54.184
14918 1 0.0169107 125.633 54.1992
20522 2 1.83993 125.622 55.4757
20525 2 0.922353 124.043 52.9041
14880 1 5.47315 125.633 54.1992
20485 2 4.56747 124.02 55.4602
20499 2 6.37859 124.043 52.9041
20523 2 3.65113 125.644 52.9192
14846 1 8.20065 124.032 54.184
20476 2 10.0237 124.02 55.4602
20483 2 7.29617 125.622 55.4757
20501 2 9.10737 125.644 52.9192
14867 1 2.74562 127.235 54.2136
14919 1 0.0180647 128.836 54.227
20515 2 1.84102 128.827 55.5038
20524 2 0.923628 127.244 52.9334
20526 2 3.65233 128.845 52.9467
20489 2 6.37987 127.244 52.9334
14865 1 5.4743 128.836 54.227
20484 2 4.56861 127.225 55.4902
20487 2 9.10857 128.845 52.9467
20486 2 7.29726 128.827 55.5038
20475 2 10.0248 127.225 55.4902
14845 1 8.20186 127.235 54.2136
20519 2 0.924765 130.445 52.959
20516 2 1.842 132.031 55.5281
14917 1 0.0190909 132.038 54.251
14866 1 2.74671 130.437 54.2395
20517 2 3.6534 132.046 52.9705
20488 2 6.381 130.445 52.959
20481 2 4.56965 130.429 55.5164
14868 1 5.47533 132.038 54.251
20490 2 9.10964 132.046 52.9705
20479 2 7.29824 132.031 55.5281
20474 2 10.0259 130.429 55.5164
14839 1 8.20295 130.437 54.2395
15191 1 1.849 115.957 59.1979
20832 2 0.0260825 115.973 57.9204
14498 1 0.930109 114.383 56.6241
20439 2 2.75363 114.367 57.8982
14892 1 3.65883 115.988 56.6459
20824 2 5.48232 115.973 57.9204
14795 1 4.57663 114.35 59.1753
14473 1 6.38635 114.383 56.6241
14849 1 9.11507 115.988 56.6459
15180 1 7.30524 115.957 59.1979
14747 1 10.0329 114.35 59.1753
20409 2 8.20987 114.367 57.8982
14875 1 0.931308 117.593 56.6667
15192 1 1.84997 119.169 59.2398
20830 2 0.0271918 119.183 57.9616
20825 2 2.75476 117.578 57.9415
14873 1 3.66002 119.197 56.6865
14850 1 6.38755 117.593 56.6667
15178 1 4.57761 117.563 59.2194
20826 2 5.48343 119.183 57.9616
15132 1 10.0338 117.563 59.2194
14851 1 9.11625 119.197 56.6865
15176 1 7.30621 119.169 59.2398
20790 2 8.211 117.578 57.9415
14874 1 0.932477 120.801 56.7052
20831 2 0.0282711 122.393 57.9985
20821 2 2.75585 120.788 57.9806
14876 1 3.66117 122.405 56.7229
15177 1 4.57858 120.775 59.2591
14843 1 6.38871 120.801 56.7052
20819 2 5.48451 122.393 57.9985
15131 1 10.0348 120.775 59.2591
14841 1 9.1174 122.405 56.7229
20789 2 8.21209 120.788 57.9806
14863 1 0.933604 124.009 56.7396
20828 2 0.0293101 125.601 58.0313
20820 2 2.75692 123.997 58.0154
14861 1 3.66227 125.612 56.7553
14842 1 6.38984 124.009 56.7396
20822 2 5.48555 125.601 58.0313
14844 1 9.1185 125.612 56.7553
20784 2 8.21315 123.997 58.0154
14862 1 0.934671 127.215 56.77
20829 2 0.0302899 128.809 58.0599
20810 2 2.75793 127.205 58.0461
14864 1 3.66329 128.818 56.7837
14836 1 6.39091 127.215 56.77
20808 2 5.48653 128.809 58.0599
14834 1 9.11953 128.818 56.7837
20783 2 8.21417 127.205 58.0461
14859 1 0.935656 130.421 56.7964
20827 2 0.0311896 132.016 58.0847
20809 2 2.75887 130.413 58.0728
14857 1 3.66423 132.024 56.8081
14835 1 6.39189 130.421 56.7964
20811 2 5.48743 132.016 58.0847
14837 1 9.12047 132.024 56.8081
20770 2 8.21511 130.413 58.0728
15190 1 0.0394439 115.927 61.7496
14781 1 2.76714 114.319 61.7264
20437 2 0.943985 114.335 60.4493
15173 1 5.49568 115.927 61.7496
20823 2 3.67259 115.942 60.4722
20389 2 6.40022 114.335 60.4493
20786 2 9.12883 115.942 60.4722
14745 1 8.22338 114.319 61.7264
15174 1 2.76798 117.534 61.7717
15186 1 0.0402836 119.142 61.7926
20817 2 0.944951 117.549 60.4939
15175 1 5.49652 119.142 61.7926
20787 2 6.40119 117.549 60.4939
20815 2 3.67355 119.156 60.5145
15129 1 8.22422 117.534 61.7717
20788 2 9.12978 119.156 60.5145
15188 1 1.85095 122.38 59.2772
15166 1 2.76883 120.749 61.8123
15187 1 0.0411471 122.356 61.8309
20816 2 0.945902 120.762 60.534
15164 1 5.49739 122.356 61.8309
20781 2 6.40214 120.762 60.534
20818 2 3.67449 122.368 60.5524
15179 1 7.30719 122.38 59.2772
15128 1 8.22507 120.749 61.8123
20779 2 9.13073 122.368 60.5524
15189 1 1.85191 125.591 59.3104
15165 1 2.7697 123.963 61.8485
15182 1 0.0420159 125.569 61.8648
20806 2 0.946844 123.974 60.5697
15170 1 4.57955 123.986 59.2944
15167 1 5.49825 125.569 61.8648
20780 2 6.40308 123.974 60.5697
20804 2 3.67543 125.58 60.5859
15130 1 10.0358 123.986 59.2944
15168 1 7.30815 125.591 59.3104
15121 1 8.22594 123.963 61.8485
20782 2 9.13167 125.58 60.5859
15184 1 1.85283 128.8 59.3394
15152 1 2.77057 127.176 61.8802
15183 1 0.042871 128.782 61.8944
20805 2 0.947763 127.185 60.6011
15169 1 4.5805 127.195 59.3254
15150 1 5.49911 128.782 61.8944
20767 2 6.404 127.185 60.6011
20807 2 3.67633 128.791 60.6152
15123 1 10.0367 127.195 59.3254
15171 1 7.30907 128.8 59.3394
15120 1 8.2268 127.176 61.8802
20765 2 9.13256 128.791 60.6152
15185 1 1.8537 132.009 59.3643
15151 1 2.7714 130.388 61.9076
15181 1 0.0436863 131.994 61.9197
20798 2 0.948637 130.396 60.6282
15156 1 4.58139 130.405 59.3524
15153 1 5.49992 131.994 61.9197
20766 2 6.40488 130.396 60.6282
20796 2 3.67717 132.002 60.6403
15122 1 10.0376 130.405 59.3524
15154 1 7.30993 132.009 59.3643
15106 1 8.22764 130.388 61.9076
20768 2 9.13341 132.002 60.6403
20812 2 0.0537986 115.881 65.5743
20813 2 1.86312 115.912 63.0235
14779 1 0.957758 114.288 64.2778
20373 2 2.78149 114.272 65.5505
15172 1 3.68629 115.897 64.3015
20772 2 5.51004 115.881 65.5743
14726 1 6.414 114.288 64.2778
20387 2 4.59079 114.303 63.0001
15125 1 9.14253 115.897 64.3015
20785 2 7.31935 115.912 63.0235
20337 2 8.23773 114.272 65.5505
20339 2 10.047 114.303 63.0001
15162 1 0.958545 117.506 64.3239
20773 2 2.78238 117.491 65.5969
20800 2 0.0547061 119.1 65.6183
20814 2 1.86399 119.128 63.0668
15126 1 6.41478 117.506 64.3239
15160 1 3.68708 119.115 64.3452
20774 2 5.51094 119.1 65.6183
20777 2 4.59167 117.52 63.0457
15127 1 9.14332 119.115 64.3452
20721 2 8.23862 117.491 65.5969
20724 2 10.0479 117.52 63.0457
20775 2 7.32023 119.128 63.0668
15161 1 0.959368 120.723 64.3654
20759 2 2.78327 120.71 65.6386
20801 2 0.0555835 122.319 65.6577
20802 2 1.86487 122.343 63.1055
15118 1 6.41561 120.723 64.3654
15163 1 3.6879 122.332 64.3844
20757 2 5.51182 122.319 65.6577
20776 2 4.59255 120.736 63.0867
15116 1 9.14414 122.332 64.3844
20720 2 8.2395 120.71 65.6386
20723 2 10.0488 120.736 63.0867
20778 2 7.32111 122.343 63.1055
15148 1 0.960194 123.94 64.4022
20758 2 2.78414 123.928 65.6756
20792 2 0.0564585 125.537 65.6924
20803 2 1.86575 125.558 63.1397
15117 1 6.41643 123.94 64.4022
15146 1 3.68873 125.548 64.4189
20760 2 5.5127 125.537 65.6924
20763 2 4.59343 123.951 63.1231
15119 1 9.14497 125.548 64.4189
20713 2 8.24038 123.928 65.6756
20722 2 10.0497 123.951 63.1231
20761 2 7.32199 125.558 63.1397
15147 1 0.961031 127.156 64.4345
20744 2 2.78501 127.146 65.708
20793 2 0.0573241 128.755 65.7226
20794 2 1.86661 128.773 63.1694
15103 1 6.41727 127.156 64.4345
15149 1 3.68957 128.764 64.4489
20742 2 5.51356 128.755 65.7226
20762 2 4.5943 127.166 63.1551
15101 1 9.1458 128.764 64.4489
20712 2 8.24125 127.146 65.708
20715 2 10.0505 127.166 63.1551
20764 2 7.32285 128.773 63.1694
15140 1 0.961856 130.372 64.4623
20743 2 2.78586 130.363 65.736
20791 2 0.0581548 131.972 65.7484
20795 2 1.86743 131.987 63.1949
15102 1 6.41809 130.372 64.4623
15138 1 3.69037 131.98 64.4746
20745 2 5.51439 131.972 65.7484
20748 2 4.59514 130.38 63.1827
15104 1 9.14661 131.98 64.4746
20698 2 8.2421 130.363 65.736
20714 2 10.0514 130.38 63.1827
20746 2 7.32367 131.987 63.1949
15158 1 1.87691 115.868 66.8542
20371 2 0.972241 114.24 68.0997
20771 2 3.70085 115.851 68.1237
14724 1 4.60451 114.257 66.8305
20320 2 6.42848 114.24 68.0997
15124 1 7.33315 115.868 66.8542
20717 2 9.15709 115.851 68.1237
14685 1 10.0607 114.257 66.8305
15159 1 1.87773 119.088 66.8988
20755 2 0.973207 117.462 68.1466
15114 1 4.60544 117.478 66.8771
20718 2 6.42945 117.462 68.1466
20753 2 3.70179 119.072 68.1683
15066 1 10.0617 117.478 66.8771
15112 1 7.33397 119.088 66.8988
20719 2 9.15803 119.072 68.1683
15144 1 1.87856 122.308 66.9386
20754 2 0.97414 120.683 68.1888
15113 1 4.60626 120.698 66.9193
20710 2 6.43038 120.683 68.1888
20756 2 3.70273 122.294 68.2082
15065 1 10.0625 120.698 66.9193
15115 1 7.33479 122.308 66.9386
20708 2 9.15896 122.294 68.2082
15145 1 1.87941 125.528 66.9736
20740 2 0.975075 123.905 68.2263
15099 1 4.6071 123.918 66.9567
20709 2 6.43131 123.905 68.2263
20738 2 3.70366 125.515 68.2432
15064 1 10.0633 123.918 66.9567
15097 1 7.33565 125.528 66.9736
20711 2 9.1599 125.515 68.2432
15136 1 1.88027 128.747 67.004
20739 2 0.976009 127.126 68.2591
15098 1 4.60796 127.137 66.9893
20695 2 6.43225 127.126 68.2591
20741 2 3.70459 128.736 68.2737
15057 1 10.0642 127.137 66.9893
15100 1 7.33651 128.747 67.004
20693 2 9.16083 128.736 68.2737
15137 1 1.88111 131.966 67.0299
20732 2 0.976919 130.347 68.2873
15085 1 4.60882 130.356 67.0175
20694 2 6.43316 130.347 68.2873
20730 2 3.70547 131.957 68.2998
15056 1 10.0651 130.356 67.0175
15083 1 7.33735 131.966 67.0299
20696 2 9.16171 131.957 68.2998
15157 1 0.0664446 115.838 69.4121
20751 2 1.89122 115.819 70.6694
14710 1 0.978457 114.195 71.9631
14712 1 2.79407 114.227 69.3879
15108 1 3.70715 115.808 71.9873
15109 1 5.52268 115.838 69.4121
14674 1 6.4347 114.195 71.9631
20318 2 4.61878 114.207 70.6453
15059 1 9.16338 115.808 71.9873
20716 2 7.34746 115.819 70.6694
14683 1 8.25031 114.227 69.3879
20288 2 10.075 114.207 70.6453
15091 1 0.979599 117.42 72.0103
15110 1 2.79505 117.449 69.4351
15142 1 0.0674116 119.06 69.457
20752 2 1.89232 119.043 70.7141
15060 1 6.43584 117.42 72.0103
15089 1 3.7083 119.033 72.0322
15111 1 5.52365 119.06 69.457
20706 2 4.6199 117.431 70.6924
15061 1 9.16454 119.033 72.0322
15063 1 8.25129 117.449 69.4351
20664 2 10.0761 117.431 70.6924
20704 2 7.34856 119.043 70.7141
15090 1 0.980773 120.645 72.0528
15095 1 2.79602 120.672 69.4776
15143 1 0.0683909 122.283 69.497
20736 2 1.89341 122.268 70.7541
15052 1 6.43701 120.645 72.0528
15092 1 3.70949 122.258 72.0723
15093 1 5.52463 122.283 69.497
20705 2 4.62098 120.656 70.7347
15050 1 9.16573 122.258 72.0723
15062 1 8.25226 120.672 69.4776
20663 2 10.0772 120.656 70.7347
20707 2 7.34965 122.268 70.7541
15077 1 0.981983 123.871 72.0906
15094 1 2.79701 123.895 69.5152
15134 1 0.0693882 125.506 69.5322
20737 2 1.89449 125.493 70.7894
15051 1 6.43822 123.871 72.0906
15075 1 3.71071 125.484 72.1077
15096 1 5.52563 125.506 69.5322
20691 2 4.62207 123.88 70.7723
15053 1 9.16695 125.484 72.1077
15055 1 8.25325 123.895 69.5152
20662 2 10.0783 123.88 70.7723
20689 2 7.35073 125.493 70.7894
15076 1 0.983197 127.097 72.1236
15081 1 2.79801 127.117 69.5481
15135 1 0.0703797 128.728 69.5629
20728 2 1.89555 128.717 70.82
15041 1 6.43944 127.097 72.1236
15078 1 3.71191 128.71 72.1384
15079 1 5.52662 128.728 69.5629
20690 2 4.62314 127.105 70.8053
15039 1 9.16815 128.71 72.1384
15054 1 8.25424 127.117 69.5481
20656 2 10.0794 127.105 70.8053
20692 2 7.35178 128.717 70.82
15071 1 0.984367 130.323 72.1521
15080 1 2.79898 130.34 69.5765
15133 1 0.0713282 131.951 69.589
20729 2 1.89654 131.941 70.8463
15040 1 6.44061 130.323 72.1521
15069 1 3.71304 131.935 72.1647
15082 1 5.52757 131.951 69.589
20679 2 4.62417 130.329 70.8337
15042 1 9.16928 131.935 72.1647
15044 1 8.25522 130.34 69.5765
20655 2 10.0804 130.329 70.8337
20677 2 7.35278 131.941 70.8463
15087 1 1.83291 115.785 74.639
20750 2 0.0796912 115.786 73.2011
20306 2 0.968231 114.147 75.6524
20308 2 2.80717 114.173 73.1771
20700 2 3.69693 115.761 75.6761
20701 2 5.53593 115.786 73.2011
14672 1 4.56073 114.172 74.615
20281 2 6.42447 114.147 75.6524
15058 1 7.28915 115.785 74.639
20657 2 9.15317 115.761 75.6761
14665 1 10.017 114.172 74.615
20286 2 8.26341 114.173 73.1771
15088 1 1.83381 119.011 74.6836
20683 2 0.969437 117.376 75.6989
20702 2 2.80844 117.4 73.224
20734 2 0.0809599 119.014 73.2458
15048 1 4.56143 117.398 74.6619
20658 2 6.42568 117.376 75.6989
20681 2 3.69823 118.991 75.7204
20703 2 5.5372 119.014 73.2458
15030 1 10.0177 117.398 74.6619
15046 1 7.29004 119.011 74.6836
20659 2 9.15446 118.991 75.7204
20661 2 8.26468 117.4 73.224
15073 1 1.83504 122.238 74.7236
20682 2 0.970813 120.605 75.7409
20687 2 2.80972 120.628 73.2663
20735 2 0.0822365 122.242 73.2857
15047 1 4.56251 120.624 74.7042
20651 2 6.42705 120.605 75.7409
20684 2 3.69967 122.221 75.7602
20685 2 5.53847 122.242 73.2857
15029 1 10.0187 120.624 74.7042
15049 1 7.29128 122.238 74.7236
20649 2 9.15591 122.221 75.7602
20660 2 8.26595 120.628 73.2663
15074 1 1.83648 125.466 74.7589
20671 2 0.972304 123.836 75.7784
20686 2 2.81099 123.855 73.304
20726 2 0.083509 125.469 73.3211
15037 1 4.56386 123.852 74.7418
20650 2 6.42854 123.836 75.7784
20669 2 3.70119 125.451 75.7954
20688 2 5.53975 125.469 73.3211
15028 1 10.0201 123.852 74.7418
15035 1 7.29272 125.466 74.7589
20652 2 9.15742 125.451 75.7954
20654 2 8.26723 123.855 73.304
15067 1 1.83798 128.695 74.7896
20670 2 0.973824 127.066 75.8113
20675 2 2.81225 127.083 73.337
20727 2 0.0847395 128.697 73.3518
15036 1 4.56535 127.08 74.7748
20644 2 6.43006 127.066 75.8113
20672 2 3.70269 128.681 75.8261
20673 2 5.54098 128.697 73.3518
15027 1 10.0216 127.08 74.7748
15038 1 7.29422 128.695 74.7896
20642 2 9.15892 128.681 75.8261
20653 2 8.26849 127.083 73.337
15068 1 1.83944 131.924 74.8159
20667 2 0.975286 130.297 75.8398
20674 2 2.81344 130.311 73.3655
20725 2 0.0858838 131.924 73.3781
15033 1 4.56684 130.309 74.8033
20643 2 6.43152 130.297 75.8398
20665 2 3.70409 131.912 75.8524
20676 2 5.54212 131.924 73.3781
15026 1 10.0231 130.309 74.8033
15031 1 7.29568 131.924 74.8159
20645 2 9.16033 131.912 75.8524
20647 2 8.26968 130.311 73.3655
2879 1 1.78927 132.343 -2.37854
9177 2 0.90062 133.907 -0.923009
9185 2 2.71183 133.921 -3.43033
9183 2 3.62945 132.339 -0.935108
2866 1 4.51627 133.91 -2.36644
9147 2 6.35686 133.907 -0.923009
9184 2 5.44079 132.355 -3.44232
2868 1 7.24551 132.343 -2.37854
2820 1 9.97251 133.91 -2.36644
9146 2 9.08569 132.339 -0.935108
9150 2 8.16807 133.921 -3.43033
12456 2 10.897 132.355 -3.44232
2880 1 1.78723 135.477 -2.35548
9176 2 0.899339 137.042 -0.901999
9181 2 2.71041 137.054 -3.40947
9175 2 3.62807 135.475 -0.911974
2865 1 4.5146 137.044 -2.34559
9141 2 6.35558 137.042 -0.901999
9186 2 5.43919 135.487 -3.41938
2864 1 7.24347 135.477 -2.35548
2819 1 9.97084 137.044 -2.34559
9148 2 9.08431 135.475 -0.911974
9149 2 8.16665 137.054 -3.40947
12454 2 10.8954 135.487 -3.41938
2876 1 1.78585 138.611 -2.33672
9166 2 0.898294 140.177 -0.885202
9180 2 2.70931 140.185 -3.39276
9178 2 3.6269 138.61 -0.893077
2877 1 1.78481 141.744 -2.3221
9164 2 3.62599 141.745 -0.878376
2858 1 4.51341 140.178 -2.32889
9140 2 6.35453 140.177 -0.885202
9179 2 5.43794 138.62 -3.40059
2867 1 7.24208 138.611 -2.33672
2856 1 7.24105 141.744 -2.3221
9182 2 5.43698 141.751 -3.38597
2818 1 9.96965 140.178 -2.32889
9139 2 9.08314 138.61 -0.893077
9144 2 8.16555 140.185 -3.39276
12455 2 10.8942 138.62 -3.40059
9142 2 9.08222 141.745 -0.878376
12452 2 10.8932 141.751 -3.38597
9165 2 0.897505 143.312 -0.8726
9170 2 2.70849 143.317 -3.38022
2872 1 1.78408 144.878 -2.31165
9167 2 3.62533 144.879 -0.867873
2857 1 4.51253 143.311 -2.31636
9127 2 6.35374 143.312 -0.8726
2859 1 7.24032 144.878 -2.31165
9168 2 5.4363 144.883 -3.37551
2811 1 9.96877 143.311 -2.31636
9143 2 8.16473 143.317 -3.38022
9125 2 9.08157 144.879 -0.867873
12453 2 10.8925 144.883 -3.37551
9158 2 0.896977 146.447 -0.864196
9169 2 2.70794 146.449 -3.37185
2873 1 1.78364 148.011 -2.30538
9156 2 3.62493 148.014 -0.86157
2844 1 4.51194 146.444 -2.30799
9126 2 6.35322 146.447 -0.864196
9171 2 5.43589 148.014 -3.36924
2842 1 7.23988 148.011 -2.30538
2810 1 9.96818 146.444 -2.30799
9130 2 8.16418 146.449 -3.37185
9128 2 9.08117 148.014 -0.86157
12451 2 10.8921 148.014 -3.36924
9157 2 0.896713 149.581 -0.859994
9159 2 2.70766 149.58 -3.36767
191 1 1.7835 151.144 -2.30329
6327 2 3.6248 151.148 -0.859469
2843 1 4.51165 149.577 -2.30381
9109 2 6.35295 149.581 -0.859994
6328 2 5.43575 151.146 -3.36715
180 1 7.23973 151.144 -2.30329
2795 1 9.96789 149.577 -2.30381
9129 2 8.1639 149.58 -3.36767
6290 2 9.08104 151.148 -0.859469
9600 2 10.892 151.146 -3.36715
2862 1 2.71568 133.897 0.299961
9173 2 1.80875 132.322 1.61976
2861 1 5.4446 132.328 0.287831
9137 2 4.5361 133.891 1.63192
9145 2 7.26498 132.322 1.61976
2817 1 8.17192 133.897 0.299961
9084 2 9.99233 133.891 1.63192
5950 1 10.9008 132.328 0.287831
2854 1 2.71431 137.034 0.321006
9174 2 1.80727 135.46 1.64301
9162 2 1.80605 138.599 1.66201
2863 1 5.44308 135.466 0.311018
9136 2 4.53475 137.03 1.65304
9135 2 7.26351 135.46 1.64301
9138 2 7.26229 138.599 1.66201
2852 1 5.44184 138.603 0.329937
2816 1 8.17055 137.034 0.321006
9083 2 9.99098 137.03 1.65304
5946 1 10.8993 135.466 0.311018
5947 1 10.8981 138.603 0.329937
2853 1 2.71321 140.171 0.337818
9163 2 1.80509 141.737 1.67677
9123 2 4.53366 140.168 1.66992
9121 2 7.26133 141.737 1.67677
2855 1 5.44088 141.739 0.344648
2809 1 8.16945 140.171 0.337818
9082 2 9.98989 140.168 1.66992
5942 1 10.8971 141.739 0.344648
2840 1 2.71239 143.307 0.350429
9154 2 1.80441 144.875 1.68731
9122 2 4.53284 143.306 1.68257
9124 2 7.26065 144.875 1.68731
2838 1 5.4402 144.876 0.355159
2808 1 8.16862 143.307 0.350429
9075 2 9.98907 143.306 1.68257
5943 1 10.8964 144.876 0.355159
2839 1 2.71184 146.444 0.358838
9155 2 1.804 148.013 1.69364
9108 2 4.53229 146.444 1.691
2841 1 5.43978 148.012 0.361465
9106 2 7.26024 148.013 1.69364
2794 1 8.16808 146.444 0.358838
9074 2 9.98853 146.444 1.691
5941 1 10.896 148.012 0.361465
2829 1 2.71156 149.58 0.363042
6317 2 1.80386 151.151 1.69574
9107 2 4.53202 149.582 1.69522
173 1 5.43965 151.148 0.363568
6289 2 7.2601 151.151 1.69574
2793 1 8.1678 149.58 0.363042
9059 2 9.98826 149.582 1.69522
3262 1 10.8959 151.148 0.363568
2850 1 0.897029 133.883 2.89853
2860 1 3.62595 132.312 2.88635
9133 2 2.71541 133.877 4.19957
2847 1 1.80413 135.441 5.49202
2848 1 3.62441 135.453 2.90965
2814 1 6.35327 133.883 2.89853
2802 1 4.533 133.87 5.4809
2800 1 7.26037 135.441 5.49202
9134 2 5.44279 135.448 4.21069
2813 1 9.08219 132.312 2.88635
2748 1 9.98924 133.87 5.4809
9081 2 8.17165 133.877 4.19957
12424 2 10.899 135.448 4.21069
2815 1 9.08065 135.453 2.90965
2849 1 0.895623 137.023 2.9197
9119 2 2.714 137.018 4.22074
2832 1 1.80284 138.584 5.51108
2851 1 3.62314 138.593 2.92869
2806 1 6.35186 137.023 2.9197
2801 1 4.53157 137.013 5.50208
2803 1 7.25908 138.584 5.51108
9117 2 5.44152 138.589 4.22974
2747 1 9.98781 137.013 5.50208
9080 2 8.17024 137.018 4.22074
2804 1 9.07938 138.593 2.92869
12425 2 10.8978 138.589 4.22974
2836 1 0.894497 140.163 2.93661
9118 2 2.71287 140.16 4.23766
2833 1 1.80185 141.728 5.52588
2834 1 3.62216 141.733 2.94347
2805 1 6.35074 140.163 2.93661
2787 1 4.53043 140.156 5.51901
2785 1 7.25809 141.728 5.52588
9120 2 5.44053 141.731 4.24453
2746 1 9.98667 140.156 5.51901
9073 2 8.16911 140.16 4.23766
12416 2 10.8968 141.731 4.24453
2807 1 9.0784 141.733 2.94347
2835 1 0.893654 143.302 2.94927
9104 2 2.71203 143.301 4.25034
2837 1 3.62146 144.872 2.95402
2824 1 1.80115 144.87 5.53644
2791 1 6.34989 143.302 2.94927
2786 1 4.52958 143.299 5.53169
9102 2 5.43983 144.872 4.25509
2788 1 7.25739 144.87 5.53644
2739 1 9.98582 143.299 5.53169
9072 2 8.16827 143.301 4.25034
2789 1 9.0777 144.872 2.95402
12417 2 10.8961 144.872 4.25509
2828 1 0.893094 146.442 2.95771
9103 2 2.71147 146.442 4.25878
2826 1 3.62104 148.012 2.96035
2825 1 1.80073 148.013 5.54278
2790 1 6.34933 146.442 2.95771
2772 1 4.52902 146.442 5.54014
9105 2 5.43941 148.013 4.26142
2770 1 7.25697 148.013 5.54278
12415 2 10.8957 148.013 4.26142
2792 1 9.07728 148.012 2.96035
2738 1 9.98526 146.442 5.54014
9058 2 8.16771 146.442 4.25878
2827 1 0.892815 149.581 2.96193
9093 2 2.71119 149.583 4.263
172 1 3.6209 151.151 2.96246
158 1 1.8006 151.156 5.54489
2773 1 6.34905 149.581 2.96193
2771 1 4.52875 149.585 5.54436
6276 2 5.43927 151.154 4.26353
124 1 7.25683 151.156 5.54489
9057 2 8.16743 149.583 4.263
2724 1 9.98499 149.585 5.54436
125 1 9.07714 151.151 2.96246
9580 2 10.8955 151.154 4.26353
2798 1 2.71258 133.857 8.05762
9115 2 0.894837 133.864 6.77148
9113 2 3.62222 135.436 6.78257
9078 2 6.35107 133.864 6.77148
2799 1 5.43997 135.43 8.0687
2745 1 8.16882 133.857 8.05762
5902 1 10.8962 135.43 8.0687
9079 2 9.07846 135.436 6.78257
2783 1 2.71118 137.003 8.07873
9114 2 0.893432 137.008 6.7926
9116 2 3.62096 138.581 6.80158
9070 2 6.34967 137.008 6.7926
2781 1 5.43871 138.576 8.08769
2744 1 8.16742 137.003 8.07873
5903 1 10.8949 138.576 8.08769
9068 2 9.0772 138.581 6.80158
2782 1 2.71007 140.149 8.0956
9100 2 0.892316 140.153 6.80949
9098 2 3.61999 141.725 6.81635
9069 2 6.34855 140.153 6.80949
2784 1 5.43774 141.722 8.10246
2737 1 8.16631 140.149 8.0956
9071 2 9.07622 141.725 6.81635
5894 1 10.894 141.722 8.10246
2768 1 2.70925 143.295 8.10825
9099 2 0.891487 143.297 6.82215
9101 2 3.6193 144.87 6.8269
9055 2 6.34773 143.297 6.82215
2766 1 5.43706 144.868 8.113
2736 1 8.16549 143.295 8.10825
9053 2 9.07554 144.87 6.8269
5895 1 10.8933 144.868 8.113
2767 1 2.70871 146.441 8.11669
9092 2 0.89094 146.442 6.83059
9090 2 3.61889 148.014 6.83323
9054 2 6.34718 146.442 6.83059
2769 1 5.43666 148.014 8.11933
2723 1 8.16495 146.441 8.11669
9056 2 9.07513 148.014 6.83323
5893 1 10.8929 148.014 8.11933
2757 1 2.70844 149.587 8.12091
9091 2 0.890672 149.586 6.83481
6275 2 3.61876 151.158 6.83534
9040 2 6.34691 149.586 6.83481
109 1 5.43653 151.16 8.12145
2722 1 8.16468 149.587 8.12091
6221 2 9.075 151.158 6.83534
3229 1 10.8928 151.16 8.12145
2779 1 0.892314 133.845 10.6321
9062 2 2.71054 133.839 11.9176
9112 2 1.80188 135.425 9.35555
2777 1 3.61973 135.419 10.6431
9066 2 4.53071 133.851 9.34452
2742 1 6.34855 133.845 10.6321
9064 2 7.25811 135.425 9.35555
9063 2 5.43799 135.414 11.9285
9024 2 9.98695 133.851 9.34452
9021 2 8.16678 133.839 11.9176
2743 1 9.07597 135.419 10.6431
12358 2 10.8942 135.414 11.9285
2778 1 0.89098 136.994 10.653
9047 2 2.70927 136.989 11.9384
9096 2 1.80066 138.572 9.37444
2780 1 3.61854 138.568 10.6619
9065 2 4.52935 136.999 9.36552
2734 1 6.34722 136.994 10.653
9067 2 7.2569 138.572 9.37444
9045 2 5.43686 138.564 11.9472
9023 2 9.98559 136.999 9.36552
9020 2 8.16551 136.989 11.9384
2732 1 9.07478 138.568 10.6619
12359 2 10.8931 138.564 11.9472
2764 1 0.889931 140.143 10.6698
9046 2 2.70828 140.14 11.955
9097 2 1.79973 141.72 9.38914
2762 1 3.61763 141.718 10.6766
9051 2 4.52828 140.146 9.38232
2733 1 6.34617 140.143 10.6698
9049 2 7.25597 141.72 9.38914
9048 2 5.436 141.715 11.9618
9022 2 9.98452 140.146 9.38232
9014 2 8.16452 140.14 11.955
2735 1 9.07387 141.718 10.6766
12350 2 10.8922 141.715 11.9618
2763 1 0.889157 143.292 10.6824
9035 2 2.70755 143.291 11.9675
9088 2 1.79907 144.868 9.39965
2765 1 3.61699 144.867 10.6871
9050 2 4.52749 143.294 9.39492
2720 1 6.3454 143.292 10.6824
9052 2 7.25531 144.868 9.39965
9033 2 5.4354 144.866 11.9722
9016 2 9.98373 143.294 9.39492
9013 2 8.16379 143.291 11.9675
2718 1 9.07323 144.867 10.6871
12351 2 10.8916 144.866 11.9722
2756 1 0.888651 146.441 10.6908
9034 2 2.70707 146.441 11.9759
9089 2 1.79869 148.015 9.40596
2754 1 3.61662 148.016 10.6934
9039 2 4.52697 146.441 9.40333
2719 1 6.34489 146.441 10.6908
9037 2 7.25493 148.015 9.40596
9036 2 5.43504 148.017 11.9785
9015 2 9.98321 146.441 9.40333
9007 2 8.16331 146.441 11.9759
2721 1 9.07285 148.016 10.6934
12349 2 10.8913 148.017 11.9785
2755 1 0.888408 149.59 10.695
9028 2 2.70684 149.592 11.9801
6255 2 1.79857 151.163 9.40808
108 1 3.6165 151.165 10.6955
9038 2 4.52672 149.589 9.40754
2709 1 6.34465 149.59 10.695
6220 2 7.25481 151.163 9.40808
6205 2 5.43494 151.167 11.9806
9008 2 9.98295 149.589 9.40754
9006 2 8.16308 149.592 11.9801
53 1 9.07274 151.165 10.6955
9518 2 10.8912 151.167 11.9806
2726 1 2.70859 133.821 15.778
9043 2 0.890569 133.827 14.4903
2776 1 1.7997 135.408 13.2163
9041 2 3.61809 135.403 14.5011
2730 1 4.52847 133.832 13.2054
9018 2 6.34681 133.827 14.4903
2727 1 5.43614 135.398 15.7887
2728 1 7.25594 135.408 13.2163
5830 1 10.8924 135.398 15.7887
2697 1 8.16482 133.821 15.778
2700 1 9.9847 133.832 13.2054
9019 2 9.07433 135.403 14.5011
2712 1 2.70753 136.975 15.7984
9042 2 0.889437 136.98 14.5108
2760 1 1.79862 138.561 13.2349
9044 2 3.61708 138.557 14.5196
2729 1 4.52725 136.984 13.2261
9011 2 6.34567 136.98 14.5108
2710 1 5.4352 138.553 15.8071
2731 1 7.25486 138.561 13.2349
5831 1 10.8914 138.553 15.8071
2696 1 8.16376 136.975 15.7984
2699 1 9.98349 136.984 13.2261
9009 2 9.07332 138.557 14.5196
9029 2 3.61632 141.71 14.534
2711 1 2.7067 140.131 15.8148
9031 2 0.888553 140.134 14.5273
2761 1 1.79779 141.713 13.2495
2713 1 5.43449 141.708 15.8214
2716 1 4.52629 140.137 13.2427
9010 2 6.34479 140.134 14.5273
2714 1 7.25403 141.713 13.2495
9012 2 9.07256 141.71 14.534
5822 1 10.8907 141.708 15.8214
2693 1 8.16294 140.131 15.8148
2698 1 9.98253 140.137 13.2427
9032 2 3.61579 144.864 14.5443
9030 2 0.887905 143.287 14.5396
2704 1 2.7061 143.286 15.8271
2752 1 1.79722 144.865 13.2599
2702 1 5.434 144.864 15.8317
9004 2 6.34414 143.287 14.5396
2715 1 4.52559 143.289 13.2552
2717 1 7.25346 144.865 13.2599
9002 2 9.07202 144.864 14.5443
2695 1 9.98183 143.289 13.2552
2692 1 8.16234 143.286 15.8271
5823 1 10.8902 144.864 15.8317
9025 2 3.61548 148.018 14.5505
2753 1 1.79688 148.017 13.2661
9027 2 0.887485 146.441 14.5479
2703 1 2.70571 146.441 15.8353
2705 1 5.43371 148.019 15.8379
2706 1 7.25312 148.017 13.2661
9003 2 6.34372 146.441 14.5479
2708 1 4.52514 146.441 13.2635
5821 1 10.8899 148.019 15.8379
9005 2 9.07172 148.018 14.5505
2694 1 9.98138 146.441 13.2635
2690 1 8.16194 146.441 15.8353
9026 2 0.887286 149.595 14.5521
2701 1 2.70552 149.597 15.8395
87 1 1.79678 151.17 13.2682
6204 2 3.61539 151.172 14.5526
2707 1 4.52492 149.593 13.2677
9001 2 6.34352 149.595 14.5521
37 1 5.43363 151.174 15.84
52 1 7.25302 151.17 13.2682
2689 1 8.16176 149.597 15.8395
2691 1 9.98116 149.593 13.2677
6161 2 9.07163 151.172 14.5526
3158 1 10.8899 151.174 15.84
3070 1 0.888942 133.809 18.35
9384 2 1.79843 135.393 17.0731
3068 1 3.6166 135.388 18.3605
9370 2 4.52706 133.815 17.0625
3047 1 6.34518 133.809 18.35
9368 2 7.25467 135.393 17.0731
9324 2 9.9833 133.815 17.0625
3048 1 9.07284 135.388 18.3605
3069 1 0.888077 136.967 18.37
9380 2 1.79758 138.549 17.0913
3071 1 3.61584 138.546 18.3785
9369 2 4.5261 136.971 17.0827
3043 1 6.34432 136.967 18.37
9371 2 7.25382 138.549 17.0913
9323 2 9.98234 136.971 17.0827
3041 1 9.07208 138.546 18.3785
3063 1 0.887408 140.125 18.3861
9381 2 1.79694 141.706 17.1055
3061 1 3.61526 141.704 18.3926
9362 2 4.52536 140.128 17.0989
3042 1 6.34365 140.125 18.3861
9360 2 7.25318 141.706 17.1055
9322 2 9.9816 140.128 17.0989
3044 1 9.0715 141.704 18.3926
3062 1 0.886921 143.283 18.3982
9376 2 1.7965 144.863 17.1157
3064 1 3.61486 144.862 18.4028
9361 2 4.52481 143.284 17.1111
3031 1 6.34316 143.283 18.3982
9363 2 7.25273 144.863 17.1157
9315 2 9.98105 143.284 17.1111
3029 1 9.0711 144.862 18.4028
3056 1 0.886606 146.441 18.4063
9377 2 1.79624 148.02 17.1218
3054 1 3.61463 148.021 18.4089
3030 1 6.34284 146.441 18.4063
9348 2 4.52446 146.441 17.1193
9346 2 7.25248 148.02 17.1218
9314 2 9.9807 146.441 17.1193
3032 1 9.07087 148.021 18.4089
3055 1 0.88646 149.6 18.4104
6527 2 1.79617 151.177 17.1239
384 1 3.61457 151.179 18.411
3013 1 6.3427 149.6 18.4104
9347 2 4.5243 149.598 17.1234
6516 2 7.25241 151.177 17.1239
9299 2 9.98054 149.598 17.1234
358 1 9.07081 151.179 18.411
9366 2 2.70757 133.803 19.6341
9354 2 0.888387 133.791 22.205
3067 1 1.79736 135.377 20.9315
9352 2 3.61623 135.372 22.2152
9367 2 5.43529 135.383 19.6445
3039 1 4.52582 133.797 20.9212
9318 2 6.34463 133.791 22.205
3037 1 7.2536 135.377 20.9315
9321 2 8.16381 133.803 19.6341
2988 1 9.98206 133.797 20.9212
9319 2 9.07247 135.372 22.2152
12642 2 10.8915 135.383 19.6445
9358 2 2.70682 136.962 19.6539
9353 2 0.887866 136.953 22.2244
3059 1 1.79679 138.538 20.9492
9355 2 3.61577 138.535 22.2327
9356 2 5.43463 138.542 19.6624
3038 1 4.52518 136.958 20.9409
9310 2 6.3441 136.953 22.2244
3040 1 7.25303 138.538 20.9492
9320 2 8.16305 136.962 19.6539
2987 1 9.98142 136.958 20.9409
9308 2 9.07201 138.535 22.2327
12643 2 10.8909 138.542 19.6624
9357 2 2.70624 140.122 19.6698
9340 2 0.887467 140.116 22.2401
3060 1 1.79637 141.699 20.9631
9338 2 3.61543 141.697 22.2464
9359 2 5.43413 141.702 19.6763
3027 1 4.52468 140.119 20.9567
9309 2 6.34371 140.116 22.2401
3025 1 7.25261 141.699 20.9631
9313 2 8.16248 140.122 19.6698
2986 1 9.98092 140.119 20.9567
9311 2 9.07167 141.697 22.2464
12638 2 10.8904 141.702 19.6763
9344 2 2.70582 143.282 19.6818
9339 2 0.887178 143.279 22.2518
3052 1 1.79608 144.861 20.9731
9341 2 3.61519 144.86 22.2563
9342 2 5.43378 144.861 19.6864
3026 1 4.52433 143.28 20.9686
9295 2 6.34342 143.279 22.2518
3028 1 7.25231 144.861 20.9731
9312 2 8.16205 143.282 19.6818
2979 1 9.98056 143.28 20.9686
9293 2 9.07143 144.86 22.2563
12639 2 10.89 144.861 19.6864
9343 2 2.70555 146.441 19.6899
9332 2 0.886993 146.442 22.2598
3053 1 1.79591 148.022 20.9791
9330 2 3.61506 148.023 22.2623
9345 2 5.43358 148.021 19.6924
3012 1 4.5241 146.442 20.9766
9294 2 6.34323 146.442 22.2598
3010 1 7.25215 148.022 20.9791
9298 2 8.16178 146.441 19.6899
2978 1 9.98033 146.442 20.9766
9296 2 9.0713 148.023 22.2623
12637 2 10.8898 148.021 19.6924
9333 2 2.70542 149.601 19.694
9331 2 0.886909 149.605 22.2638
378 1 1.79587 151.184 20.9812
6508 2 3.61502 151.186 22.2644
3011 1 4.52399 149.603 20.9806
9277 2 6.34315 149.605 22.2638
6509 2 5.43353 151.181 19.6945
357 1 7.2521 151.184 20.9812
9297 2 8.16166 149.601 19.694
2963 1 9.98023 149.603 20.9806
6461 2 9.07126 151.186 22.2644
9790 2 10.8898 151.181 19.6945
3035 1 2.70679 133.785 23.4918
9351 2 1.79754 135.362 24.7851
9306 2 4.52581 133.78 24.7752
3036 1 5.4347 135.367 23.5018
9304 2 7.25378 135.362 24.7851
2985 1 8.16303 133.785 23.4918
9252 2 9.98205 133.78 24.7752
6129 1 10.8909 135.367 23.5018
3023 1 2.70639 136.949 23.511
9336 2 1.7973 138.528 24.8023
9305 2 4.52553 136.945 24.7942
3021 1 5.43435 138.531 23.5192
9307 2 7.25354 138.528 24.8023
2984 1 8.16263 136.949 23.511
9251 2 9.98177 136.945 24.7942
6130 1 10.8906 138.531 23.5192
3022 1 2.70609 140.113 23.5265
9337 2 1.79712 141.693 24.8158
9291 2 4.52532 140.11 24.8095
3024 1 5.43409 141.695 23.5328
9289 2 7.25336 141.693 24.8158
2977 1 8.16233 140.113 23.5265
9250 2 9.98156 140.11 24.8095
6122 1 10.8903 141.695 23.5328
3008 1 2.70587 143.277 23.5382
9328 2 1.797 144.859 24.8255
9290 2 4.52517 143.276 24.8211
3006 1 5.43391 144.86 23.5426
9292 2 7.25323 144.859 24.8255
2976 1 8.16211 143.277 23.5382
9243 2 9.98141 143.276 24.8211
6123 1 10.8901 144.86 23.5426
3007 1 2.70573 146.442 23.5461
9329 2 1.79693 148.025 24.8314
9276 2 4.52507 146.442 24.8289
3009 1 5.4338 148.024 23.5486
9274 2 7.25316 148.025 24.8314
2962 1 8.16196 146.442 23.5461
9242 2 9.98131 146.442 24.8289
6121 1 10.89 148.024 23.5486
2997 1 2.70566 149.606 23.5501
6494 2 1.79691 151.191 24.8334
9275 2 4.52503 149.608 24.8329
346 1 5.43378 151.189 23.5506
6460 2 7.25315 151.191 24.8334
2961 1 8.1619 149.606 23.5501
9228 2 9.98127 149.608 24.8329
3449 1 10.89 151.189 23.5506
3019 1 0.888166 133.774 26.0615
3017 1 3.6162 135.357 26.0714
9302 2 2.70743 133.768 27.3445
3016 1 1.79817 135.347 28.64
2982 1 6.3444 133.774 26.0615
2970 1 4.52624 133.762 28.6304
9303 2 5.43553 135.352 27.3542
2968 1 7.2544 135.347 28.64
12598 2 10.8918 135.352 27.3542
2983 1 9.07244 135.357 26.0714
2922 1 9.98248 133.762 28.6304
9249 2 8.16367 133.768 27.3445
3018 1 0.888013 136.94 26.0803
3020 1 3.61607 138.524 26.0884
9287 2 2.70739 136.936 27.3631
3000 1 1.79825 138.517 28.6567
2974 1 6.34425 136.94 26.0803
2969 1 4.52633 136.932 28.6488
9285 2 5.4355 138.52 27.3711
2971 1 7.25448 138.517 28.6567
12599 2 10.8917 138.52 27.3711
2972 1 9.07231 138.524 26.0884
2921 1 9.98257 136.932 28.6488
9248 2 8.16363 136.936 27.3631
3004 1 0.887899 140.108 26.0955
3002 1 3.61597 141.691 26.1017
9286 2 2.70737 140.105 27.3782
3001 1 1.79831 141.687 28.6699
2973 1 6.34414 140.108 26.0955
2955 1 4.5264 140.102 28.6638
9288 2 5.43548 141.689 27.3843
2953 1 7.25455 141.687 28.6699
12590 2 10.8917 141.689 27.3843
2975 1 9.07221 141.691 26.1017
2920 1 9.98264 140.102 28.6638
9241 2 8.16361 140.105 27.3782
3003 1 0.887818 143.275 26.107
3005 1 3.61591 144.859 26.1114
9272 2 2.70735 143.274 27.3896
2992 1 1.79835 144.858 28.6793
2959 1 6.34406 143.275 26.107
2954 1 4.52645 143.272 28.6751
9270 2 5.43546 144.858 27.3939
2956 1 7.25459 144.858 28.6793
12591 2 10.8917 144.858 27.3939
2957 1 9.07215 144.859 26.1114
2913 1 9.98269 143.272 28.6751
9240 2 8.16359 143.274 27.3896
2996 1 0.887766 146.442 26.1148
2994 1 3.61587 148.026 26.1172
9271 2 2.70734 146.443 27.3972
2993 1 1.79838 148.028 28.6851
2958 1 6.344 146.442 26.1148
2941 1 4.52649 146.443 28.6827
9273 2 5.43546 148.027 27.3997
2939 1 7.25462 148.028 28.6851
12589 2 10.8917 148.027 27.3997
2960 1 9.07211 148.026 26.1172
2912 1 9.98272 146.443 28.6827
9227 2 8.16358 146.443 27.3972
2995 1 0.887745 149.61 26.1187
9261 2 2.70734 149.612 27.4012
345 1 3.61587 151.194 26.1193
327 1 1.79839 151.199 28.6872
2942 1 6.34398 149.61 26.1187
2940 1 4.5265 149.613 28.6866
6445 2 5.43546 151.196 27.4017
292 1 7.25463 151.199 28.6872
2901 1 9.98274 149.613 28.6866
9226 2 8.16358 149.612 27.4012
293 1 9.0721 151.194 26.1193
9757 2 10.8917 151.196 27.4017
2966 1 2.7086 133.75 31.1983
9283 2 0.889541 133.756 29.9129
9280 2 1.80053 135.332 32.4898
9281 2 3.61776 135.342 29.9225
9234 2 4.52844 133.744 32.4803
9246 2 6.34578 133.756 29.9129
2967 1 5.43688 135.337 31.2078
9232 2 7.25677 135.332 32.4898
6070 1 10.8931 135.337 31.2078
2919 1 8.16483 133.75 31.1983
9204 2 9.98468 133.744 32.4803
9247 2 9.074 135.342 29.9225
2951 1 2.70891 136.923 31.2164
9282 2 0.889732 136.927 29.9312
9264 2 1.80089 138.506 32.5061
9284 2 3.61793 138.513 29.939
9233 2 4.52884 136.919 32.4983
9238 2 6.34597 136.927 29.9312
2949 1 5.43716 138.51 31.2242
9235 2 7.25712 138.506 32.5061
6071 1 10.8934 138.51 31.2242
2918 1 8.16515 136.923 31.2164
9203 2 9.98508 136.919 32.4983
9236 2 9.07417 138.513 29.939
2950 1 2.70915 140.096 31.2311
9268 2 0.889884 140.099 29.946
9265 2 1.80115 141.681 32.5189
9266 2 3.61806 141.685 29.952
9220 2 4.52915 140.094 32.5129
9237 2 6.34612 140.099 29.946
2952 1 5.43737 141.683 31.2372
9218 2 7.25739 141.681 32.5189
6062 1 10.8936 141.683 31.2372
2911 1 8.16539 140.096 31.2311
9202 2 9.98539 140.094 32.5129
9239 2 9.0743 141.685 29.952
2937 1 2.70933 143.27 31.2423
9267 2 0.889995 143.271 29.9572
9256 2 1.80134 144.856 32.5282
9269 2 3.61816 144.857 29.9614
9219 2 4.52938 143.268 32.524
9224 2 6.34623 143.271 29.9572
2935 1 5.43751 144.857 31.2465
9221 2 7.25758 144.856 32.5282
6063 1 10.8938 144.857 31.2465
2910 1 8.16557 143.27 31.2423
9199 2 9.98561 143.268 32.524
9222 2 9.07439 144.857 29.9614
2936 1 2.70944 146.443 31.2498
9260 2 0.890067 146.443 29.9648
9257 2 1.80145 148.031 32.5338
9258 2 3.61821 148.029 29.9672
9212 2 4.52952 146.444 32.5315
9223 2 6.34631 146.443 29.9648
2938 1 5.4376 148.03 31.2522
9210 2 7.25769 148.031 32.5338
6061 1 10.8938 148.03 31.2522
2900 1 8.16568 146.443 31.2498
9198 2 9.98576 146.444 32.5315
9225 2 9.07445 148.029 29.9672
2928 1 2.7095 149.617 31.2537
9259 2 0.890103 149.615 29.9687
6423 2 1.80148 151.206 32.5359
6444 2 3.61823 151.201 29.9692
9211 2 4.52959 149.619 32.5353
9213 2 6.34634 149.615 29.9687
6388 2 7.25772 151.206 32.5359
277 1 5.43762 151.204 31.2542
2899 1 8.16574 149.617 31.2537
9195 2 9.98583 149.619 32.5353
3398 1 10.8939 151.204 31.2542
6389 2 9.07447 151.201 29.9692
2947 1 0.891531 133.739 33.7652
9230 2 2.7117 133.733 35.0467
2945 1 3.61992 135.326 33.7746
2916 1 6.34777 133.739 33.7652
9231 2 5.44012 135.321 35.0561
12526 2 10.8964 135.321 35.0561
9201 2 8.16794 133.733 35.0467
2917 1 9.07616 135.326 33.7746
2948 1 3.62037 138.503 33.7908
2946 1 0.892041 136.914 33.7831
9216 2 2.71228 136.91 35.0645
9214 2 5.44064 138.499 35.0722
2908 1 6.34828 136.914 33.7831
12527 2 10.8969 138.499 35.0722
2906 1 9.07661 138.503 33.7908
9200 2 8.16852 136.91 35.0645
2931 1 3.62071 141.679 33.8036
2933 1 0.892435 140.091 33.7976
9215 2 2.71273 140.088 35.079
9217 2 5.44102 141.677 35.0849
2907 1 6.34867 140.091 33.7976
12518 2 10.8973 141.677 35.0849
2909 1 9.07695 141.679 33.8036
9197 2 8.16896 140.088 35.079
2934 1 3.62094 144.856 33.8128
9208 2 2.71305 143.266 35.0899
2932 1 0.89272 143.267 33.8086
9206 2 5.44129 144.855 35.094
2897 1 6.34896 143.267 33.8086
12519 2 10.8975 144.855 35.094
2895 1 9.07718 144.856 33.8128
9196 2 8.16929 143.266 35.0899
2925 1 3.62108 148.032 33.8184
9207 2 2.71326 146.444 35.0973
2927 1 0.892903 146.444 33.8161
9209 2 5.44144 148.033 35.0997
2896 1 6.34914 146.444 33.8161
2898 1 9.07732 148.032 33.8184
9194 2 8.1695 146.444 35.0973
12517 2 10.8977 148.033 35.0997
9205 2 2.71336 149.622 35.1011
2926 1 0.892989 149.621 33.8199
2890 1 6.34923 149.621 33.8199
9193 2 8.1696 149.622 35.1011
9406 2 0.895601 133.721 37.6121
14991 1 2.71555 133.715 38.8959
2944 1 1.80357 135.316 36.3404
9404 2 3.6241 135.311 37.6213
9395 2 6.35184 133.721 37.6121
15345 1 5.44409 135.306 38.9051
2904 1 4.53133 133.727 36.3311
2902 1 7.2598 135.316 36.3404
2886 1 9.98757 133.727 36.3311
14961 1 8.17179 133.715 38.8959
9396 2 9.08034 135.311 37.6213
18172 1 10.9003 135.306 38.9051
9405 2 0.89632 136.901 37.6297
15346 1 2.71634 136.897 38.9135
2929 1 1.80416 138.495 36.3564
9407 2 3.62474 138.492 37.6373
9392 2 6.35256 136.901 37.6297
15347 1 5.44479 138.488 38.9211
2903 1 4.532 136.906 36.3488
2905 1 7.2604 138.495 36.3564
15317 1 8.17258 136.897 38.9135
2885 1 9.98824 136.906 36.3488
9390 2 9.08098 138.492 37.6373
18170 1 10.901 138.488 38.9211
9402 2 0.896878 140.082 37.6441
15342 1 2.71696 140.079 38.9278
2930 1 1.80461 141.675 36.3691
9400 2 3.62522 141.673 37.6499
9391 2 6.35312 140.082 37.6441
15340 1 5.44532 141.671 38.9337
2893 1 4.53252 140.085 36.3632
2891 1 7.26084 141.675 36.3691
15316 1 8.1732 140.079 38.9278
2884 1 9.98876 140.085 36.3632
9393 2 9.08146 141.673 37.6499
18171 1 10.9016 141.671 38.9337
9401 2 0.897282 143.263 37.6549
15341 1 2.7174 143.262 38.9386
2923 1 1.80491 144.855 36.3782
9403 2 3.62555 144.854 37.659
9388 2 6.35352 143.263 37.6549
15343 1 5.44568 144.854 38.9427
2892 1 4.5329 143.265 36.3741
2894 1 7.26115 144.855 36.3782
15311 1 8.17364 143.262 38.9386
2883 1 9.98913 143.265 36.3741
9386 2 9.08179 144.854 37.659
18168 1 10.9019 144.854 38.9427
9399 2 0.897542 146.445 37.6623
15332 1 2.71769 146.445 38.946
2924 1 1.80509 148.034 36.3838
9397 2 3.62574 148.035 37.6646
9387 2 6.35378 146.445 37.6623
15330 1 5.44589 148.036 38.9483
2889 1 4.53314 146.444 36.3815
2887 1 7.26133 148.034 36.3838
15310 1 8.17393 146.445 38.946
2882 1 9.98937 146.444 36.3815
9389 2 9.08198 148.035 37.6646
18169 1 10.9021 148.036 38.9483
9398 2 0.897664 149.626 37.6661
15331 1 2.71782 149.628 38.9498
9385 2 6.3539 149.626 37.6661
2888 1 4.53325 149.624 36.3853
15297 1 8.17406 149.628 38.9498
2881 1 9.98949 149.624 36.3853
20971 2 1.80873 135.3 40.1855
14989 1 0.900452 133.702 41.4596
15344 1 3.62903 135.295 41.4688
14941 1 6.35669 133.702 41.4596
20603 2 4.53641 133.708 40.1763
20962 2 7.26496 135.3 40.1855
15313 1 9.08527 135.295 41.4688
20555 2 9.99265 133.708 40.1763
20972 2 1.80945 138.484 40.2015
15338 1 0.901328 136.888 41.4772
15336 1 3.62981 138.481 41.4848
20960 2 4.53723 136.892 40.1939
15314 1 6.35757 136.888 41.4772
20958 2 7.26569 138.484 40.2015
15315 1 9.08605 138.481 41.4848
20922 2 9.99347 136.892 40.1939
20968 2 1.81 141.669 40.214
15337 1 0.902007 140.074 41.4915
15339 1 3.63039 141.667 41.4973
20959 2 4.53787 140.077 40.2082
15308 1 6.35825 140.074 41.4915
20961 2 7.26624 141.669 40.214
15306 1 9.08663 141.667 41.4973
20921 2 9.99411 140.077 40.2082
20969 2 1.81038 144.853 40.2231
15328 1 0.902499 143.26 41.5023
15326 1 3.6308 144.853 41.5064
15307 1 6.35874 143.26 41.5023
20952 2 4.53833 143.261 40.219
20950 2 7.26662 144.853 40.2231
15309 1 9.08704 144.853 41.5064
20920 2 9.99457 143.261 40.219
20965 2 1.8106 148.037 40.2286
15327 1 0.902816 146.445 41.5096
15329 1 3.63103 148.038 41.5119
15296 1 6.35905 146.445 41.5096
20951 2 4.53863 146.445 40.2263
20953 2 7.26684 148.037 40.2286
15294 1 9.08727 148.038 41.5119
20913 2 9.99487 146.445 40.2263
15321 1 0.902963 149.631 41.5133
15295 1 6.3592 149.631 41.5133
20938 2 4.53877 149.63 40.2301
20912 2 9.99501 149.63 40.2301
20589 2 2.72167 133.696 42.7394
15334 1 1.81465 135.285 44.0314
20587 2 0.907621 133.684 45.3015
20954 2 3.63622 135.279 45.3108
20955 2 5.45026 135.29 42.7487
14939 1 4.54229 133.69 44.0222
20534 2 6.36386 133.684 45.3015
15312 1 7.27089 135.285 44.0314
20553 2 8.17791 133.696 42.7394
20915 2 9.09246 135.279 45.3108
14891 1 9.99852 133.69 44.0222
23790 2 10.9065 135.29 42.7487
20956 2 2.72255 136.883 42.7571
15335 1 1.81547 138.473 44.0474
20944 2 0.908531 136.874 45.3192
20942 2 3.63703 138.47 45.3268
20957 2 5.45104 138.477 42.7646
15304 1 4.5432 136.879 44.0399
20916 2 6.36477 136.874 45.3192
15302 1 7.27171 138.473 44.0474
23786 2 10.9073 138.477 42.7646
20919 2 8.17879 136.883 42.7571
15262 1 9.99944 136.879 44.0399
20917 2 9.09327 138.47 45.3268
20948 2 2.72324 140.071 42.7713
15324 1 1.81608 141.662 44.06
20943 2 0.909243 140.065 45.3335
20946 2 5.45164 141.664 42.7772
15303 1 4.54392 140.068 44.0541
20908 2 6.36548 140.065 45.3335
20945 2 3.63765 141.66 45.3394
15305 1 7.27232 141.662 44.06
23787 2 10.9079 141.664 42.7772
20918 2 8.17948 140.071 42.7713
15261 1 10.0002 140.068 44.0541
20906 2 9.09388 141.66 45.3394
20947 2 2.72374 143.258 42.7822
15325 1 1.81651 144.851 44.069
20933 2 0.909764 143.255 45.3443
20949 2 5.45205 144.852 42.7862
15292 1 4.54444 143.257 44.0649
20907 2 6.366 143.255 45.3443
20931 2 3.63807 144.851 45.3484
15290 1 7.27275 144.851 44.069
23783 2 10.9083 144.852 42.7862
20911 2 8.17998 143.258 42.7822
15260 1 10.0007 143.257 44.0649
20909 2 9.09431 144.851 45.3484
20937 2 2.72407 146.446 42.7895
15320 1 1.81676 148.041 44.0746
20932 2 0.910101 146.446 45.3517
20935 2 5.45228 148.039 42.7918
15291 1 4.54477 146.446 44.0722
20896 2 6.36634 146.446 45.3517
20934 2 3.63832 148.041 45.354
15293 1 7.27299 148.041 44.0746
23784 2 10.9085 148.039 42.7918
20910 2 8.18031 146.446 42.7895
15253 1 10.001 146.446 44.0722
20894 2 9.09456 148.041 45.354
20936 2 2.72422 149.633 42.7932
20926 2 0.910258 149.637 45.3554
15278 1 4.54493 149.635 44.076
20895 2 6.3665 149.637 45.3554
20897 2 8.18046 149.633 42.7932
15252 1 10.0012 149.635 44.076
15333 1 0.000943016 135.274 46.593
20940 2 1.82285 135.268 47.8718
14923 1 0.915542 133.665 49.144
14925 1 2.72857 133.678 46.5837
15298 1 3.64414 135.263 49.1535
15299 1 5.45718 135.274 46.593
14872 1 6.37178 133.665 49.144
20532 2 4.5505 133.671 47.8624
15255 1 9.10038 135.263 49.1535
20914 2 7.27909 135.268 47.8718
14889 1 8.18481 133.678 46.5837
20493 2 10.0067 133.671 47.8624
15284 1 0.916446 136.861 49.162
15300 1 2.7295 136.87 46.6015
15322 1 0.00176701 138.466 46.6091
20941 2 1.82366 138.462 47.8879
15256 1 6.37268 136.861 49.162
15282 1 3.64495 138.458 49.1697
15301 1 5.45801 138.466 46.6091
20904 2 4.5514 136.865 47.8803
15257 1 9.10118 138.458 49.1697
15259 1 8.18574 136.87 46.6015
20867 2 10.0076 136.865 47.8803
20902 2 7.2799 138.462 47.8879
15283 1 0.91716 140.056 49.1765
15288 1 2.73022 140.062 46.6158
15323 1 0.00239398 141.658 46.6217
20929 2 1.82428 141.656 47.9006
15248 1 6.3734 140.056 49.1765
15285 1 3.64557 141.654 49.1824
15286 1 5.45863 141.658 46.6217
20903 2 4.55211 140.059 47.8947
15246 1 9.1018 141.654 49.1824
15258 1 8.18646 140.062 46.6158
20866 2 10.0084 140.059 47.8947
20905 2 7.28052 141.656 47.9006
15273 1 0.917687 143.251 49.1874
15287 1 2.73075 143.254 46.6267
15318 1 0.00283054 144.85 46.6308
20930 2 1.82471 144.85 47.9097
15247 1 6.37393 143.251 49.1874
15271 1 3.646 144.849 49.1915
15289 1 5.45907 144.85 46.6308
20892 2 4.55264 143.253 47.9056
15249 1 9.10224 144.849 49.1915
15251 1 8.18699 143.254 46.6267
20865 2 10.0089 143.253 47.9056
20890 2 7.28095 144.85 47.9097
15272 1 0.918031 146.447 49.1948
15277 1 2.7311 146.446 46.634
15319 1 0.00308206 148.043 46.6363
20925 2 1.82496 148.043 47.9152
15236 1 6.37427 146.447 49.1948
15274 1 3.64625 148.045 49.1971
15275 1 5.45932 148.043 46.6363
20891 2 4.55298 146.447 47.9129
15234 1 9.10249 148.045 49.1971
15250 1 8.18734 146.446 46.634
20858 2 10.0092 146.447 47.9129
20893 2 7.2812 148.043 47.9152
15266 1 0.918192 149.642 49.1985
15276 1 2.73126 149.639 46.6377
15235 1 6.37443 149.642 49.1985
20879 2 4.55314 149.64 47.9167
15237 1 8.1875 149.639 46.6377
20857 2 10.0094 149.64 47.9167
15280 1 1.83174 135.252 51.7129
20939 2 0.0101423 135.257 50.4317
20520 2 2.7378 133.659 50.4222
20899 2 5.46638 135.257 50.4317
14870 1 4.55941 133.652 51.7034
15254 1 7.28798 135.252 51.7129
14840 1 10.0156 133.652 51.7034
20491 2 8.19404 133.659 50.4222
15281 1 1.83252 138.451 51.7293
20900 2 2.73868 136.856 50.4403
20927 2 0.0109281 138.454 50.448
15244 1 4.56027 136.851 51.7216
20901 2 5.46717 138.454 50.448
15212 1 10.0165 136.851 51.7216
15242 1 7.28876 138.451 51.7293
20864 2 8.19492 136.856 50.4403
15269 1 1.83312 141.649 51.7421
20888 2 2.73937 140.053 50.4548
20928 2 0.0115345 141.651 50.4608
15243 1 4.56096 140.05 51.7362
20886 2 5.46777 141.651 50.4608
15211 1 10.0172 140.05 51.7362
15245 1 7.28936 141.649 51.7421
20863 2 8.19561 140.053 50.4548
15270 1 1.83355 144.848 51.7513
20887 2 2.73989 143.25 50.4658
20923 2 0.011962 144.848 50.4699
15232 1 4.56148 143.249 51.7472
20889 2 5.4682 144.848 50.4699
15210 1 10.0177 143.249 51.7472
15230 1 7.28979 144.848 51.7513
20856 2 8.19613 143.25 50.4658
15265 1 1.8338 148.047 51.7569
20878 2 2.74023 146.447 50.4732
20924 2 0.0122112 148.045 50.4755
15231 1 4.56181 146.447 51.7546
20876 2 5.46845 148.045 50.4755
15204 1 10.0181 146.447 51.7546
15233 1 7.29003 148.047 51.7569
20855 2 8.19647 146.447 50.4732
20877 2 2.74039 149.644 50.477
15221 1 4.56197 149.646 51.7583
15203 1 10.0182 149.646 51.7583
20846 2 8.19663 149.644 50.477
15279 1 0.0199773 135.241 54.2713
20880 2 1.84285 135.235 55.5485
14860 1 2.74767 133.64 54.2616
20518 2 0.925753 133.646 52.981
15239 1 5.47622 135.241 54.2713
20898 2 3.65431 135.246 52.9906
20480 2 4.57056 133.633 55.5388
20482 2 6.38199 133.646 52.981
20859 2 7.29909 135.235 55.5485
20860 2 9.11055 135.246 52.9906
14838 1 8.20391 133.64 54.2616
20473 2 10.0268 133.633 55.5388
15240 1 2.74848 136.842 54.2801
15267 1 0.0207134 138.443 54.2879
20881 2 1.84357 138.439 55.5652
20884 2 0.926585 136.846 52.9993
15241 1 5.47695 138.443 54.2879
20849 2 4.57135 136.837 55.5574
20861 2 6.38282 136.846 52.9993
20882 2 3.65506 138.446 53.0071
15209 1 8.20472 136.842 54.2801
20837 2 10.0276 136.837 55.5574
20847 2 7.2998 138.439 55.5652
20862 2 9.1113 138.446 53.0071
15228 1 2.74914 140.044 54.2949
15268 1 0.0212908 141.645 54.3009
20870 2 1.84413 141.642 55.5782
20883 2 0.927255 140.047 53.014
15226 1 5.47753 141.645 54.3009
20848 2 4.57199 140.04 55.5722
20853 2 6.38349 140.047 53.014
20885 2 3.65565 141.647 53.02
15208 1 8.20538 140.044 54.2949
20836 2 10.0282 140.04 55.5722
20850 2 7.30037 141.642 55.5782
20851 2 9.11188 141.647 53.02
15227 1 2.74964 143.246 54.306
15263 1 0.0217033 144.846 54.3101
20871 2 1.84453 144.846 55.5876
20874 2 0.927757 143.247 53.0251
15229 1 5.47794 144.846 54.3101
20841 2 4.57247 143.244 55.5834
20852 2 6.38399 143.247 53.0251
20872 2 3.65606 144.847 53.0292
15202 1 8.20588 143.246 54.306
20835 2 10.0287 143.244 55.5834
20839 2 7.30077 144.846 55.5876
20854 2 9.1123 144.847 53.0292
15220 1 2.74997 146.447 54.3134
15264 1 0.0219464 148.048 54.3157
20868 2 1.84477 148.049 55.5932
20873 2 0.928088 146.447 53.0325
15218 1 5.47818 148.048 54.3157
20840 2 4.57279 146.447 55.5908
20845 2 6.38433 146.447 53.0325
20875 2 3.65631 148.047 53.0348
20843 2 9.11255 148.047 53.0348
20842 2 7.30101 148.049 55.5932
20834 2 10.029 146.447 55.5908
15201 1 8.2062 146.447 54.3134
20869 2 0.928246 149.648 53.0363
15219 1 2.75012 149.649 54.3172
20844 2 6.38448 149.648 53.0363
20838 2 4.57295 149.651 55.5946
20833 2 10.0292 149.651 55.5946
15196 1 8.20636 149.649 54.3172
21132 2 0.0319887 135.224 58.1054
14858 1 0.936538 133.627 56.8189
20799 2 2.75972 133.62 58.0955
21125 2 5.48823 135.224 58.1054
15238 1 3.66505 135.229 56.8288
14833 1 6.39278 133.627 56.8189
15205 1 9.12129 135.229 56.8288
20769 2 8.21596 133.62 58.0955
21126 2 2.76046 136.827 58.1144
21130 2 0.0326681 138.43 58.1224
15224 1 0.9373 136.832 56.8376
21127 2 5.48891 138.43 58.1224
15206 1 6.39354 136.832 56.8376
15222 1 3.66575 138.435 56.8456
21097 2 8.2167 136.827 58.1144
15207 1 9.12199 138.435 56.8456
21122 2 2.76108 140.034 58.1294
21131 2 0.0332115 141.637 58.1355
15223 1 0.937927 140.037 56.8526
21120 2 5.48945 141.637 58.1355
15199 1 6.39417 140.037 56.8526
15225 1 3.6663 141.64 56.8586
21096 2 8.21732 140.034 58.1294
15197 1 9.12254 141.64 56.8586
21121 2 2.76155 143.241 58.1407
21128 2 0.0336059 144.844 58.1449
15216 1 0.938405 143.242 56.8638
21123 2 5.48984 144.844 58.1449
15198 1 6.39464 143.242 56.8638
15214 1 3.6667 144.845 56.868
21091 2 8.21779 143.241 58.1407
15200 1 9.12294 144.845 56.868
21112 2 2.76186 146.448 58.1482
21129 2 0.0338424 148.051 58.1506
15215 1 0.938725 146.448 56.8713
21110 2 5.49008 148.051 58.1506
15195 1 6.39496 146.448 56.8713
15217 1 3.66694 148.05 56.8736
21090 2 8.2181 146.448 58.1482
15193 1 9.12318 148.05 56.8736
21111 2 2.76202 149.655 58.152
15213 1 0.93888 149.653 56.8751
15194 1 6.39512 149.653 56.8751
21077 2 8.21826 149.655 58.152
15491 1 1.85447 135.218 59.3853
15490 1 0.0444328 135.207 61.9409
15141 1 2.77219 133.6 61.9308
20797 2 0.949443 133.607 60.6513
15155 1 4.58222 133.614 59.3753
15475 1 5.50067 135.207 61.9409
21124 2 3.67793 135.212 60.6614
20749 2 6.40568 133.607 60.6513
15482 1 7.31071 135.218 59.3853
15107 1 10.0385 133.614 59.3753
21093 2 9.13417 135.212 60.6614
15105 1 8.22843 133.6 61.9308
15492 1 1.85514 138.427 59.4023
15476 1 2.77289 136.813 61.95
15486 1 0.0450826 138.419 61.9582
21118 2 0.950155 136.817 60.6704
15480 1 4.58294 136.822 59.3943
15477 1 5.50132 138.419 61.9582
21094 2 6.40639 136.817 60.6704
21116 2 3.67859 138.422 60.6785
15442 1 10.0392 136.822 59.3943
15478 1 7.31137 138.427 59.4023
15439 1 8.22913 136.813 61.95
21095 2 9.13483 138.422 60.6785
15488 1 1.85567 141.635 59.4155
15468 1 2.77348 140.024 61.9653
15487 1 0.0456116 141.63 61.9715
21117 2 0.950752 140.028 60.6856
15479 1 4.58354 140.031 59.4094
15466 1 5.50185 141.63 61.9715
21088 2 6.40699 140.028 60.6856
21119 2 3.67912 141.633 60.6918
15441 1 10.0398 140.031 59.4094
15481 1 7.31191 141.635 59.4155
15438 1 8.22972 140.024 61.9653
21086 2 9.13536 141.633 60.6918
15489 1 1.85606 144.844 59.4249
15467 1 2.77394 143.236 61.9767
15483 1 0.0460011 144.842 61.981
21108 2 0.951214 143.238 60.697
15472 1 4.58401 143.239 59.4207
15469 1 5.50224 144.842 61.981
21087 2 6.40745 143.238 60.697
21106 2 3.67951 144.843 60.7012
15440 1 10.0402 143.239 59.4207
15470 1 7.3123 144.844 59.4249
15431 1 8.23018 143.236 61.9767
21089 2 9.13575 144.843 60.7012
15485 1 1.8563 148.052 59.4306
15457 1 2.77426 146.448 61.9843
15484 1 0.0462377 148.054 61.9866
21107 2 0.951528 146.448 60.7045
15471 1 4.58432 146.448 59.4282
15455 1 5.50248 148.054 61.9866
21076 2 6.40777 146.448 60.7045
21109 2 3.67975 148.053 60.7069
15433 1 10.0406 146.448 59.4282
15473 1 7.31254 148.052 59.4306
15430 1 8.2305 146.448 61.9843
21074 2 9.13598 148.053 60.7069
15456 1 2.77442 149.66 61.9881
21101 2 0.951684 149.658 60.7084
15458 1 4.58448 149.656 59.432
21075 2 6.40792 149.658 60.7084
15432 1 10.0407 149.656 59.432
15417 1 8.23065 149.66 61.9881
21113 2 0.0589192 135.189 65.77
21114 2 1.86818 135.201 63.2163
15139 1 0.962637 133.588 64.4858
20733 2 2.78667 133.581 65.7597
15474 1 3.69112 135.195 64.4961
21079 2 5.51516 135.189 65.77
15086 1 6.41888 133.588 64.4858
20747 2 4.59593 133.594 63.2061
15435 1 9.14736 135.195 64.4961
21092 2 7.32441 135.201 63.2163
20697 2 8.2429 133.581 65.7597
20699 2 10.0522 133.594 63.2061
15464 1 0.963341 136.803 64.5053
21080 2 2.78739 136.798 65.7792
21102 2 0.0595872 138.406 65.7874
21115 2 1.86883 138.414 63.2336
15436 1 6.41958 136.803 64.5053
15462 1 3.69177 138.411 64.5135
21081 2 5.51583 138.406 65.7874
21084 2 4.59664 136.807 63.2254
15437 1 9.14801 138.411 64.5135
21039 2 8.24362 136.798 65.7792
21042 2 10.0529 136.807 63.2254
21082 2 7.32507 138.414 63.2336
15463 1 0.96394 140.018 64.5207
21068 2 2.788 140.015 65.7947
21103 2 0.0601328 141.623 65.8009
21104 2 1.86936 141.628 63.247
15428 1 6.42018 140.018 64.5207
15465 1 3.69231 141.626 64.5269
21066 2 5.51637 141.623 65.8009
21083 2 4.59723 140.021 63.2408
15426 1 9.14855 141.626 64.5269
21038 2 8.24423 140.015 65.7947
21041 2 10.0535 140.021 63.2408
21085 2 7.3256 141.628 63.247
15453 1 0.964408 143.233 64.5321
21067 2 2.78847 143.231 65.8062
21098 2 0.0605359 144.84 65.8105
21105 2 1.86975 144.841 63.2565
15427 1 6.42065 143.233 64.5321
15451 1 3.69271 144.841 64.5364
21069 2 5.51677 144.84 65.8105
21072 2 4.59769 143.235 63.2522
15429 1 9.14895 144.841 64.5364
21031 2 8.24471 143.231 65.8062
21040 2 10.0539 143.235 63.2522
21070 2 7.32599 144.841 63.2565
15452 1 0.964729 146.448 64.5398
21057 2 2.7888 146.448 65.8139
21099 2 0.0607828 148.056 65.8162
21100 2 1.86999 148.055 63.2622
15416 1 6.42097 146.448 64.5398
15454 1 3.69295 148.056 64.5421
21055 2 5.51702 148.056 65.8162
21071 2 4.59801 146.448 63.2598
15414 1 9.14919 148.056 64.5421
21030 2 8.24504 146.448 65.8139
21033 2 10.0542 146.448 63.2598
21073 2 7.32623 148.055 63.2622
15446 1 0.964891 149.664 64.5436
21056 2 2.78896 149.665 65.8177
15415 1 6.42113 149.664 64.5436
21058 2 4.59817 149.661 63.2637
21017 2 8.2452 149.665 65.8177
21032 2 10.0544 149.661 63.2637
15460 1 1.88189 135.185 67.0516
20731 2 0.977771 133.567 68.3112
21078 2 3.70628 135.177 68.3216
15084 1 4.60963 133.575 67.0413
20680 2 6.43401 133.567 68.3112
15434 1 7.33812 135.185 67.0516
21035 2 9.16252 135.177 68.3216
15045 1 10.0659 133.575 67.0413
15461 1 1.88257 138.403 67.0692
21064 2 0.978533 136.788 68.3309
15424 1 4.61036 136.794 67.0609
21036 2 6.43477 136.788 68.3309
21062 2 3.70699 138.398 68.3392
15387 1 10.0666 136.794 67.0609
15422 1 7.33881 138.403 67.0692
21037 2 9.16323 138.398 68.3392
15449 1 1.88313 141.622 67.0827
21063 2 0.979175 140.008 68.3465
15423 1 4.61098 140.013 67.0764
21028 2 6.43541 140.008 68.3465
21065 2 3.70756 141.618 68.3528
15386 1 10.0672 140.013 67.0764
15425 1 7.33937 141.622 67.0827
21026 2 9.1638 141.618 68.3528
15450 1 1.88354 144.84 67.0923
21053 2 0.979675 143.228 68.3581
15412 1 4.61147 143.231 67.088
21027 2 6.43591 143.228 68.3581
21051 2 3.70799 144.838 68.3624
15385 1 10.0677 143.231 67.088
15410 1 7.33978 144.84 67.0923
21029 2 9.16422 144.838 68.3624
21052 2 0.980017 146.448 68.3658
15411 1 4.61181 146.45 67.0956
21016 2 6.43626 146.448 68.3658
15378 1 10.068 146.45 67.0956
15445 1 1.88379 148.059 67.098
21046 2 0.98019 149.668 68.3696
21054 2 3.70824 148.058 68.3682
15399 1 4.61198 149.668 67.0995
21015 2 6.43643 149.668 68.3696
15413 1 7.34003 148.059 67.098
21014 2 9.16448 148.058 68.3682
15377 1 10.0682 149.668 67.0995
15459 1 0.0721948 135.173 69.6109
21060 2 1.89744 135.165 70.8682
15070 1 0.985444 133.548 72.1763
15072 1 2.79989 133.562 69.6005
15418 1 3.71405 135.161 72.1867
15419 1 5.52843 135.173 69.6109
15034 1 6.44168 133.548 72.1763
20678 2 4.62512 133.553 70.8577
15380 1 9.17029 135.161 72.1867
21034 2 7.35368 135.165 70.8682
15043 1 8.25613 133.562 69.6005
20648 2 10.0814 133.553 70.8577
15404 1 0.986387 136.774 72.1961
15420 1 2.80071 136.784 69.6202
15447 1 0.0729456 138.395 69.6286
21061 2 1.89821 138.388 70.8859
15381 1 6.44263 136.774 72.1961
15402 1 3.71492 138.386 72.2045
15421 1 5.52918 138.395 69.6286
21024 2 4.62596 136.777 70.8775
15382 1 9.17116 138.386 72.2045
15384 1 8.25694 136.784 69.6202
20992 2 10.0822 136.777 70.8775
21022 2 7.35445 138.388 70.8859
15403 1 0.987168 139.999 72.2119
15408 1 2.80139 140.006 69.6359
15448 1 0.0735538 141.617 69.6422
21049 2 1.89883 141.612 70.8996
15373 1 6.44341 139.999 72.2119
15405 1 3.71561 141.612 72.2182
15406 1 5.52979 141.617 69.6422
21023 2 4.62666 140 70.8932
15371 1 9.17185 141.612 72.2182
15383 1 8.25763 140.006 69.6359
20991 2 10.0829 140 70.8932
21025 2 7.35507 141.612 70.8996
15394 1 0.987767 143.224 72.2236
15407 1 2.80192 143.228 69.6475
15443 1 0.0740003 144.839 69.6519
21050 2 1.89928 144.835 70.9093
15372 1 6.44401 143.224 72.2236
15392 1 3.71611 144.837 72.2279
15409 1 5.53024 144.839 69.6519
21012 2 4.6272 143.223 70.9049
15374 1 9.17235 144.837 72.2279
15376 1 8.25816 143.228 69.6475
20990 2 10.0834 143.223 70.9049
21010 2 7.35552 144.835 70.9093
15393 1 0.988171 146.449 72.2313
15398 1 2.80228 146.449 69.6552
15365 1 6.44441 146.449 72.2313
21011 2 4.62756 146.447 70.9126
15375 1 8.25852 146.449 69.6552
20984 2 10.0838 146.447 70.9126
15444 1 0.0742729 148.06 69.6576
21045 2 1.89956 148.058 70.9151
15389 1 0.988375 149.674 72.2352
15397 1 2.80246 149.671 69.6591
15396 1 5.53051 148.06 69.6576
15395 1 3.71642 148.062 72.2338
15364 1 6.44461 149.674 72.2352
21001 2 4.62775 149.67 70.9165
21013 2 7.3558 148.058 70.9151
15363 1 9.17266 148.062 72.2338
15366 1 8.2587 149.671 69.6591
20983 2 10.084 149.67 70.9165
15400 1 1.84076 135.153 74.8379
21059 2 0.086902 135.152 73.4001
20666 2 0.976618 133.527 75.864
20668 2 2.81453 133.538 73.3896
21018 2 3.70534 135.142 75.8745
21019 2 5.54314 135.152 73.4001
15032 1 4.56824 133.538 74.8274
20641 2 6.43286 133.527 75.864
15379 1 7.297 135.153 74.8379
20985 2 9.16158 135.142 75.8745
15025 1 10.0245 133.538 74.8274
20646 2 8.27077 133.538 73.3896
15401 1 1.84188 138.382 74.8558
21004 2 0.977769 136.757 75.8839
21020 2 2.81547 136.765 73.4095
21047 2 0.0877641 138.378 73.4179
15369 1 4.56947 136.767 74.8474
20986 2 6.43401 136.757 75.8839
21002 2 3.70639 138.372 75.8924
21021 2 5.544 138.378 73.4179
15357 1 10.0257 136.767 74.8474
15367 1 7.29812 138.382 74.8558
20987 2 9.16262 138.372 75.8924
20989 2 8.27171 136.765 73.4095
15390 1 1.84278 141.611 74.8695
21003 2 0.978709 139.988 75.8998
21008 2 2.81625 139.992 73.4253
21048 2 0.0884495 141.605 73.4317
15368 1 4.57048 139.997 74.8631
20979 2 6.43495 139.988 75.8998
21005 2 3.70721 141.603 75.9062
21006 2 5.54469 141.605 73.4317
15356 1 10.0267 139.997 74.8631
15370 1 7.29902 141.611 74.8695
20977 2 9.16345 141.603 75.9062
20988 2 8.27249 139.992 73.4253
15391 1 1.84343 144.841 74.8793
20996 2 0.979421 143.218 75.9116
21007 2 2.81684 143.218 73.437
21043 2 0.0889456 144.831 73.4414
15361 1 4.57126 143.226 74.8749
20978 2 6.43566 143.218 75.9116
20994 2 3.70781 144.833 75.916
21009 2 5.54518 144.831 73.4414
15355 1 10.0275 143.226 74.8749
15359 1 7.29967 144.841 74.8793
20980 2 9.16405 144.833 75.916
20982 2 8.27308 143.218 73.437
20995 2 0.979898 146.448 75.9194
21000 2 2.81724 146.444 73.4448
21044 2 0.0892454 148.058 73.4473
15360 1 4.57178 146.455 74.8827
20975 2 6.43614 146.448 75.9194
20998 2 5.54548 148.058 73.4473
15354 1 10.028 146.455 74.8827
20981 2 8.27348 146.444 73.4448
15388 1 1.84382 148.07 74.8851
20993 2 0.980136 149.677 75.9233
20999 2 2.81744 149.671 73.4487
20997 2 3.70817 148.063 75.9219
15358 1 4.57204 149.685 74.8866
20974 2 6.43637 149.677 75.9233
20973 2 9.1644 148.063 75.9219
15362 1 7.30006 148.07 74.8851
15353 1 10.0283 149.685 74.8866
20976 2 8.27368 149.671 73.4487
9585 2 11.8092 1.50773 -0.859994
9593 2 13.6201 1.50351 -3.36767
3264 1 12.6961 3.06907 -2.30538
9583 2 14.5374 3.0749 -0.86157
3250 1 15.4241 1.50261 -2.30381
9555 2 17.2654 1.50773 -0.859994
9594 2 16.3484 3.06912 -3.36924
3248 1 18.1524 3.06907 -2.30538
3204 1 20.8804 1.50261 -2.30381
9558 2 19.0764 1.50351 -3.36767
9556 2 19.9936 3.0749 -0.86157
6334 2 21.8046 3.06912 -3.36924
9584 2 11.8095 4.64206 -0.864196
9589 2 13.6204 4.63473 -3.37185
3260 1 12.6966 6.20201 -2.31165
9586 2 14.5378 6.20923 -0.867873
3249 1 15.4244 4.63554 -2.30799
9549 2 17.2657 4.64206 -0.864196
9587 2 16.3488 6.20035 -3.37551
3251 1 18.1528 6.20201 -2.31165
3203 1 20.8807 4.63554 -2.30799
9557 2 19.0767 4.63473 -3.37185
9547 2 19.994 6.20923 -0.867873
6335 2 21.805 6.20035 -3.37551
9574 2 11.81 7.77641 -0.8726
9588 2 13.621 7.76598 -3.38022
3261 1 12.6973 9.33503 -2.3221
9572 2 14.5385 9.34361 -0.878376
3242 1 15.425 7.76851 -2.31636
9548 2 17.2662 7.77641 -0.8726
9590 2 16.3495 9.33164 -3.38597
3240 1 18.1535 9.33503 -2.3221
3202 1 20.8812 7.76851 -2.31636
9552 2 19.0772 7.76598 -3.38022
9550 2 19.9947 9.34361 -0.878376
6332 2 21.8057 9.33164 -3.38597
9573 2 11.8108 10.9108 -0.885202
9578 2 13.6218 10.8973 -3.39276
3256 1 12.6983 12.4682 -2.33672
9575 2 14.5394 12.4781 -0.893077
3241 1 15.4259 10.9016 -2.32889
9535 2 17.267 10.9108 -0.885202
9576 2 16.3504 12.4631 -3.40059
3243 1 18.1546 12.4682 -2.33672
3195 1 20.8821 10.9016 -2.32889
9551 2 19.078 10.8973 -3.39276
9533 2 19.9956 12.4781 -0.893077
6333 2 21.8067 12.4631 -3.40059
9566 2 11.8118 14.0454 -0.902
9577 2 13.6229 14.0289 -3.40947
3257 1 12.6997 15.6016 -2.35548
9564 2 14.5405 15.6128 -0.911974
3228 1 15.4271 14.0349 -2.34559
9534 2 17.2681 14.0454 -0.902
9579 2 16.3517 15.5947 -3.41938
3226 1 18.1559 15.6016 -2.35548
3194 1 20.8833 14.0349 -2.34559
9538 2 19.0791 14.0289 -3.40947
9536 2 19.9968 15.6128 -0.911974
6331 2 21.8079 15.5947 -3.41938
9565 2 11.8131 17.1802 -0.92301
9567 2 13.6243 17.1606 -3.43033
3647 1 12.7017 18.7355 -2.37854
9999 2 14.5419 18.7478 -0.935108
3227 1 15.4287 17.1685 -2.36644
9517 2 17.2693 17.1802 -0.92301
10000 2 16.3533 18.7266 -3.44232
3636 1 18.158 18.7355 -2.37854
3179 1 20.885 17.1685 -2.36644
9537 2 19.0805 17.1606 -3.43033
9962 2 19.9982 18.7478 -0.935108
6744 2 21.8095 18.7266 -3.44232
3246 1 13.624 1.50814 0.363042
9582 2 12.7165 3.08056 1.69364
9545 2 15.4445 1.51173 1.69522
3247 1 16.3523 3.07616 0.361465
9543 2 18.1727 3.08056 1.69364
3201 1 19.0803 1.50814 0.363042
9492 2 20.9007 1.51173 1.69522
186 1 21.8085 3.07616 0.361465
3238 1 13.6243 4.64417 0.358837
9570 2 12.7169 6.2182 1.68731
9544 2 15.4448 4.64938 1.691
3236 1 16.3527 6.21219 0.355159
9546 2 18.1731 6.2182 1.68731
3200 1 19.0806 4.64417 0.358837
9491 2 20.901 4.64938 1.691
187 1 21.8089 6.21219 0.355159
3237 1 13.6249 7.78022 0.350429
9571 2 12.7176 9.35586 1.67677
9531 2 15.4453 7.78703 1.68257
3239 1 16.3534 9.34826 0.344648
9529 2 18.1738 9.35586 1.67677
3193 1 19.0811 7.78022 0.350429
9490 2 20.9016 7.78703 1.68257
182 1 21.8096 9.34826 0.344648
3224 1 13.6257 10.9163 0.337817
9562 2 12.7185 12.4936 1.66201
9530 2 15.4461 10.9247 1.66992
3222 1 16.3543 12.4844 0.329937
9532 2 18.1748 12.4936 1.66201
3192 1 19.0819 10.9163 0.337817
9483 2 20.9024 10.9247 1.66992
183 1 21.8106 12.4844 0.329937
3223 1 13.6268 14.0526 0.321006
9563 2 12.7197 15.6315 1.64301
9516 2 15.4472 14.0625 1.65304
3225 1 16.3556 15.6208 0.311018
9514 2 18.176 15.6315 1.64301
3178 1 19.083 14.0526 0.321006
9482 2 20.9035 14.0625 1.65304
181 1 21.8118 15.6208 0.311018
3213 1 13.6282 17.1892 0.29996
9989 2 12.7212 18.7696 1.61976
9515 2 15.4486 17.2005 1.63192
3629 1 16.3571 18.7576 0.28783
9961 2 18.1775 18.7696 1.61976
3177 1 19.0844 17.1892 0.29996
9467 2 20.9048 17.2005 1.63192
574 1 21.8133 18.7576 0.28783
3234 1 11.8053 1.51311 2.96193
3232 1 14.5335 3.08278 2.96035
9541 2 13.6237 1.51671 4.263
3231 1 12.7132 3.09074 5.54279
3198 1 17.2615 1.51311 2.96193
3186 1 15.4412 1.51944 5.54437
9542 2 16.3519 3.08718 4.26142
3184 1 18.1695 3.09074 5.54279
3199 1 19.9898 3.08278 2.96035
3132 1 20.8975 1.51944 5.54437
9489 2 19.0799 1.51671 4.263
6304 2 21.8081 3.08718 4.26142
3233 1 11.8056 4.65244 2.95771
3235 1 14.5339 6.2221 2.95402
9527 2 13.6239 4.65765 4.25878
3216 1 12.7136 6.2333 5.53647
3190 1 17.2618 4.65244 2.95771
3185 1 15.4415 4.66203 5.54016
9525 2 16.3523 6.2281 4.25509
3187 1 18.1699 6.2333 5.53647
3188 1 19.9902 6.2221 2.95402
3131 1 20.8978 4.66203 5.54016
9488 2 19.0802 4.65765 4.25878
6305 2 21.8085 6.2281 4.25509
3220 1 11.8061 7.79176 2.94927
3218 1 14.5346 9.36143 2.94347
9526 2 13.6245 7.79856 4.25034
3217 1 12.7144 9.37584 5.52591
3189 1 17.2624 7.79176 2.94927
3171 1 15.4421 7.80457 5.53172
9528 2 16.353 9.36901 4.24453
3169 1 18.1706 9.37584 5.52591
3191 1 19.9909 9.36143 2.94347
3130 1 20.8983 7.80457 5.53172
9481 2 19.0807 7.79856 4.25034
6296 2 21.8092 9.36901 4.24453
3219 1 11.807 10.9311 2.93661
3221 1 14.5356 12.5008 2.92869
9512 2 13.6253 10.9395 4.23766
3208 1 12.7154 12.5184 5.51111
3175 1 17.2632 10.9311 2.93661
3170 1 15.4429 10.9471 5.51904
9510 2 16.354 12.5099 4.22974
3172 1 18.1716 12.5184 5.51111
3173 1 19.9919 12.5008 2.92869
3123 1 20.8992 10.9471 5.51904
9480 2 19.0816 10.9395 4.23766
6297 2 21.8102 12.5099 4.22974
3212 1 11.8081 14.0706 2.9197
3210 1 14.5369 15.6404 2.90965
9511 2 13.6265 14.0804 4.22074
3209 1 12.7167 15.661 5.49204
3174 1 17.2643 14.0706 2.9197
3156 1 15.4441 14.0897 5.50211
9513 2 16.3553 15.651 4.21069
3154 1 18.1729 15.661 5.49204
6295 2 21.8115 15.651 4.21069
9466 2 19.0827 14.0804 4.22074
3122 1 20.9003 14.0897 5.50211
3176 1 19.9931 15.6404 2.90965
3614 1 12.7183 18.8036 5.4687
3628 1 14.5384 18.7801 2.88635
9501 2 13.6279 17.2215 4.19957
3211 1 11.8095 17.2102 2.89853
3580 1 18.1745 18.8036 5.4687
9948 2 16.3568 18.7921 4.18738
3155 1 15.4455 17.2323 5.4809
3157 1 17.2657 17.2102 2.89853
6724 2 21.8131 18.7921 4.18738
3581 1 19.9947 18.7801 2.88635
9465 2 19.0841 17.2215 4.19957
3108 1 20.9018 17.2323 5.4809
3182 1 13.6209 1.52558 8.12093
9523 2 11.8032 1.52262 6.83482
9521 2 14.5314 3.09472 6.83325
9486 2 17.2594 1.52262 6.83482
3183 1 16.3492 3.09849 8.11936
3129 1 19.0772 1.52558 8.12093
9487 2 19.9876 3.09472 6.83325
142 1 21.8054 3.09849 8.11936
3167 1 13.6212 4.67138 8.11674
9522 2 11.8034 4.6668 6.83062
9524 2 14.5318 6.23886 6.82694
9478 2 17.2597 4.6668 6.83062
3165 1 16.3496 6.24425 8.11307
3128 1 19.0775 4.67138 8.11674
9476 2 19.9881 6.23886 6.82694
143 1 21.8058 6.24425 8.11307
3166 1 13.6218 7.81711 8.10834
9508 2 11.804 7.81092 6.8222
9506 2 14.5325 9.38296 6.81641
9477 2 17.2603 7.81092 6.8222
3168 1 16.3503 9.38995 8.10255
3121 1 19.078 7.81711 8.10834
9479 2 19.9888 9.38296 6.81641
134 1 21.8065 9.38995 8.10255
3152 1 13.6227 10.9628 8.0957
9507 2 11.8049 10.955 6.80955
9509 2 14.5335 12.527 6.80163
9463 2 17.2611 10.955 6.80955
3150 1 16.3513 12.5356 8.08779
3120 1 19.0789 10.9628 8.0957
9461 2 19.9898 12.527 6.80163
135 1 21.8075 12.5356 8.08779
3151 1 13.6238 14.1084 8.07882
9500 2 11.806 14.099 6.79265
9498 2 14.5348 15.6711 6.78261
9462 2 17.2623 14.099 6.79265
3153 1 16.3526 15.6811 8.06878
3107 1 19.08 14.1084 8.07882
9464 2 19.9911 15.6711 6.78261
133 1 21.8089 15.6811 8.06878
3141 1 13.6253 17.2539 8.05767
9499 2 11.8075 17.2431 6.7715
9947 2 14.5364 18.8151 6.75934
9448 2 17.2637 17.2431 6.7715
3565 1 16.3542 18.8266 8.0455
3106 1 19.0815 17.2539 8.05767
541 1 21.8105 18.8266 8.0455
9893 2 19.9926 18.8151 6.75934
3163 1 11.8009 1.53171 10.695
9470 2 13.6193 1.53475 11.9801
9520 2 12.7112 3.10234 9.40601
3161 1 14.5291 3.10621 10.6935
9474 2 15.4392 1.52864 9.40757
3126 1 17.2571 1.53171 10.695
9472 2 18.1674 3.10234 9.40601
9471 2 16.3476 3.11003 11.9786
9432 2 20.8954 1.52864 9.40757
9429 2 19.0756 1.53475 11.9801
3127 1 19.9854 3.10621 10.6935
6238 2 21.8038 3.11003 11.9786
3162 1 11.8012 4.68068 10.6909
9455 2 13.6196 4.68527 11.976
9504 2 12.7116 6.24966 9.39974
3164 1 14.5295 6.25513 10.6872
9473 2 15.4395 4.67601 9.4034
3118 1 17.2574 4.68068 10.6909
9475 2 18.1679 6.24966 9.39974
9453 2 16.348 6.26049 11.9724
9431 2 20.8957 4.67601 9.4034
9428 2 19.0758 4.68527 11.976
3116 1 19.9858 6.25513 10.6872
6239 2 21.8042 6.26049 11.9724
9505 2 12.7123 9.3969 9.38927
3148 1 11.8017 7.82955 10.6825
9454 2 13.6201 7.83567 11.9677
3146 1 14.5302 9.40393 10.6768
9459 2 15.44 7.82329 9.39503
9457 2 18.1686 9.3969 9.38927
3117 1 17.258 7.82955 10.6825
9456 2 16.3486 9.41082 11.962
9430 2 20.8963 7.82329 9.39503
9422 2 19.0764 7.83567 11.9677
3119 1 19.9865 9.40393 10.6768
6230 2 21.8049 9.41082 11.962
9496 2 12.7133 12.544 9.37458
3147 1 11.8026 10.9783 10.67
9443 2 13.6209 10.9859 11.9553
3149 1 14.5312 12.5526 10.6621
9458 2 15.4409 10.9705 9.38245
9460 2 18.1695 12.544 9.37458
3104 1 17.2588 10.9783 10.67
9441 2 16.3495 12.561 11.9475
9424 2 20.8971 10.9705 9.38245
9421 2 19.0772 10.9859 11.9553
3102 1 19.9874 12.5526 10.6621
6231 2 21.8058 12.561 11.9475
9497 2 12.7146 15.691 9.35566
3140 1 11.8037 14.1269 10.6532
9442 2 13.622 14.136 11.9386
3138 1 14.5325 15.7011 10.6432
9447 2 15.442 14.1175 9.36565
9445 2 18.1708 15.691 9.35566
3103 1 17.2599 14.1269 10.6532
9444 2 16.3508 15.7109 11.9287
9423 2 20.8983 14.1175 9.36565
9415 2 19.0782 14.136 11.9386
3105 1 19.9887 15.7011 10.6432
6229 2 21.807 15.7109 11.9287
3139 1 11.8051 17.2753 10.6322
9436 2 13.6234 17.2858 11.9178
9927 2 12.7162 18.8379 9.33251
3564 1 14.534 18.8494 10.6202
9446 2 15.4434 17.2645 9.34461
3093 1 17.2613 17.2753 10.6322
9892 2 18.1724 18.8379 9.33251
9877 2 16.3523 18.8606 11.9058
9416 2 20.8997 17.2645 9.34461
9414 2 19.0796 17.2858 11.9178
3509 1 19.9903 18.8494 10.6202
6662 2 21.8085 18.8606 11.9058
3110 1 13.618 1.54412 15.8395
9451 2 11.7998 1.54094 14.5521
3160 1 12.7094 3.11395 13.2662
9449 2 14.528 3.11777 14.5506
3114 1 15.4374 1.53789 13.2677
9426 2 17.256 1.54094 14.5521
3111 1 16.3462 3.12174 15.838
3112 1 18.1656 3.11395 13.2662
3081 1 19.0743 1.54412 15.8395
3084 1 20.8937 1.53789 13.2677
9427 2 19.9842 3.11777 14.5506
70 1 21.8025 3.12174 15.838
3096 1 13.6183 4.69933 15.8355
9450 2 11.8 4.69458 14.5481
3144 1 12.7098 6.26599 13.2601
9452 2 14.5284 6.27134 14.5445
3113 1 15.4377 4.68999 13.2637
9419 2 17.2563 4.69458 14.5481
3094 1 16.3466 6.27687 15.832
3115 1 18.166 6.26599 13.2601
3080 1 19.0745 4.69933 15.8355
3083 1 20.8939 4.68999 13.2637
9417 2 19.9846 6.27134 14.5445
71 1 21.8028 6.27687 15.832
3095 1 13.6187 7.85437 15.8274
9439 2 11.8005 7.84806 14.5399
9437 2 14.529 9.42474 14.5343
3145 1 12.7104 9.41788 13.2497
3100 1 15.4382 7.84196 13.2554
9418 2 17.2567 7.84806 14.5399
3098 1 18.1667 9.41788 13.2497
3097 1 16.3471 9.43182 15.8218
3077 1 19.0749 7.85437 15.8274
3082 1 20.8944 7.84196 13.2554
9420 2 19.9852 9.42474 14.5343
62 1 21.8034 9.43182 15.8218
9438 2 11.8012 11.0014 14.5276
3088 1 13.6194 11.0092 15.8152
9440 2 14.5298 12.5779 14.5199
3136 1 12.7113 12.5696 13.2353
9412 2 17.2575 11.0014 14.5276
3099 1 15.439 10.9937 13.243
3101 1 18.1676 12.5696 13.2353
3086 1 16.3479 12.5865 15.8076
63 1 21.8042 12.5865 15.8076
9410 2 19.986 12.5779 14.5199
3079 1 20.8952 10.9937 13.243
3076 1 19.0756 11.0092 15.8152
3137 1 12.7125 15.721 13.2166
9433 2 14.5309 15.7308 14.5014
9435 2 11.8022 14.1544 14.5112
3087 1 13.6203 14.1637 15.7989
3090 1 18.1687 15.721 13.2166
3089 1 16.349 15.7408 15.7892
9411 2 17.2584 14.1544 14.5112
3092 1 15.44 14.1453 13.2264
9413 2 19.9871 15.7308 14.5014
61 1 21.8052 15.7408 15.7892
3074 1 19.0765 14.1637 15.7989
3078 1 20.8962 14.1453 13.2264
3085 1 13.6215 17.3179 15.7785
9434 2 11.8034 17.3071 14.4906
9876 2 14.5323 18.8833 14.4788
3543 1 12.714 18.8721 13.1938
9409 2 17.2597 17.3071 14.4906
3091 1 15.4413 17.2966 13.2057
3493 1 16.3503 18.8947 15.7667
3508 1 18.1702 18.8721 13.1938
3073 1 19.0777 17.3179 15.7785
3075 1 20.8976 17.2966 13.2057
470 1 21.8065 18.8947 15.7667
9833 2 19.9885 18.8833 14.4788
3454 1 11.799 1.55043 18.4105
9792 2 12.7088 3.12558 17.122
3452 1 14.5272 3.12958 18.4091
9778 2 15.4368 1.5472 17.1235
3431 1 17.2552 1.55043 18.4105
9776 2 18.165 3.12558 17.122
9732 2 20.893 1.5472 17.1235
3432 1 19.9834 3.12958 18.4091
3453 1 11.7992 4.70871 18.4066
9788 2 12.7091 6.28223 17.116
3455 1 14.5274 6.28779 18.4031
9777 2 15.437 4.70393 17.1195
3427 1 17.2554 4.70871 18.4066
9779 2 18.1653 6.28223 17.116
9731 2 20.8932 4.70393 17.1195
3425 1 19.9837 6.28779 18.4031
3447 1 11.7995 7.86682 18.3986
9789 2 12.7096 9.43868 17.1059
3445 1 14.5279 9.44578 18.3931
9770 2 15.4374 7.86048 17.1115
3426 1 17.2558 7.86682 18.3986
9768 2 18.1658 9.43868 17.1059
9730 2 20.8937 7.86048 17.1115
3428 1 19.9841 9.44578 18.3931
3446 1 11.8001 11.0247 18.3866
9784 2 12.7103 12.5948 17.0918
9769 2 15.438 11.0168 17.0994
3415 1 17.2563 11.0247 18.3866
9771 2 18.1665 12.5948 17.0918
9723 2 20.8943 11.0168 17.0994
3440 1 11.8009 14.1822 18.3706
3448 1 14.5286 12.6035 18.3791
9785 2 12.7113 15.7506 17.0736
3414 1 17.2571 14.1822 18.3706
9756 2 15.4389 14.1728 17.0832
9754 2 18.1675 15.7506 17.0736
3413 1 19.9848 12.6035 18.3791
9722 2 20.8951 14.1728 17.0832
3439 1 11.8018 17.3392 18.3506
3438 1 14.5294 15.7608 18.3611
3397 1 17.2581 17.3392 18.3506
9755 2 15.44 17.3284 17.063
3416 1 19.9857 15.7608 18.3611
9707 2 20.8962 17.3284 17.063
9774 2 13.6179 1.55354 19.6941
9762 2 11.7994 1.55994 22.2639
3451 1 12.7084 3.13749 20.9793
9760 2 14.5276 3.14138 22.2625
3423 1 15.4365 1.5568 20.9808
9726 2 17.2556 1.55994 22.2639
9775 2 16.3461 3.13345 19.6926
3421 1 18.1647 3.13749 20.9793
9729 2 19.0742 1.55354 19.6941
3372 1 20.8927 1.5568 20.9808
6522 2 21.8023 3.13345 19.6926
9727 2 19.9838 3.14138 22.2625
9766 2 13.6181 4.71333 19.6902
9761 2 11.7995 4.72279 22.2601
3443 1 12.7086 6.29875 20.9735
3422 1 15.4366 4.71814 20.9769
9718 2 17.2558 4.72279 22.2601
9764 2 16.3464 6.29317 19.6867
3424 1 18.1649 6.29875 20.9735
9728 2 19.0743 4.71333 19.6902
3371 1 20.8929 4.71814 20.9769
6523 2 21.8026 6.29317 19.6867
9765 2 13.6184 7.87294 19.6823
9748 2 11.7998 7.88546 22.2524
9763 2 14.5277 6.30415 22.2568
3411 1 15.4369 7.8793 20.9691
9717 2 17.256 7.88546 22.2524
9721 2 19.0747 7.87294 19.6823
3370 1 20.8932 7.8793 20.9691
9716 2 19.984 6.30415 22.2568
9752 2 13.6189 11.0323 19.6704
3444 1 12.709 9.45979 20.9637
9747 2 11.8001 11.0478 22.2408
9746 2 14.528 9.46669 22.2471
9767 2 16.3468 9.45266 19.6769
3410 1 15.4373 11.0402 20.9574
9703 2 17.2564 11.0478 22.2408
3409 1 18.1652 9.45979 20.9637
9720 2 19.0751 11.0323 19.6704
3363 1 20.8936 11.0402 20.9574
9719 2 19.9843 9.46669 22.2471
6518 2 21.803 9.45266 19.6769
9751 2 13.6196 14.1913 19.6546
3436 1 12.7095 12.6205 20.95
9740 2 11.8006 14.2098 22.2253
9749 2 14.5285 12.6289 22.2335
9750 2 16.3473 12.6118 19.663
3396 1 15.4379 14.2007 20.9417
9702 2 17.2568 14.2098 22.2253
3412 1 18.1657 12.6205 20.95
9706 2 19.0758 14.1913 19.6546
3362 1 20.8942 14.2007 20.9417
9701 2 19.9847 12.6289 22.2335
6519 2 21.8036 12.6118 19.663
9741 2 13.6205 17.3498 19.6348
3437 1 12.7102 15.7808 20.9324
9739 2 11.8013 17.3713 22.2059
9738 2 14.529 15.7907 22.2161
9753 2 16.3481 15.7706 19.6452
3395 1 15.4387 17.3607 20.9221
9685 2 17.2575 17.3713 22.2059
3394 1 18.1664 15.7808 20.9324
9705 2 19.0767 17.3498 19.6348
3347 1 20.8949 17.3607 20.9221
9704 2 19.9853 15.7907 22.2161
6517 2 21.8044 15.7706 19.6452
3419 1 13.6182 1.56323 23.5502
9759 2 12.7094 3.14937 24.8316
9714 2 15.4375 1.56641 24.833
3420 1 16.3463 3.14545 23.5488
9712 2 18.1657 3.14937 24.8316
3369 1 19.0744 1.56323 23.5502
9660 2 20.8938 1.56641 24.833
369 1 21.8026 3.14545 23.5488
3407 1 13.6183 4.72763 23.5465
9713 2 15.4376 4.73231 24.8293
3368 1 19.0745 4.72763 23.5465
9659 2 20.8938 4.73231 24.8293
3406 1 13.6184 7.89184 23.5388
9744 2 12.7095 6.3152 24.826
3405 1 16.3465 6.30977 23.5431
9699 2 15.4377 7.89803 24.8218
9715 2 18.1658 6.3152 24.826
3361 1 19.0747 7.89184 23.5388
9658 2 20.894 7.89803 24.8218
370 1 21.8027 6.30977 23.5431
3392 1 13.6187 11.0558 23.5273
9745 2 12.7097 9.48079 24.8166
3408 1 16.3467 9.47385 23.5336
9698 2 15.4379 11.0635 24.8104
9697 2 18.1659 9.48079 24.8166
3360 1 19.075 11.0558 23.5273
9651 2 20.8942 11.0635 24.8104
362 1 21.8029 9.47385 23.5336
3391 1 13.6191 14.2193 23.512
9736 2 12.71 12.6461 24.8033
9700 2 18.1662 12.6461 24.8033
9684 2 15.4382 14.2285 24.7952
3390 1 16.347 12.6376 23.5201
363 1 21.8033 12.6376 23.5201
9650 2 20.8945 14.2285 24.7952
3346 1 19.0754 14.2193 23.512
9737 2 12.7103 15.8109 24.7862
3381 1 13.6196 17.3823 23.4928
9682 2 18.1665 15.8109 24.7862
9683 2 15.4386 17.393 24.7763
3393 1 16.3475 15.8009 23.5029
361 1 21.8037 15.8009 23.5029
9636 2 20.8949 17.393 24.7763
3345 1 19.0759 17.3823 23.4928
3403 1 11.8002 1.56973 26.1189
9710 2 13.6198 1.57293 27.4013
3366 1 17.2565 1.56973 26.1189
3354 1 15.439 1.57628 28.6868
3306 1 20.8952 1.57628 28.6868
9657 2 19.0761 1.57293 27.4013
3402 1 11.8003 4.73718 26.1152
3401 1 14.5284 3.15347 26.1175
3400 1 12.7109 3.16155 28.6855
9695 2 13.6198 4.74189 27.3977
3358 1 17.2565 4.73718 26.1152
3353 1 15.439 4.74679 28.6832
9711 2 16.348 3.15743 27.4
3352 1 18.1671 3.16155 28.6855
3367 1 19.9846 3.15347 26.1175
3305 1 20.8952 4.74679 28.6832
9656 2 19.0761 4.74189 27.3977
6478 2 21.8042 3.15743 27.4
3388 1 11.8004 7.90445 26.1078
3404 1 14.5284 6.32084 26.112
3384 1 12.7109 6.33198 28.68
9694 2 13.6199 7.91067 27.3903
3357 1 17.2566 7.90445 26.1078
3339 1 15.439 7.91712 28.6759
9693 2 16.348 6.3263 27.3945
3355 1 18.1671 6.33198 28.68
3356 1 19.9847 6.32084 26.112
3304 1 20.8952 7.91712 28.6759
9649 2 19.0761 7.91067 27.3903
6479 2 21.8042 6.3263 27.3945
3387 1 11.8005 11.0714 26.0965
3386 1 14.5285 9.48798 26.1026
3385 1 12.7108 9.50219 28.6708
9680 2 13.62 11.0792 27.3792
3343 1 17.2567 11.0714 26.0965
3338 1 15.439 11.0872 28.6649
9696 2 16.348 9.49496 27.3852
3337 1 18.1671 9.50219 28.6708
3359 1 19.9848 9.48798 26.1026
3297 1 20.8952 11.0872 28.6649
9648 2 19.0762 11.0792 27.3792
6470 2 21.8043 9.49496 27.3852
3380 1 11.8007 14.238 26.0815
3389 1 14.5287 12.6548 26.0895
3376 1 12.7108 12.6721 28.658
9679 2 13.62 14.2473 27.3643
3342 1 17.2569 14.238 26.0815
3325 1 15.4389 14.2569 28.6502
9678 2 16.3481 12.6633 27.3722
3340 1 18.1671 12.6721 28.658
3341 1 19.9849 12.6548 26.0895
3296 1 20.8952 14.2569 28.6502
9635 2 19.0763 14.2473 27.3643
6471 2 21.8043 12.6633 27.3722
3379 1 11.8009 17.4041 26.0628
3378 1 14.5289 15.8212 26.0726
3377 1 12.7108 15.8416 28.6415
9669 2 13.6202 17.4149 27.3458
3326 1 17.2572 17.4041 26.0628
3324 1 15.4389 17.4261 28.6319
9681 2 16.3482 15.8312 27.3555
3323 1 18.1671 15.8416 28.6415
3344 1 19.9852 15.8212 26.0726
3285 1 20.8952 17.4261 28.6319
9634 2 19.0764 17.4149 27.3458
6469 2 21.8045 15.8312 27.3555
3350 1 13.622 1.58289 31.2539
9691 2 11.8026 1.57951 29.9688
9642 2 15.4421 1.58614 32.5355
9654 2 17.2588 1.57951 29.9688
3303 1 19.0782 1.58289 31.2539
9612 2 20.8983 1.58614 32.5355
3335 1 13.6219 4.75645 31.2504
9688 2 12.7139 3.17369 32.5342
9690 2 11.8026 4.75152 29.9653
9689 2 14.5307 3.16553 29.9675
3351 1 16.3501 3.16968 31.2526
9641 2 15.442 4.76122 32.532
9646 2 17.2588 4.75152 29.9653
9640 2 18.1702 3.17369 32.5342
3302 1 19.0782 4.75645 31.2504
9611 2 20.8982 4.76122 32.532
9655 2 19.9869 3.16553 29.9675
310 1 21.8063 3.16968 31.2526
3334 1 13.6218 7.92986 31.2432
9672 2 12.7138 6.34871 32.5289
9676 2 11.8025 7.92338 29.958
9692 2 14.5307 6.33748 29.9621
3333 1 16.35 6.34318 31.2472
9628 2 15.4419 7.93616 32.5249
9645 2 17.2587 7.92338 29.958
9643 2 18.1701 6.34871 32.5289
3295 1 19.0781 7.92986 31.2432
9610 2 20.8981 7.93616 32.5249
9644 2 19.9869 6.33748 29.9621
311 1 21.8062 6.34318 31.2472
3321 1 13.6217 11.103 31.2324
9673 2 12.7136 9.52355 32.52
9675 2 11.8024 11.095 29.9471
9674 2 14.5306 9.50922 29.953
3336 1 16.3499 9.51648 31.2382
9627 2 15.4416 11.1109 32.5142
9632 2 17.2587 11.095 29.9471
9626 2 18.1699 9.52355 32.52
3294 1 19.0779 11.103 31.2324
9607 2 20.8979 11.1109 32.5142
9647 2 19.9868 9.50922 29.953
302 1 21.8061 9.51648 31.2382
3320 1 13.6215 14.2759 31.2179
9664 2 12.7134 12.6981 32.5075
9668 2 11.8023 14.2662 29.9326
9677 2 14.5305 12.6807 29.9403
3319 1 16.3497 12.6895 31.2256
9620 2 15.4414 14.2853 32.4999
9631 2 17.2586 14.2662 29.9326
9629 2 18.1696 12.6981 32.5075
3284 1 19.0777 14.2759 31.2179
9606 2 20.8976 14.2853 32.4999
9630 2 19.9867 12.6807 29.9403
303 1 21.8059 12.6895 31.2256
3312 1 13.6212 17.4483 31.2
9665 2 12.7131 15.8724 32.4914
9667 2 11.8022 17.437 29.9144
9666 2 14.5304 15.8517 29.9239
3322 1 16.3495 15.8621 31.2094
9619 2 15.441 17.4593 32.482
9621 2 17.2585 17.437 29.9144
9618 2 18.1693 15.8724 32.4914
3283 1 19.0775 17.4483 31.2
9603 2 20.8973 17.4593 32.482
9633 2 19.9866 15.8517 29.9239
301 1 21.8057 15.8621 31.2094
3331 1 11.8055 1.58954 33.8201
9638 2 13.6258 1.5928 35.1013
3348 1 14.5336 0.00119712 33.8205
3300 1 17.2617 1.58954 33.8201
9637 2 16.354 0.00369678 35.1017
3299 1 19.9898 0.00119712 33.8205
9609 2 19.0821 1.5928 35.1013
6422 2 21.8102 0.00369678 35.1017
3330 1 11.8054 4.76617 33.8167
9624 2 13.6257 4.77097 35.0979
3329 1 14.5335 3.17787 33.8188
3292 1 17.2616 4.76617 33.8167
9639 2 16.3539 3.1819 35.1001
3301 1 19.9898 3.17787 33.8188
9608 2 19.082 4.77097 35.0979
6406 2 21.8101 3.1819 35.1001
3332 1 14.5334 6.35444 33.8136
3317 1 11.8052 7.94267 33.8096
9623 2 13.6255 7.94902 35.0909
9622 2 16.3537 6.36001 35.0948
3291 1 17.2614 7.94267 33.8096
9605 2 19.0817 7.94902 35.0909
3290 1 19.9896 6.35444 33.8136
6407 2 21.81 6.36001 35.0948
3315 1 14.5332 9.53085 33.8047
9616 2 13.6252 11.1269 35.0803
3316 1 11.8049 11.119 33.7989
9625 2 16.3535 9.53798 35.086
3281 1 17.2611 11.119 33.7989
9604 2 19.0814 11.1269 35.0803
3293 1 19.9894 9.53085 33.8047
6398 2 21.8097 9.53798 35.086
3318 1 14.5329 12.707 33.7923
9615 2 13.6248 14.3045 35.0662
3311 1 11.8045 14.295 33.7847
3280 1 17.2608 14.295 33.7847
9614 2 16.3531 12.7157 35.0737
9602 2 19.081 14.3045 35.0662
3279 1 19.9891 12.707 33.7923
6399 2 21.8093 12.7157 35.0737
3310 1 11.8041 17.4706 33.7671
9613 2 13.6242 17.4818 35.0486
3309 1 14.5324 15.8829 33.7763
3274 1 17.2603 17.4706 33.7671
9617 2 16.3526 15.8932 35.0578
6397 2 21.8089 15.8932 35.0578
3282 1 19.9887 15.8829 33.7763
9601 2 19.0805 17.4818 35.0486
9814 2 11.8101 1.59951 37.6663
15677 1 13.6303 1.60295 38.95
3327 1 12.7176 0.00634953 36.3858
9816 2 14.5383 0.00885805 37.6666
9803 2 17.2664 1.59951 37.6663
15676 1 16.3584 0.0115259 38.9503
3288 1 15.4457 1.59623 36.3855
3298 1 18.1739 0.00634953 36.3858
9802 2 19.9945 0.00885805 37.6666
15642 1 19.0865 1.60295 38.95
3270 1 20.902 1.59623 36.3855
12864 1 21.8147 0.0115259 38.9503
9813 2 11.81 4.78078 37.6629
15673 1 13.6301 4.78578 38.9466
3328 1 12.7175 3.1861 36.3842
9812 2 14.5382 3.19015 37.665
9800 2 17.2662 4.78078 37.6629
15678 1 16.3583 3.19437 38.9487
3287 1 15.4456 4.77595 36.3821
3286 1 18.1738 3.1861 36.3842
9804 2 19.9944 3.19015 37.665
15641 1 19.0864 4.78578 38.9466
3269 1 20.9018 4.77595 36.3821
12862 1 21.8146 3.19437 38.9487
9810 2 11.8097 7.96195 37.6559
15672 1 13.6298 7.96853 38.9397
3313 1 12.7174 6.36577 36.379
9815 2 14.538 6.37138 37.6598
9799 2 17.266 7.96195 37.6559
15671 1 16.3581 6.37717 38.9436
3277 1 15.4453 7.95556 36.3751
3289 1 18.1736 6.36577 36.379
9798 2 19.9942 6.37138 37.6598
15636 1 19.0861 7.96853 38.9397
3268 1 20.9016 7.95556 36.3751
12863 1 21.8143 6.37717 38.9436
9809 2 11.8093 11.143 37.6454
15662 1 13.6294 11.1512 38.9292
3314 1 12.717 9.54531 36.3703
9808 2 14.5376 9.55249 37.6511
9796 2 17.2655 11.143 37.6454
15674 1 16.3577 9.55986 38.9349
3276 1 15.445 11.135 36.3646
3275 1 18.1733 9.54531 36.3703
9801 2 19.9939 9.55249 37.6511
15635 1 19.0856 11.1512 38.9292
3267 1 20.9012 11.135 36.3646
12860 1 21.814 9.55986 38.9349
9807 2 11.8088 14.3238 37.6314
15661 1 13.6287 14.3336 38.9153
3307 1 12.7166 12.7247 36.358
9811 2 14.5372 12.7334 37.6389
9795 2 17.265 14.3238 37.6314
15660 1 16.3572 12.7424 38.9227
3273 1 15.4444 14.3142 36.3505
3278 1 18.1728 12.7247 36.358
9794 2 19.9934 12.7334 37.6389
15622 1 19.085 14.3336 38.9153
3266 1 20.9007 14.3142 36.3505
12861 1 21.8134 12.7424 38.9227
9806 2 11.8081 17.5044 37.614
15651 1 13.628 17.5159 38.898
3308 1 12.716 15.9037 36.3422
9805 2 14.5365 15.9141 37.6232
9793 2 17.2643 17.5044 37.614
15663 1 16.3565 15.9248 38.907
3272 1 15.4438 17.4932 36.3331
3271 1 18.1723 15.9037 36.3422
9797 2 19.9928 15.9141 37.6232
15621 1 19.0842 17.5159 38.898
3265 1 20.9 17.4932 36.3331
12859 1 21.8127 15.9248 38.907
21299 2 12.7231 0.0140391 40.2306
15669 1 11.8154 1.60971 41.5136
15675 1 14.5436 0.0167185 41.5139
21286 2 15.4512 1.60625 40.2303
15639 1 17.2717 1.60971 41.5136
21288 2 18.1794 0.0140391 40.2306
15638 1 19.9998 0.0167185 41.5139
21240 2 20.9075 1.60625 40.2303
21300 2 12.723 3.19845 40.2291
15668 1 11.8152 4.79566 41.5102
15667 1 14.5435 3.20269 41.5123
21285 2 15.4511 4.79064 40.2269
15633 1 17.2715 4.79566 41.5102
21284 2 18.1793 3.19845 40.2291
15640 1 19.9997 3.20269 41.5123
21239 2 20.9073 4.79064 40.2269
21296 2 12.7228 6.38281 40.2239
15658 1 11.8149 7.98157 41.5033
15670 1 14.5432 6.38863 41.5072
21278 2 15.4507 7.97496 40.22
15632 1 17.2711 7.98157 41.5033
21287 2 18.179 6.38281 40.2239
15631 1 19.9994 6.38863 41.5072
21238 2 20.907 7.97496 40.22
21297 2 12.7224 9.56709 40.2152
15657 1 11.8144 11.1674 41.4929
15656 1 14.5428 9.57449 41.4985
21277 2 15.4503 11.1592 40.2096
15619 1 17.2706 11.1674 41.4929
21276 2 18.1786 9.56709 40.2152
15634 1 19.999 9.57449 41.4985
21231 2 20.9065 11.1592 40.2096
21292 2 12.7219 12.7512 40.203
15650 1 11.8137 14.3531 41.479
15659 1 14.5422 12.7603 41.4864
15618 1 17.2699 14.3531 41.479
21264 2 15.4496 14.3433 40.1957
21279 2 18.1781 12.7512 40.203
15617 1 19.9984 12.7603 41.4864
21230 2 20.9059 14.3433 40.1957
21293 2 12.7211 15.9353 40.1874
15649 1 11.8128 17.5387 41.4617
15648 1 14.5414 15.9459 41.4707
15601 1 17.2691 17.5387 41.4617
21263 2 15.4488 17.5272 40.1783
21262 2 18.1774 15.9353 40.1874
15620 1 19.9976 15.9459 41.4707
21215 2 20.9051 17.5272 40.1783
21282 2 13.6367 1.61301 42.7934
15665 1 12.7293 0.0219201 44.0766
21270 2 11.8227 1.61979 45.3556
21281 2 16.3648 0.0192324 42.7938
21280 2 14.5509 0.024431 45.356
15629 1 15.4574 1.61648 44.0762
21234 2 17.279 1.61979 45.3556
15637 1 18.1855 0.0219201 44.0766
21237 2 19.0929 1.61301 42.7934
15576 1 20.9136 1.61648 44.0762
21233 2 20.0071 0.024431 45.356
18478 2 21.8211 0.0192324 42.7938
21274 2 13.6365 4.80055 42.7901
15666 1 12.7292 3.21104 44.075
21269 2 11.8225 4.8105 45.3522
21283 2 16.3647 3.20678 42.7922
15628 1 15.4572 4.8056 44.0729
21226 2 17.2788 4.8105 45.3522
21268 2 14.5508 3.21515 45.3544
15627 1 18.1854 3.21104 44.075
21236 2 19.0927 4.80055 42.7901
15575 1 20.9134 4.8056 44.0729
21235 2 20.007 3.21515 45.3544
18474 2 21.821 3.20678 42.7922
21273 2 13.6361 7.98805 42.7832
15654 1 12.7289 6.40015 44.0699
21256 2 11.8222 8.0012 45.3453
21272 2 16.3645 6.3943 42.7871
15615 1 15.4568 7.99469 44.066
21225 2 17.2784 8.0012 45.3453
21271 2 14.5505 6.40586 45.3492
15630 1 18.1852 6.40015 44.0699
21229 2 19.0924 7.98805 42.7832
15574 1 20.9131 7.99469 44.066
21224 2 20.0067 6.40586 45.3492
18475 2 21.8207 6.3943 42.7871
21260 2 13.6356 11.1755 42.7727
15655 1 12.7285 9.58922 44.0612
21255 2 11.8216 11.1919 45.3348
21275 2 16.364 9.58177 42.7784
15614 1 15.4563 11.1837 44.0555
21211 2 17.2779 11.1919 45.3348
21254 2 14.55 9.59655 45.3405
15613 1 18.1847 9.58922 44.0612
21228 2 19.0919 11.1755 42.7727
15567 1 20.9125 11.1837 44.0555
21227 2 20.0063 9.59655 45.3405
18470 2 21.8203 9.58177 42.7784
21259 2 13.6349 14.3628 42.7588
15646 1 12.7278 12.7783 44.049
21248 2 11.8209 14.3825 45.3209
21257 2 14.5494 12.7872 45.3283
21258 2 16.3634 12.7692 42.7662
15600 1 15.4556 14.3727 44.0416
21210 2 17.2771 14.3825 45.3209
15616 1 18.1841 12.7783 44.049
21214 2 19.0912 14.3628 42.7588
15566 1 20.9118 14.3727 44.0416
21209 2 20.0056 12.7872 45.3283
18471 2 21.8197 12.7692 42.7662
21249 2 13.6341 17.5501 42.7414
15647 1 12.727 15.9672 44.0333
21247 2 11.82 17.5732 45.3034
21246 2 14.5486 15.9779 45.3126
21261 2 16.3626 15.9565 42.7505
15599 1 15.4546 17.5617 44.0242
21194 2 17.2762 17.5732 45.3034
15598 1 18.1832 15.9672 44.0333
21213 2 19.0903 17.5501 42.7414
15551 1 20.9109 17.5617 44.0242
21212 2 20.0048 15.9779 45.3126
18469 2 21.8189 15.9565 42.7505
15607 1 11.8307 1.63007 49.1987
15625 1 13.6437 1.62327 46.6379
15664 1 10.9156 0.0271237 46.6383
21266 2 12.7375 0.0296281 47.9172
15570 1 17.2869 1.63007 49.1987
15623 1 14.5588 0.0323231 49.1991
15624 1 16.3719 0.0271237 46.6383
21222 2 15.4656 1.62658 47.9169
15569 1 20.015 0.0323231 49.1991
15573 1 19.1 1.62327 46.6379
21174 2 20.9218 1.62658 47.9169
21232 2 18.1937 0.0296281 47.9172
15606 1 11.8305 4.8256 49.1953
15611 1 13.6435 4.81558 46.6346
15652 1 10.9155 3.21942 46.6367
21267 2 12.7374 3.22354 47.9156
15562 1 17.2867 4.8256 49.1953
15605 1 14.5587 3.22783 49.1974
15626 1 16.3718 3.21942 46.6367
21221 2 15.4654 4.8205 47.9135
15571 1 20.0149 3.22783 49.1974
15572 1 19.0998 4.81558 46.6346
21173 2 20.9216 4.8205 47.9135
21220 2 18.1936 3.22354 47.9156
15592 1 11.8301 8.02114 49.1883
15610 1 13.6431 8.00788 46.6276
15653 1 10.9152 6.41173 46.6315
21252 2 12.7371 6.41746 47.9104
15561 1 17.2863 8.02114 49.1883
15608 1 14.5584 6.42337 49.1922
15609 1 16.3715 6.41173 46.6315
21207 2 15.465 8.01443 47.9065
15560 1 20.0146 6.42337 49.1922
15565 1 19.0994 8.00788 46.6276
21172 2 20.9213 8.01443 47.9065
21223 2 18.1934 6.41746 47.9104
15591 1 11.8295 11.2167 49.1777
15596 1 13.6426 11.2002 46.6171
15644 1 10.9148 9.60403 46.6228
21253 2 12.7367 9.6114 47.9017
15547 1 17.2858 11.2167 49.1777
15590 1 14.5579 9.61893 49.1835
15612 1 16.371 9.60403 46.6228
21206 2 15.4645 11.2084 47.8959
15563 1 20.0142 9.61893 49.1835
15564 1 19.0988 11.2002 46.6171
21165 2 20.9207 11.2084 47.8959
21205 2 18.1929 9.6114 47.9017
15584 1 11.8288 14.4124 49.1636
15595 1 13.6419 14.3925 46.6031
15645 1 10.9141 12.7963 46.6106
21244 2 12.736 12.8054 47.8893
15546 1 17.285 14.4124 49.1636
15593 1 14.5573 12.8145 49.1711
15594 1 16.3704 12.7963 46.6106
21193 2 15.4638 14.4023 47.8818
15545 1 20.0136 12.8145 49.1711
15550 1 19.0981 14.3925 46.6031
21164 2 20.92 14.4023 47.8818
21208 2 18.1923 12.8054 47.8893
15583 1 11.8279 17.6081 49.1458
15585 1 13.6409 17.5849 46.5856
15643 1 10.9133 15.9887 46.5948
21245 2 12.7352 15.9994 47.8735
15532 1 17.2841 17.6081 49.1458
15582 1 14.5565 16.0102 49.1551
15597 1 16.3695 15.9887 46.5948
21192 2 15.4629 17.5964 47.8642
15548 1 20.0127 16.0102 49.1551
15549 1 19.0972 17.5849 46.5856
21153 2 20.9191 17.5964 47.8642
21191 2 18.1915 15.9994 47.8735
15603 1 12.7463 0.0375124 51.7589
21218 2 13.6528 1.63338 50.4771
21265 2 10.9248 0.0348179 50.4775
15558 1 15.4744 1.63688 51.7585
21217 2 16.381 0.0348179 50.4775
15516 1 20.9307 1.63688 51.7585
15568 1 18.2026 0.0375124 51.7589
21171 2 19.1091 1.63338 50.4771
15604 1 12.7462 3.23626 51.7572
21203 2 13.6527 4.83053 50.4737
21250 2 10.9247 3.23195 50.4759
15557 1 15.4742 4.83565 51.755
21219 2 16.3809 3.23195 50.4759
15515 1 20.9305 4.83565 51.755
15556 1 18.2025 3.23626 51.7572
21170 2 19.1089 4.83053 50.4737
15588 1 12.746 6.43505 51.752
21202 2 13.6523 8.02771 50.4666
21251 2 10.9244 6.42911 50.4706
15543 1 15.4739 8.03446 51.748
21201 2 16.3806 6.42911 50.4706
15514 1 20.9301 8.03446 51.748
15559 1 18.2022 6.43505 51.752
21163 2 19.1085 8.02771 50.4666
15589 1 12.7455 9.63389 51.7431
21189 2 13.6518 11.2249 50.456
21242 2 10.9239 9.62632 50.4618
15542 1 15.4733 11.2333 51.7373
21204 2 16.3802 9.62632 50.4618
15508 1 20.9296 11.2333 51.7373
15541 1 18.2018 9.63389 51.7431
21162 2 19.108 11.2249 50.456
15580 1 12.7449 12.8328 51.7306
21188 2 13.6511 14.4222 50.4417
21243 2 10.9233 12.8236 50.4493
15531 1 15.4727 14.4323 51.7229
21187 2 16.3796 12.8236 50.4493
15507 1 20.9289 14.4323 51.7229
15544 1 18.2011 12.8328 51.7306
21152 2 19.1073 14.4222 50.4417
15581 1 12.7441 16.0318 51.7144
21180 2 13.6502 17.6197 50.4239
21241 2 10.9225 16.0209 50.4333
15530 1 15.4718 17.6314 51.705
21190 2 16.3788 16.0209 50.4333
15500 1 20.928 17.6314 51.705
15529 1 18.2004 16.0318 51.7144
21151 2 19.1064 17.6197 50.4239
15554 1 13.6626 1.64369 54.3173
15602 1 10.9345 0.0426868 54.3177
21195 2 12.7573 0.0451537 55.5951
21199 2 11.8407 1.64018 53.0364
15553 1 16.3907 0.0426868 54.3177
21156 2 15.4854 1.64697 55.5948
21168 2 17.2969 1.64018 53.0364
21216 2 14.5689 0.0399947 53.0368
15513 1 19.1188 1.64369 54.3173
21138 2 20.9417 1.64697 55.5948
21166 2 18.2136 0.0451537 55.5951
21167 2 20.0251 0.0399947 53.0368
15539 1 13.6624 4.84572 54.3138
15586 1 10.9344 3.2447 54.316
21196 2 12.7572 3.2488 55.5934
21198 2 11.8405 4.84058 53.0329
15555 1 16.3906 3.2447 54.316
21155 2 15.4852 4.85065 55.5912
21160 2 17.2968 4.84058 53.0329
21197 2 14.5688 3.24038 53.0351
15512 1 19.1186 4.84572 54.3138
21137 2 20.9415 4.85065 55.5912
21154 2 18.2135 3.2488 55.5934
21169 2 20.025 3.24038 53.0351
15538 1 13.6621 8.04782 54.3067
15587 1 10.9341 6.44676 54.3107
21181 2 12.757 6.45252 55.5881
21185 2 11.8402 8.04104 53.0258
15537 1 16.3904 6.44676 54.3107
21145 2 15.4849 8.0544 55.584
21159 2 17.2964 8.04104 53.0258
21200 2 14.5685 6.4408 53.0298
15506 1 19.1183 8.04782 54.3067
21136 2 20.9411 8.0544 55.584
21157 2 18.2132 6.45252 55.5881
21158 2 20.0247 6.4408 53.0298
15527 1 13.6615 11.25 54.2958
15578 1 10.9337 9.6489 54.3017
21182 2 12.7566 9.65631 55.579
21184 2 11.8397 11.2416 53.015
15540 1 16.3899 9.6489 54.3017
21144 2 15.4844 11.2582 55.5731
21149 2 17.2959 11.2416 53.015
21183 2 14.5681 9.64129 53.0209
15505 1 19.1178 11.25 54.2958
21135 2 20.9406 11.2582 55.5731
21143 2 18.2128 9.65631 55.579
21161 2 20.0243 9.64129 53.0209
15526 1 13.6609 14.4523 54.2813
15579 1 10.9331 12.8511 54.289
21175 2 12.756 12.8602 55.5662
21179 2 11.839 14.4422 53.0006
15525 1 16.3894 12.8511 54.289
21141 2 15.4838 14.4622 55.5584
21148 2 17.2952 14.4422 53.0006
21186 2 14.5675 12.8419 53.0083
15499 1 19.1171 14.4523 54.2813
21134 2 20.94 14.4622 55.5584
21146 2 18.2122 12.8602 55.5662
21147 2 20.0237 12.8419 53.0083
21178 2 11.8382 17.643 52.9825
21176 2 12.7553 16.0643 55.5497
15577 1 10.9324 16.0536 54.2726
15520 1 13.6601 17.6548 54.263
21177 2 14.5667 16.0426 52.992
21142 2 17.2944 17.643 52.9825
21140 2 15.483 17.6664 55.54
15528 1 16.3886 16.0536 54.2726
21150 2 20.023 16.0426 52.992
21139 2 18.2115 16.0643 55.5497
21133 2 20.9392 17.6664 55.54
15498 1 19.1163 17.6548 54.263
21485 2 13.6745 1.65375 58.1521
21492 2 10.9464 0.0502903 58.1525
15535 1 11.8513 1.65048 56.8752
21484 2 16.4026 0.0502903 58.1525
15510 1 17.3076 1.65048 56.8752
15552 1 14.5795 0.0478432 56.8756
21450 2 19.1307 1.65375 58.1521
15509 1 20.0357 0.0478432 56.8756
21481 2 13.6743 4.86072 58.1485
21490 2 10.9463 3.25723 58.1508
15534 1 11.8512 4.8558 56.8716
21486 2 16.4025 3.25723 58.1508
15503 1 17.3074 4.8558 56.8716
15533 1 14.5794 3.25313 56.8739
21449 2 19.1306 4.86072 58.1485
15511 1 20.0356 3.25313 56.8739
21480 2 13.674 8.06777 58.1412
21491 2 10.9461 6.46423 58.1453
15523 1 11.8508 8.06121 56.8644
21479 2 16.4023 6.46423 58.1453
15502 1 17.3071 8.06121 56.8644
15536 1 14.5791 6.45849 56.8685
21444 2 19.1302 8.06777 58.1412
15501 1 20.0354 6.45849 56.8685
21470 2 13.6735 11.2749 58.1301
21488 2 10.9457 9.67134 58.1361
15522 1 11.8504 11.2667 56.8534
21482 2 16.4019 9.67134 58.1361
15496 1 17.3066 11.2667 56.8534
15521 1 14.5787 9.66395 56.8593
21443 2 19.1298 11.2749 58.1301
15504 1 20.035 9.66395 56.8593
21469 2 13.6729 14.4823 58.1152
21489 2 10.9451 12.8786 58.1231
15519 1 11.8497 14.4724 56.8386
21468 2 16.4013 12.8786 58.1231
15495 1 17.306 14.4724 56.8386
15524 1 14.5782 12.8695 56.8465
21430 2 19.1292 14.4823 58.1152
15494 1 20.0344 12.8695 56.8465
21459 2 13.6722 17.6898 58.0965
21487 2 10.9444 16.086 58.1063
15518 1 11.849 17.6783 56.82
21471 2 16.4007 16.086 58.1063
15493 1 17.3052 17.6783 56.82
15517 1 14.5775 16.0753 56.8298
21429 2 19.1284 17.6898 58.0965
15497 1 20.0337 16.0753 56.8298
15851 1 12.7688 0.0529837 59.4325
15834 1 13.6869 1.66407 61.9881
15850 1 10.9588 0.0581317 61.9886
21477 2 11.8642 1.6605 60.7084
15838 1 15.4969 1.65727 59.4321
15833 1 16.415 0.0581317 61.9886
21447 2 17.3204 1.6605 60.7084
21483 2 14.5923 0.0553989 60.7089
15792 1 20.9532 1.65727 59.4321
15840 1 18.2251 0.0529837 59.4325
15789 1 19.1431 1.66407 61.9881
21446 2 20.0485 0.0553989 60.7089
15852 1 12.7688 3.26157 59.4307
15826 1 13.6867 4.87599 61.9845
15846 1 10.9587 3.27002 61.9868
21476 2 11.864 4.87076 60.7048
15837 1 15.4968 4.86589 59.4285
15835 1 16.4149 3.27002 61.9868
21441 2 17.3202 4.87076 60.7048
21475 2 14.5922 3.26562 60.7071
15791 1 20.953 4.86589 59.4285
15836 1 18.225 3.26157 59.4307
15788 1 19.143 4.87599 61.9845
21448 2 20.0485 3.26562 60.7071
15848 1 12.7685 6.47023 59.4253
15825 1 13.6864 8.08801 61.977
15847 1 10.9585 6.48199 61.9812
21466 2 11.8637 8.08112 60.6973
15830 1 15.4965 8.0746 59.4211
15824 1 16.4147 6.48199 61.9812
21440 2 17.3199 8.08112 60.6973
21478 2 14.592 6.47593 60.7015
15790 1 20.9527 8.0746 59.4211
15839 1 18.2248 6.47023 59.4253
15781 1 19.1426 8.08801 61.977
21439 2 20.0482 6.47593 60.7015
15849 1 12.7681 9.67901 59.416
15812 1 13.6859 11.3002 61.9657
15842 1 10.9581 9.69408 61.9718
21465 2 11.8632 11.2916 60.6861
15829 1 15.496 11.2834 59.41
15827 1 16.4143 9.69408 61.9718
21427 2 17.3194 11.2916 60.6861
21464 2 14.5916 9.68635 60.6922
15783 1 20.9522 11.2834 59.41
15828 1 18.2244 9.67901 59.416
15780 1 19.1422 11.3002 61.9657
21442 2 20.0478 9.68635 60.6922
15844 1 12.7676 12.8879 59.403
15811 1 13.6854 14.5125 61.9505
15843 1 10.9575 12.9063 61.9586
21458 2 11.8626 14.5023 60.671
15816 1 15.4954 14.4925 59.395
15810 1 16.4138 12.9063 61.9586
21426 2 17.3189 14.5023 60.671
21467 2 14.5911 12.8969 60.6791
15782 1 20.9516 14.4925 59.395
15831 1 18.2238 12.8879 59.403
15766 1 19.1416 14.5125 61.9505
21425 2 20.0473 12.8969 60.6791
15845 1 12.7669 16.0971 59.3861
15801 1 13.6847 17.7252 61.9314
15841 1 10.9569 16.1188 61.9415
21457 2 11.8619 17.7132 60.652
15815 1 15.4947 17.7017 59.3761
15813 1 16.4131 16.1188 61.9415
21409 2 17.3182 17.7132 60.652
21456 2 14.5904 16.1077 60.662
15767 1 20.9509 17.7017 59.3761
15814 1 18.2232 16.0971 59.3861
15765 1 19.1409 17.7252 61.9314
21428 2 20.0466 16.1077 60.662
15822 1 11.8774 1.67099 64.5436
21433 2 13.7014 1.67382 65.8177
21472 2 10.9733 0.0654415 65.8182
21473 2 12.7825 0.0604663 63.2642
15786 1 17.3336 1.67099 64.5436
15832 1 14.6055 0.0634074 64.5441
21432 2 16.4296 0.0654415 65.8182
21437 2 15.5106 1.66721 63.2637
15785 1 20.0617 0.0634074 64.5441
21381 2 19.1577 1.67382 65.8177
21384 2 20.9669 1.66721 63.2637
21445 2 18.2388 0.0604663 63.2642
15821 1 11.8772 4.8862 64.5399
21419 2 13.7013 4.89064 65.8139
21460 2 10.9733 3.28221 65.8163
21474 2 12.7825 3.27397 63.2623
15778 1 17.3334 4.8862 64.5399
15820 1 14.6054 3.27858 64.5422
21434 2 16.4295 3.28221 65.8163
21436 2 15.5105 4.88076 63.26
15787 1 20.0617 3.27858 64.5422
21380 2 19.1575 4.89064 65.8139
21383 2 20.9667 4.88076 63.26
21435 2 18.2387 3.27397 63.2623
15808 1 11.8769 8.10153 64.5323
21418 2 13.7009 8.10757 65.8063
21461 2 10.973 6.49909 65.8106
21462 2 12.7822 6.48757 63.2567
15777 1 17.3331 8.10153 64.5323
15823 1 14.6052 6.49385 64.5366
21417 2 16.4292 6.49909 65.8106
21423 2 15.5102 8.09442 63.2525
15776 1 20.0614 6.49385 64.5366
21373 2 19.1572 8.10757 65.8063
21382 2 20.9664 8.09442 63.2525
21438 2 18.2385 6.48757 63.2567
15807 1 11.8764 11.317 64.5209
21404 2 13.7005 11.3247 65.7948
21452 2 10.9726 9.7161 65.8011
21463 2 12.7818 9.7013 63.2473
15763 1 17.3326 11.317 64.5209
15806 1 14.6048 9.70925 64.5271
21420 2 16.4288 9.7161 65.8011
21422 2 15.5097 11.3082 63.2411
15779 1 20.061 9.70925 64.5271
21372 2 19.1567 11.3247 65.7948
21375 2 20.9659 11.3082 63.2411
21421 2 18.2381 9.7013 63.2473
15800 1 11.8758 14.5327 64.5055
21403 2 13.6999 14.542 65.7794
21453 2 10.9721 12.9333 65.7876
21454 2 12.7813 12.9152 63.234
15762 1 17.3321 14.5327 64.5055
15809 1 14.6042 12.9248 64.5137
21402 2 16.4283 12.9333 65.7876
21408 2 15.5091 14.5222 63.2258
15761 1 20.0605 12.9248 64.5137
21358 2 19.1561 14.542 65.7794
21374 2 20.9654 14.5222 63.2258
21424 2 18.2375 12.9152 63.234
15799 1 11.8751 17.7486 64.4861
21393 2 13.6992 17.7596 65.7599
21451 2 10.9714 16.1507 65.7701
21455 2 12.7807 16.1293 63.2167
15746 1 17.3314 17.7486 64.4861
15798 1 14.6036 16.1406 64.4963
21405 2 16.4276 16.1507 65.7701
21407 2 15.5084 17.7365 63.2066
15764 1 20.0598 16.1406 64.4963
21357 2 19.1554 17.7596 65.7599
21359 2 20.9647 17.7365 63.2066
21406 2 18.2369 16.1293 63.2167
15818 1 12.7964 0.069392 67.0999
21415 2 11.8927 1.68009 68.3696
15774 1 15.5245 1.67861 67.0995
21378 2 17.3489 1.68009 68.3696
21431 2 14.6208 0.0700949 68.3701
15726 1 20.9807 1.67861 67.0995
15784 1 18.2526 0.069392 67.0999
21377 2 20.077 0.0700949 68.3701
15819 1 12.7963 3.28785 67.098
21414 2 11.8925 4.90014 68.3658
15773 1 15.5243 4.89711 67.0956
21370 2 17.3487 4.90014 68.3658
21413 2 14.6207 3.2901 68.3682
15725 1 20.9805 4.89711 67.0956
15772 1 18.2525 3.28785 67.098
21379 2 20.077 3.2901 68.3682
15804 1 12.796 6.5064 67.0923
21400 2 11.8922 8.12031 68.3581
15759 1 15.5239 8.11573 67.088
21369 2 17.3484 8.12031 68.3581
21416 2 14.6205 6.51021 68.3624
15724 1 20.9802 8.11573 67.088
15775 1 18.2523 6.5064 67.0923
21368 2 20.0767 6.51021 68.3624
15805 1 12.7956 9.7251 67.0827
21399 2 11.8917 11.3407 68.3465
15758 1 15.5235 11.3345 67.0764
21355 2 17.3479 11.3407 68.3465
21398 2 14.62 9.73047 68.3528
15717 1 20.9797 11.3345 67.0764
15757 1 18.2518 9.7251 67.0827
21371 2 20.0763 9.73047 68.3528
15796 1 12.795 12.944 67.0692
21392 2 11.891 14.5613 68.3309
15745 1 15.5228 14.5535 67.0609
21354 2 17.3472 14.5613 68.3309
21401 2 14.6195 12.9509 68.3392
15716 1 20.9791 14.5535 67.0609
15760 1 18.2513 12.944 67.0692
21353 2 20.0757 12.9509 68.3392
15797 1 12.7944 16.1631 67.0516
21391 2 11.8902 17.7821 68.3112
15744 1 15.5221 17.7728 67.0413
21340 2 17.3465 17.7821 68.3112
21390 2 14.6188 16.1717 68.3216
15705 1 20.9783 17.7728 67.0413
15743 1 18.2506 16.1631 67.0516
21356 2 20.075 16.1717 68.3216
15751 1 11.9009 1.69164 72.2352
15770 1 13.7149 1.68508 69.6591
15817 1 10.9868 0.0742193 69.6596
21411 2 12.8121 0.073504 70.917
15720 1 17.3571 1.69164 72.2352
15768 1 14.629 0.0791047 72.2357
15769 1 16.4431 0.0742193 69.6596
21366 2 15.5402 1.68508 70.9165
15719 1 20.0852 0.0791047 72.2357
15723 1 19.1712 1.68508 69.6591
21324 2 20.9965 1.68508 70.9165
21376 2 18.2684 0.073504 70.917
15750 1 11.9006 4.91679 72.2313
15755 1 13.7148 4.90685 69.6552
15802 1 10.9867 3.29595 69.6576
21412 2 12.812 3.29668 70.9151
15712 1 17.3569 4.91679 72.2313
15749 1 14.6289 3.3042 72.2338
15771 1 16.443 3.29595 69.6576
21365 2 15.54 4.90831 70.9126
15721 1 20.0851 3.3042 72.2338
15722 1 19.171 4.90685 69.6552
21323 2 20.9963 4.90831 70.9126
21364 2 18.2683 3.29668 70.9151
15737 1 11.9002 8.14206 72.2236
15754 1 13.7144 8.12876 69.6475
15803 1 10.9865 6.51778 69.6519
21396 2 12.8118 6.51997 70.9093
15711 1 17.3565 8.14206 72.2236
15752 1 14.6286 6.5294 72.2279
15753 1 16.4427 6.51778 69.6519
21351 2 15.5397 8.13168 70.9049
15710 1 20.0848 6.5294 72.2279
15715 1 19.1706 8.12876 69.6475
21322 2 20.9959 8.13168 70.9049
21367 2 18.268 6.51997 70.9093
15736 1 11.8996 11.3675 72.2119
15741 1 13.7139 11.3508 69.6359
15794 1 10.986 9.73977 69.6422
21397 2 12.8113 9.74344 70.8996
15701 1 17.3559 11.3675 72.2119
15735 1 14.6281 9.75475 72.2182
15756 1 16.4423 9.73977 69.6422
21350 2 15.5391 11.3553 70.8932
15713 1 20.0843 9.75475 72.2182
15714 1 19.1701 11.3508 69.6359
21316 2 20.9954 11.3553 70.8932
21349 2 18.2675 9.74344 70.8996
15731 1 11.8989 14.5931 72.1961
15740 1 13.7132 14.5731 69.6202
15795 1 10.9854 12.962 69.6286
21388 2 12.8107 12.9671 70.8859
15700 1 17.3551 14.5931 72.1961
15738 1 14.6274 12.9803 72.2045
15739 1 16.4417 12.962 69.6286
21339 2 15.5384 14.5791 70.8775
15699 1 20.0836 12.9803 72.2045
15704 1 19.1694 14.5731 69.6202
21315 2 20.9947 14.5791 70.8775
21352 2 18.2669 12.9671 70.8859
15730 1 11.8979 17.819 72.1763
15732 1 13.7124 17.7957 69.6005
15793 1 10.9847 16.1844 69.6109
21389 2 12.8099 16.1911 70.8682
15694 1 17.3542 17.819 72.1763
15729 1 14.6265 16.2061 72.1867
15742 1 16.4409 16.1844 69.6109
21338 2 15.5376 17.8032 70.8577
15702 1 20.0828 16.2061 72.1867
15703 1 19.1686 17.7957 69.6005
21308 2 20.9938 17.8032 70.8577
21337 2 18.2662 16.1911 70.8682
15747 1 12.7564 0.0918403 74.8871
21343 2 11.8926 1.6997 75.9233
21362 2 13.7299 1.68921 73.4487
21410 2 11.0018 0.0760698 73.4492
15708 1 15.4845 1.70654 74.8866
21318 2 17.3489 1.6997 75.9233
21360 2 14.6208 0.0847196 75.9238
21361 2 16.4581 0.0760698 73.4492
15690 1 20.9408 1.70654 74.8866
15718 1 18.2127 0.0918403 74.8871
21317 2 20.077 0.0847196 75.9238
21321 2 19.1862 1.68921 73.4487
15748 1 12.7563 3.32126 74.8851
21342 2 11.8924 4.92971 75.9194
21347 2 13.7297 4.91556 73.4448
21394 2 11.0017 3.30237 73.4473
15707 1 15.4843 4.93598 74.8827
21311 2 17.3486 4.92971 75.9194
21341 2 14.6206 3.31469 75.9219
21363 2 16.458 3.30237 73.4473
15689 1 20.9405 4.93598 74.8827
15706 1 18.2125 3.32126 74.8851
21319 2 20.0769 3.31469 75.9219
21320 2 19.186 4.91556 73.4448
15733 1 12.7559 6.55072 74.8793
21331 2 11.8919 8.15984 75.9116
21346 2 13.7293 8.14207 73.437
21395 2 11.0014 6.52879 73.4414
15697 1 15.4837 8.16547 74.8749
21310 2 17.3481 8.15984 75.9116
21344 2 14.6203 6.54476 75.916
21345 2 16.4577 6.52879 73.4414
15688 1 20.94 8.16547 74.8749
15709 1 18.2121 6.55072 74.8793
21309 2 20.0765 6.54476 75.916
21314 2 19.1856 8.14207 73.437
15734 1 12.7553 9.78023 74.8695
21330 2 11.8912 11.3901 75.8998
21335 2 13.7287 11.3688 73.4253
21386 2 11.0009 9.75541 73.4317
15696 1 15.483 11.395 74.8631
21304 2 17.3474 11.3901 75.8998
21329 2 14.6197 9.77496 75.9062
21348 2 16.4572 9.75541 73.4317
15687 1 20.9392 11.395 74.8631
15695 1 18.2115 9.78023 74.8695
21312 2 20.0759 9.77496 75.9062
21313 2 19.185 11.3688 73.4253
15727 1 12.7544 13.0098 74.8558
21327 2 11.8902 14.6206 75.8839
21334 2 13.728 14.5958 73.4095
21387 2 11.0002 12.9823 73.4179
15693 1 15.4819 14.6245 74.8474
21303 2 17.3465 14.6206 75.8839
21332 2 14.6189 13.0053 75.8924
21333 2 16.4565 12.9823 73.4179
15686 1 20.9382 14.6245 74.8474
15698 1 18.2106 13.0098 74.8558
21302 2 20.0751 13.0053 75.8924
21307 2 19.1842 14.5958 73.4095
15728 1 12.7532 16.2393 74.8379
21326 2 11.8891 17.8512 75.864
21328 2 13.727 17.8232 73.3896
21385 2 10.9994 16.2095 73.4001
15692 1 15.4807 17.854 74.8274
21301 2 17.3453 17.8512 75.864
21325 2 14.6178 16.2359 75.8745
21336 2 16.4556 16.2095 73.4001
15685 1 20.937 17.854 74.8274
15691 1 18.2095 16.2393 74.8379
21305 2 20.0741 16.2359 75.8745
21306 2 19.1832 17.8232 73.3896
9993 2 11.8146 20.3155 -0.948255
10001 2 13.6261 20.2929 -3.45534
3648 1 12.7045 21.8701 -2.40582
9991 2 14.5435 21.8833 -0.962428
3634 1 15.4312 20.3027 -2.39168
9963 2 17.2708 20.3155 -0.948255
10002 2 16.3552 21.8593 -3.46936
3632 1 18.1607 21.8701 -2.40582
3588 1 20.8874 20.3027 -2.39168
9966 2 19.0823 20.2929 -3.45534
9964 2 19.9997 21.8833 -0.962428
6742 2 21.8114 21.8593 -3.46936
9992 2 11.8163 23.4514 -0.977614
9997 2 13.6282 23.426 -3.48438
3644 1 12.7077 25.0056 -2.43711
9994 2 14.5453 25.0196 -0.993795
3633 1 15.4341 23.4377 -2.42097
9957 2 17.2725 23.4514 -0.977614
9995 2 16.3575 24.993 -3.50037
3635 1 18.164 25.0056 -2.43711
3587 1 20.8904 23.4377 -2.42097
9965 2 19.0844 23.426 -3.48438
9955 2 20.0015 25.0196 -0.993795
6743 2 21.8137 24.993 -3.50037
9982 2 11.8181 26.5881 -1.01095
9996 2 13.6306 26.5603 -3.51731
3645 1 12.7116 28.1425 -2.47228
9980 2 14.5472 28.1569 -1.02905
3626 1 15.4377 26.5739 -2.45423
9956 2 17.2744 26.5881 -1.01095
9998 2 16.36 28.1279 -3.53517
3624 1 18.1678 28.1425 -2.47228
3586 1 20.8939 26.5739 -2.45423
9960 2 19.0868 26.5603 -3.51731
9958 2 20.0035 28.1569 -1.02905
6740 2 21.8163 28.1279 -3.53517
9981 2 11.8201 29.726 -1.04807
9986 2 13.6333 29.696 -3.55392
3640 1 12.716 31.281 -2.5111
9983 2 14.5493 31.2955 -1.06797
3625 1 15.4418 29.7115 -2.49126
9943 2 17.2764 29.726 -1.04807
9984 2 16.3629 31.2645 -3.57352
3627 1 18.1723 31.281 -2.5111
3579 1 20.8981 29.7115 -2.49126
9959 2 19.0895 29.696 -3.55392
9941 2 20.0055 31.2955 -1.06797
6741 2 21.8191 31.2645 -3.57352
9974 2 11.8222 32.8654 -1.08869
9985 2 13.6363 32.8336 -3.59392
3641 1 12.7211 34.4216 -2.55323
3612 1 15.4466 32.851 -2.53178
9942 2 17.2785 32.8654 -1.08869
9972 2 14.5514 34.4358 -1.1102
9987 2 16.366 34.4033 -3.61506
3610 1 18.1774 34.4216 -2.55323
3578 1 20.9029 32.851 -2.53178
9946 2 19.0925 32.8336 -3.59392
9944 2 20.0077 34.4358 -1.1102
6739 2 21.8222 34.4033 -3.61506
9973 2 11.8244 36.0067 -1.13241
9975 2 13.6395 35.9736 -3.63688
4031 1 12.7268 37.5646 -2.5982
10416 2 10.9131 37.5446 -3.65931
3611 1 15.452 35.9928 -2.57539
9925 2 17.2806 36.0067 -1.13241
10407 2 14.5536 37.5781 -1.15527
10408 2 16.3694 37.5446 -3.65931
4020 1 18.1831 37.5646 -2.5982
3563 1 20.9083 35.9928 -2.57539
9945 2 19.0958 35.9736 -3.63688
10370 2 20.0098 37.5781 -1.15527
3630 1 13.6298 20.3261 0.274643
9990 2 12.7229 21.9082 1.5923
9953 2 15.4502 20.3389 1.60655
3631 1 16.3589 21.8948 0.260421
9951 2 18.1792 21.9082 1.5923
3585 1 19.0861 20.3261 0.274643
9900 2 20.9064 20.3389 1.60655
570 1 21.8151 21.8948 0.260421
3622 1 13.6317 23.4636 0.24518
9978 2 12.7249 25.0473 1.56072
9952 2 15.452 23.4776 1.57701
3620 1 16.3609 25.0327 0.228935
9954 2 18.1811 25.0473 1.56072
3584 1 19.088 23.4636 0.24518
9899 2 20.9082 23.4776 1.57701
571 1 21.8172 25.0327 0.228935
3621 1 13.6339 26.602 0.211708
9979 2 12.7271 28.1871 1.5252
9939 2 15.4541 26.6171 1.54344
3623 1 16.3632 28.1716 0.193524
9937 2 18.1833 28.1871 1.5252
3577 1 19.0902 26.602 0.211708
9898 2 20.9103 26.6171 1.54344
566 1 21.8194 28.1716 0.193524
3608 1 13.6363 29.7414 0.174413
9970 2 12.7294 31.3279 1.48595
9938 2 15.4563 29.7573 1.50602
3606 1 16.3657 31.3116 0.154414
9940 2 18.1856 31.3279 1.48595
3576 1 19.0926 29.7414 0.174413
9891 2 20.9126 29.7573 1.50602
567 1 21.8219 31.3116 0.154414
3607 1 13.6389 32.8822 0.133574
9971 2 12.7319 34.4699 1.44331
9924 2 15.4587 32.8987 1.46503
3609 1 16.3684 34.4532 0.111946
3562 1 19.0951 32.8822 0.133574
9890 2 20.915 32.8987 1.46503
9922 2 18.1881 34.4699 1.44331
565 1 21.8246 34.4532 0.111946
3597 1 13.6416 36.0247 0.0895941
4030 1 10.9149 37.5967 0.0665913
10397 2 12.7344 37.6136 1.39774
9923 2 15.4613 36.0416 1.42086
4013 1 16.3712 37.5967 0.0665913
3561 1 19.0979 36.0247 0.0895941
9875 2 20.9175 36.0416 1.42086
10369 2 18.1907 37.6136 1.39774
3618 1 11.8112 20.3501 2.8731
3616 1 14.5402 21.9202 2.8588
9949 2 13.6296 20.3628 4.17415
3615 1 12.7202 21.9464 5.4411
3582 1 17.2674 20.3501 2.8731
3570 1 15.4473 20.375 5.45543
9950 2 16.3586 21.9335 4.15986
3568 1 18.1764 21.9464 5.4411
3583 1 19.9965 21.9202 2.8588
3516 1 20.9035 20.375 5.45543
9897 2 19.0858 20.3628 4.17415
6712 2 21.8149 21.9335 4.15986
3617 1 11.8131 23.4904 2.84346
3619 1 14.5423 25.0607 2.82711
9935 2 13.6315 23.5043 4.14454
3600 1 12.7223 25.0894 5.40933
3574 1 17.2694 23.4904 2.84346
3569 1 15.4493 23.5179 5.42573
9933 2 16.3607 25.0752 4.12819
3571 1 18.1786 25.0894 5.40933
3572 1 19.9986 25.0607 2.82711
3515 1 20.9056 23.5179 5.42573
9896 2 19.0878 23.5043 4.14454
6713 2 21.817 25.0752 4.12819
3604 1 11.8153 26.6312 2.80976
3602 1 14.5447 28.2019 2.79143
9934 2 13.6338 26.6462 4.11085
3601 1 12.7248 28.2327 5.37351
3573 1 17.2716 26.6312 2.80976
3555 1 15.4517 26.661 5.39192
9936 2 16.3631 28.2173 4.09253
3553 1 18.1811 28.2327 5.37351
3575 1 20.0009 28.2019 2.79143
3514 1 20.9079 26.661 5.39192
9889 2 19.09 26.6462 4.11085
6704 2 21.8193 28.2173 4.09253
3603 1 11.8178 29.7727 2.77215
3605 1 14.5472 31.3439 2.75196
9920 2 13.6362 29.7886 4.07326
3592 1 12.7275 31.3765 5.33384
3559 1 17.274 29.7727 2.77215
3554 1 15.4543 29.8045 5.35414
9918 2 16.3657 31.3601 4.05308
3556 1 18.1838 31.3765 5.33384
3557 1 20.0034 31.3439 2.75196
3507 1 20.9105 29.8045 5.35414
9888 2 19.0925 29.7886 4.07326
6705 2 21.8219 31.3601 4.05308
3596 1 11.8204 32.9152 2.73091
3594 1 14.5499 34.4869 2.70905
9919 2 13.6389 32.9318 4.03203
3593 1 12.7305 34.5208 5.29061
3558 1 17.2767 32.9152 2.73091
3540 1 15.4571 32.9485 5.31264
9921 2 16.3685 34.5037 4.01017
3538 1 18.1867 34.5208 5.29061
3560 1 20.0062 34.4869 2.70905
3506 1 20.9134 32.9485 5.31264
9874 2 19.0952 32.9318 4.03203
6703 2 21.8247 34.5037 4.01017
3595 1 11.8232 36.0589 2.68643
9909 2 13.6418 36.0759 3.98755
3998 1 12.7336 37.666 5.24427
10396 2 10.9151 37.6484 3.96424
3541 1 17.2794 36.0589 2.68643
3539 1 15.4602 36.0933 5.2678
4012 1 14.5528 37.6313 2.66314
10356 2 16.3714 37.6484 3.96424
3492 1 20.9164 36.0933 5.2678
9873 2 19.098 36.0759 3.98755
3965 1 20.009 37.6313 2.66314
3964 1 18.1899 37.666 5.24427
3566 1 13.627 20.3993 8.03227
9931 2 11.8092 20.3872 6.74611
9929 2 14.5383 21.9592 6.73184
9894 2 17.2654 20.3872 6.74611
3567 1 16.3562 21.9721 8.01799
526 1 21.8124 21.9721 8.01799
3513 1 19.0833 20.3993 8.03227
9895 2 19.9945 21.9592 6.73184
3551 1 13.6291 23.5448 8.00265
9930 2 11.8112 23.5313 6.71652
9932 2 14.5405 25.1034 6.70018
9886 2 17.2675 23.5313 6.71652
3549 1 16.3584 25.1174 7.98629
527 1 21.8146 25.1174 7.98629
3512 1 19.0854 23.5448 8.00265
9884 2 19.9967 25.1034 6.70018
3550 1 13.6315 26.6901 7.9689
9916 2 11.8136 26.6755 6.68282
9913 2 12.7228 28.2776 9.23808
9914 2 14.543 28.2477 6.66448
9885 2 17.2698 26.6755 6.68282
3552 1 16.361 28.2628 7.9505
9865 2 18.1791 28.2776 9.23808
518 1 21.8172 28.2628 7.9505
3505 1 19.0878 26.6901 7.9689
9887 2 19.9992 28.2477 6.66448
3536 1 13.6343 29.8355 7.93113
9915 2 11.8162 29.8199 6.64518
9904 2 12.7257 31.4239 9.19863
9917 2 14.5458 31.3922 6.62494
9866 2 15.4524 29.8507 9.21882
9871 2 17.2725 29.8199 6.64518
3534 1 16.3639 31.4082 7.91081
9868 2 18.182 31.4239 9.19863
519 1 21.8201 31.4082 7.91081
3504 1 19.0905 29.8355 7.93113
9832 2 20.9086 29.8507 9.21882
9869 2 20.002 31.3922 6.62494
3535 1 13.6373 32.981 7.88958
9908 2 11.8191 32.9647 6.60382
9905 2 12.7289 34.57 9.15554
9906 2 14.5488 34.5372 6.58185
9855 2 15.4554 32.9969 9.17752
9870 2 17.2754 32.9647 6.60382
3537 1 16.367 34.5538 7.86749
9853 2 18.1851 34.57 9.15554
517 1 21.8233 34.5538 7.86749
3491 1 19.0935 32.981 7.88958
9831 2 20.9116 32.9969 9.17752
9872 2 20.005 34.5372 6.58185
3525 1 13.6406 36.1266 7.84457
9907 2 11.8223 36.1098 6.5591
3997 1 10.9142 37.6996 7.82091
10335 2 12.7324 37.7162 9.10919
9854 2 15.4587 36.1431 9.13275
9856 2 17.2785 36.1098 6.5591
3949 1 16.3704 37.6996 7.82091
10355 2 14.552 37.6827 6.53563
3490 1 19.0968 36.1266 7.84457
9824 2 20.915 36.1431 9.13275
10300 2 18.1886 37.7162 9.10919
10301 2 20.0083 37.6827 6.53563
9928 2 12.7181 21.9846 9.30515
3547 1 11.8068 20.4234 10.607
9878 2 13.625 20.4353 11.8928
3545 1 14.5359 21.9974 10.5928
9882 2 15.4452 20.4113 9.31935
9880 2 18.1743 21.9846 9.30515
3510 1 17.2631 20.4234 10.607
9879 2 16.3541 22.0099 11.8787
9840 2 20.9014 20.4113 9.31935
9837 2 19.0813 20.4353 11.8928
3511 1 19.9922 21.9974 10.5928
6646 2 21.8103 22.0099 11.8787
9912 2 12.7203 25.1312 9.27364
3546 1 11.8089 23.5713 10.5776
9863 2 13.627 23.5845 11.8636
3548 1 14.5382 25.1452 10.5614
9881 2 15.4472 23.5579 9.28991
9883 2 18.1765 25.1312 9.27364
3502 1 17.2651 23.5713 10.5776
9861 2 16.3563 25.1589 11.8475
9839 2 20.9035 23.5579 9.28991
9836 2 19.0833 23.5845 11.8636
3500 1 19.9944 25.1452 10.5614
6647 2 21.8125 25.1589 11.8475
3532 1 11.8113 26.7189 10.5441
9862 2 13.6294 26.7332 11.8304
3530 1 14.5408 28.2926 10.5258
9867 2 15.4496 26.7044 9.25636
3501 1 17.2676 26.7189 10.5441
9864 2 16.3588 28.3074 11.8122
9838 2 20.9059 26.7044 9.25636
9830 2 19.0856 26.7332 11.8304
3503 1 19.997 28.2926 10.5258
6638 2 21.815 28.3074 11.8122
3531 1 11.8141 29.8662 10.5065
9851 2 13.6321 29.8814 11.7931
3533 1 14.5437 31.4396 10.4863
3488 1 17.2703 29.8662 10.5065
9849 2 16.3617 31.4553 11.7731
9829 2 19.0883 29.8814 11.7931
3486 1 20 31.4396 10.4863
6639 2 21.818 31.4553 11.7731
3524 1 11.8172 33.013 10.4652
9850 2 13.6352 33.0291 11.7521
3522 1 14.547 34.5864 10.4431
3487 1 17.2734 33.013 10.4652
9852 2 16.365 34.6027 11.7302
9823 2 19.0914 33.0291 11.7521
3489 1 20.0032 34.5864 10.4431
6637 2 21.8212 34.6027 11.7302
3523 1 11.8206 36.1596 10.4202
9844 2 13.6386 36.1763 11.7075
3477 1 17.2769 36.1596 10.4202
3948 1 14.5506 37.7328 10.3965
10285 2 16.3686 37.7496 11.6839
9822 2 19.0949 36.1763 11.7075
7070 2 21.8248 37.7496 11.6839
3893 1 20.0068 37.7328 10.3965
3494 1 13.6229 20.4715 15.754
9859 2 11.805 20.4593 14.466
3544 1 12.7158 22.0227 13.1668
9857 2 14.534 22.0352 14.4521
3498 1 15.443 20.4474 13.1808
9834 2 17.2612 20.4593 14.466
3496 1 18.172 22.0227 13.1668
3495 1 16.3519 22.0481 15.7402
3465 1 19.0792 20.4715 15.754
3468 1 20.8992 20.4474 13.1808
9835 2 19.9902 22.0352 14.4521
454 1 21.8082 22.0481 15.7402
3480 1 13.6247 23.6245 15.7254
9858 2 11.8068 23.611 14.4372
3528 1 12.7179 25.1728 13.1357
9860 2 14.536 25.1866 14.4213
3497 1 15.4449 23.5979 13.1518
9827 2 17.2631 23.611 14.4372
3499 1 18.1742 25.1728 13.1357
3478 1 16.3539 25.2007 15.7096
3464 1 19.081 23.6245 15.7254
3467 1 20.9012 23.5979 13.1518
9825 2 19.9923 25.1866 14.4213
455 1 21.8101 25.2007 15.7096
3479 1 13.6269 26.7767 15.6928
9847 2 11.8091 26.762 14.4044
3529 1 12.7204 28.3224 13.1005
9845 2 14.5384 28.3373 14.3865
3484 1 15.4473 26.7477 13.1186
9826 2 17.2653 26.762 14.4044
3482 1 18.1767 28.3224 13.1005
3461 1 19.0831 26.7767 15.6928
3466 1 20.9035 26.7477 13.1186
9828 2 19.9947 28.3373 14.3865
9846 2 11.8117 29.9123 14.3677
3472 1 13.6294 29.9279 15.6563
3520 1 12.7233 31.4711 13.0615
9848 2 14.5413 31.487 14.3478
9820 2 17.2679 29.9123 14.3677
3483 1 15.45 29.8968 13.0815
3481 1 16.3562 28.3524 15.675
3485 1 18.1796 31.4711 13.0615
446 1 21.8125 28.3524 15.675
3463 1 20.9062 29.8968 13.0815
3460 1 19.0857 29.9279 15.6563
9818 2 19.9975 31.487 14.3478
9843 2 11.8147 33.0616 14.3271
3471 1 13.6324 33.078 15.6159
3521 1 12.7267 34.6191 13.0186
9841 2 14.5445 34.6358 14.3054
3474 1 18.1829 34.6191 13.0186
9819 2 17.2709 33.0616 14.3271
3476 1 15.4531 33.0452 13.0405
3470 1 16.359 31.5031 15.6365
9821 2 20.0007 34.6358 14.3054
447 1 21.8152 31.5031 15.6365
3462 1 20.9093 33.0452 13.0405
3458 1 19.0887 33.078 15.6159
9842 2 11.8181 36.2098 14.2829
3469 1 13.6359 36.2268 15.5717
10284 2 14.5481 37.7836 14.2595
3927 1 12.7304 37.7663 12.9722
9817 2 17.2744 36.2098 14.2829
3475 1 15.4566 36.1928 12.9958
3473 1 16.3622 34.6525 15.5942
3877 1 16.3659 37.8007 15.5483
3892 1 18.1866 37.7663 12.9722
3457 1 19.0921 36.2268 15.5717
445 1 21.8184 34.6525 15.5942
3459 1 20.9128 36.1928 12.9958
854 1 21.8221 37.8007 15.5483
10241 2 20.0044 37.7836 14.2595
10199 2 12.7125 18.906 17.0514
3838 1 11.8031 20.4957 18.3266
3840 1 14.5306 18.9175 18.3391
10186 2 15.4413 20.4834 17.0388
3815 1 17.2593 20.4957 18.3266
10188 2 18.1687 18.906 17.0514
3814 1 19.9868 18.9175 18.3391
10140 2 20.8975 20.4834 17.0388
10200 2 12.714 22.0607 17.0252
3837 1 11.8046 23.6513 18.2986
3836 1 14.5319 22.0736 18.3131
10185 2 15.443 23.6377 17.0105
3811 1 17.2609 23.6513 18.2986
10184 2 18.1702 22.0607 17.0252
3816 1 19.9882 22.0736 18.3131
10139 2 20.8992 23.6377 17.0105
10196 2 12.7158 25.2146 16.9949
3831 1 11.8065 26.806 18.2667
3839 1 14.5336 25.2288 18.2831
10178 2 15.445 26.7912 16.9783
3810 1 17.2628 26.806 18.2667
10187 2 18.172 25.2146 16.9949
3809 1 19.9899 25.2288 18.2831
10138 2 20.9012 26.7912 16.9783
10197 2 12.718 28.3675 16.9608
3830 1 11.8088 29.9595 18.2309
3829 1 14.5357 28.3829 18.2493
10177 2 15.4474 29.9436 16.9423
3799 1 17.265 29.9595 18.2309
10176 2 18.1742 28.3675 16.9608
3812 1 19.992 28.3829 18.2493
10131 2 20.9036 29.9436 16.9423
10192 2 12.7206 31.5193 16.9228
3824 1 11.8115 33.1115 18.1913
3832 1 14.5382 31.5357 18.2116
3798 1 17.2678 33.1115 18.1913
10164 2 15.4502 33.0947 16.9023
10179 2 18.1768 31.5193 16.9228
3797 1 19.9945 31.5357 18.2116
10130 2 20.9064 33.0947 16.9023
10193 2 12.7237 34.6697 16.881
3823 1 11.8148 36.2619 18.148
3822 1 14.5412 34.6869 18.1701
3781 1 17.271 36.2619 18.148
10163 2 15.4535 36.2443 16.8587
10162 2 18.1799 34.6697 16.881
3800 1 19.9974 34.6869 18.1701
10115 2 20.9098 36.2443 16.8587
10182 2 13.6216 20.5077 19.6111
3834 1 12.711 18.9404 20.9108
10170 2 11.8021 20.5321 22.1827
10180 2 14.5298 18.9518 22.1948
10181 2 16.3491 18.9288 19.6234
3807 1 15.4397 20.52 20.8986
10134 2 17.2583 20.5321 22.1827
3813 1 18.1673 18.9404 20.9108
10137 2 19.0778 20.5077 19.6111
3756 1 20.8959 20.52 20.8986
10133 2 19.986 18.9518 22.1948
6934 2 21.8053 18.9288 19.6234
10174 2 13.6229 23.6647 19.5834
3835 1 12.7121 22.0994 20.8854
10169 2 11.8031 23.6921 22.1558
10168 2 14.5307 22.1122 22.1697
10183 2 16.3503 22.0863 19.5977
3806 1 15.4409 23.6785 20.8713
10126 2 17.2594 23.6921 22.1558
3805 1 18.1684 22.0994 20.8854
10136 2 19.0792 23.6647 19.5834
3755 1 20.8971 23.6785 20.8713
10135 2 19.9869 22.1122 22.1697
6930 2 21.8066 22.0863 19.5977
10173 2 13.6246 26.8208 19.552
3827 1 12.7135 25.2573 20.8562
10156 2 11.8044 26.8509 22.1251
10171 2 14.5319 25.2717 22.1409
10172 2 16.3519 25.2429 19.5682
3795 1 15.4424 26.8359 20.8401
10125 2 17.2607 26.8509 22.1251
3808 1 18.1697 25.2573 20.8562
10129 2 19.0809 26.8208 19.552
3754 1 20.8987 26.8359 20.8401
10124 2 19.9881 25.2717 22.1409
6931 2 21.8081 25.2429 19.5682
10160 2 13.6267 29.9755 19.5167
3828 1 12.7152 28.4141 20.8232
10155 2 11.8061 30.0084 22.0907
10154 2 14.5333 28.4298 22.1083
10175 2 16.3538 28.3983 19.5348
3794 1 15.4443 29.9919 20.8052
10111 2 17.2623 30.0084 22.0907
3793 1 18.1715 28.4141 20.8232
10128 2 19.083 29.9755 19.5167
3747 1 20.9006 29.9919 20.8052
10127 2 19.9896 28.4298 22.1083
6926 2 21.81 28.3983 19.5348
10159 2 13.6293 33.1288 19.4776
3820 1 12.7173 31.5693 20.7864
10148 2 11.8082 33.1641 22.0527
10157 2 14.5352 31.5865 22.0721
10158 2 16.356 31.5524 19.4976
3780 1 15.4467 33.1463 20.7666
10110 2 17.2644 33.1641 22.0527
3796 1 18.1736 31.5693 20.7864
10114 2 19.0855 33.1288 19.4776
3746 1 20.9029 33.1463 20.7666
10109 2 19.9915 31.5865 22.0721
6927 2 21.8123 31.5524 19.4976
10149 2 13.6323 36.2802 19.4349
3821 1 12.72 34.7227 20.7459
10147 2 11.8108 36.3177 22.011
10146 2 14.5376 34.7412 22.0323
10161 2 16.3588 34.7047 19.4567
3779 1 15.4496 36.2986 20.7243
10093 2 17.2671 36.3177 22.011
3778 1 18.1762 34.7227 20.7459
10113 2 19.0886 36.2802 19.4349
3731 1 20.9058 36.2986 20.7243
10112 2 19.9938 34.7412 22.0323
6925 2 21.8151 34.7047 19.4567
3803 1 13.6203 20.5446 23.4699
10166 2 12.7107 18.9751 24.7654
3802 1 16.3481 18.9636 23.4818
10122 2 15.4391 20.5569 24.7537
10132 2 18.167 18.9751 24.7654
3753 1 19.0765 20.5446 23.4699
10068 2 20.8954 20.5569 24.7537
761 1 21.8043 18.9636 23.4818
3791 1 13.6212 23.7061 23.4433
10167 2 12.7113 22.1385 24.741
3804 1 16.3488 22.1255 23.4571
10121 2 15.4398 23.7199 24.7274
10120 2 18.1676 22.1385 24.741
3752 1 19.0774 23.7061 23.4433
10067 2 20.8961 23.7199 24.7274
753 1 21.8051 22.1255 23.4571
3790 1 13.6223 26.8664 23.413
10152 2 12.7121 25.3009 24.7129
3789 1 16.3498 25.2864 23.4286
10107 2 15.4407 26.8817 24.6975
10123 2 18.1684 25.3009 24.7129
3745 1 19.0785 26.8664 23.413
10066 2 20.8969 26.8817 24.6975
754 1 21.806 25.2864 23.4286
3776 1 13.6237 30.0252 23.3791
10153 2 12.7131 28.4621 24.6812
3792 1 16.3511 28.446 23.3965
10106 2 15.4419 30.0421 24.6641
10105 2 18.1694 28.4621 24.6812
3744 1 19.08 30.0252 23.3791
10059 2 20.8981 30.0421 24.6641
746 1 21.8073 28.446 23.3965
3764 1 11.8046 33.2196 25.9158
3775 1 13.6256 33.1823 23.3416
10144 2 12.7145 31.6217 24.6461
3726 1 17.2608 33.2196 25.9158
3774 1 16.3527 31.604 23.3608
10092 2 15.4434 33.2007 24.6272
10108 2 18.1707 31.6217 24.6461
3730 1 19.0818 33.1823 23.3416
10058 2 20.8997 33.2007 24.6272
747 1 21.8089 31.604 23.3608
3763 1 11.8063 36.3775 25.876
3765 1 13.628 36.3371 23.3005
10145 2 12.7163 34.7793 24.6074
3762 1 14.5335 34.7989 25.8963
3710 1 17.2625 36.3775 25.876
3777 1 16.3548 34.76 23.3215
10091 2 15.4455 36.3571 24.5867
10090 2 18.1725 34.7793 24.6074
3728 1 19.9897 34.7989 25.8963
3729 1 19.0842 36.3371 23.3005
10044 2 20.9017 36.3571 24.5867
745 1 21.811 34.76 23.3215
3787 1 11.8013 20.5695 26.0404
3801 1 14.5292 18.9869 26.0521
3783 1 12.7108 19.0105 28.6214
10118 2 13.6204 20.5819 27.3237
3750 1 17.2575 20.5695 26.0404
3738 1 15.439 20.5947 28.61
10117 2 16.3484 18.9985 27.3352
3748 1 18.1671 19.0105 28.6214
3749 1 19.9855 18.9869 26.0521
3690 1 20.8952 20.5947 28.61
10065 2 19.0766 20.5819 27.3237
6901 2 21.8046 18.9985 27.3352
3786 1 11.8018 23.7341 26.0145
3785 1 14.5296 22.1519 26.0279
3784 1 12.7109 22.1787 28.5978
10103 2 13.6207 23.7481 27.2981
3742 1 17.258 23.7341 26.0145
3737 1 15.439 23.7625 28.5847
10119 2 16.3486 22.1651 27.3113
3736 1 18.1671 22.1787 28.5978
3751 1 19.9859 22.1519 26.0279
3689 1 20.8953 23.7625 28.5847
10064 2 19.0769 23.7481 27.2981
6886 2 21.8049 22.1651 27.3113
3772 1 11.8024 26.8975 25.985
3788 1 14.5302 25.3159 26.0002
3768 1 12.711 25.346 28.5708
10102 2 13.6211 26.9131 27.269
3741 1 17.2587 26.8975 25.985
3723 1 15.4392 26.9292 28.5561
10101 2 16.349 25.3307 27.284
3739 1 18.1672 25.346 28.5708
3740 1 19.9864 25.3159 26.0002
3688 1 20.8955 26.9292 28.5561
10057 2 19.0773 26.9131 27.269
6887 2 21.8052 25.3307 27.284
3771 1 11.8033 30.0595 25.9521
3770 1 14.5309 28.4787 25.969
3769 1 12.7112 28.5121 28.5405
10088 2 13.6217 30.0768 27.2366
3727 1 17.2596 30.0595 25.9521
3722 1 15.4395 30.0946 28.5241
10104 2 16.3495 28.4952 27.2532
3721 1 18.1675 28.5121 28.5405
3743 1 19.9872 28.4787 25.969
3681 1 20.8958 30.0946 28.5241
10056 2 19.078 30.0768 27.2366
6878 2 21.8057 28.4952 27.2532
3773 1 14.532 31.6398 25.9344
3760 1 12.7117 31.6767 28.5069
10087 2 13.6226 33.2388 27.2008
3709 1 15.4401 33.2583 28.4889
10086 2 16.3503 31.658 27.2191
3724 1 18.1679 31.6767 28.5069
3725 1 19.9882 31.6398 25.9344
3680 1 20.8964 33.2583 28.4889
10043 2 19.0789 33.2388 27.2008
6879 2 21.8065 31.658 27.2191
3761 1 12.7124 34.8394 28.4701
10077 2 13.624 36.3985 27.1617
3708 1 15.4411 36.4199 28.4506
10089 2 16.3514 34.8189 27.1816
3707 1 18.1687 34.8394 28.4701
3669 1 20.8973 36.4199 28.4506
10042 2 19.0802 36.3985 27.1617
6877 2 21.8076 34.8189 27.1816
3734 1 13.6209 20.6201 31.1786
10095 2 12.7127 19.0461 32.4719
10099 2 11.8021 20.6072 29.8928
10116 2 14.5303 19.0222 29.9041
3733 1 16.3492 19.0343 31.1897
10050 2 15.4406 20.6328 32.4608
10062 2 17.2583 20.6072 29.8928
10060 2 18.169 19.0461 32.4719
3687 1 19.0772 20.6201 31.1786
10020 2 20.8969 20.6328 32.4608
10061 2 19.9865 19.0222 29.9041
710 1 21.8054 19.0343 31.1897
3719 1 13.6206 23.7913 31.1539
10096 2 12.7123 22.2193 32.449
10098 2 11.802 23.7767 29.8678
10097 2 14.5302 22.1921 29.8807
3735 1 16.3489 22.2058 31.1666
10049 2 15.4402 23.8057 32.4363
10054 2 17.2582 23.7767 29.8678
10048 2 18.1685 22.2193 32.449
3686 1 19.0769 23.7913 31.1539
10019 2 20.8964 23.8057 32.4363
10063 2 19.9864 22.1921 29.8807
694 1 21.8051 22.2058 31.1666
3718 1 13.6203 26.9615 31.1259
10080 2 12.7118 25.3918 32.4228
10084 2 11.802 26.9451 29.8394
10100 2 14.5301 25.3611 29.854
3717 1 16.3486 25.3765 31.1403
10036 2 15.4397 26.9777 32.4086
10053 2 17.2582 26.9451 29.8394
10051 2 18.1681 25.3918 32.4228
3679 1 19.0766 26.9615 31.1259
10018 2 20.896 26.9777 32.4086
10052 2 19.9863 25.3611 29.854
695 1 21.8048 25.3765 31.1403
3705 1 13.6201 30.1306 31.0948
10081 2 12.7114 28.5634 32.3935
10083 2 11.802 30.1124 29.8079
10082 2 14.5301 28.5289 29.8241
3720 1 16.3483 28.5462 31.1107
10035 2 15.4393 30.1487 32.3777
10040 2 17.2583 30.1124 29.8079
10034 2 18.1676 28.5634 32.3935
3678 1 19.0763 30.1306 31.0948
10015 2 20.8955 30.1487 32.3777
10055 2 19.9863 28.5289 29.8241
686 1 21.8046 28.5462 31.1107
3704 1 13.62 33.2983 31.0607
10072 2 12.7109 31.7338 32.3612
10076 2 11.8023 33.278 29.7732
10085 2 14.5303 31.6954 29.7909
3703 1 16.3481 31.7146 31.0781
10028 2 15.4389 33.3185 32.344
10039 2 17.2585 33.278 29.7732
10037 2 18.1672 31.7338 32.3612
3668 1 19.0762 33.2983 31.0607
10014 2 20.8951 33.3185 32.344
10038 2 19.9865 31.6954 29.7909
687 1 21.8044 31.7146 31.0781
3696 1 13.6201 36.464 31.0235
10073 2 12.7106 34.9027 32.326
10075 2 11.8029 36.4417 29.7353
10074 2 14.5307 34.8601 29.7546
3706 1 16.3481 34.8814 31.0425
10027 2 15.4386 36.4865 32.3073
10029 2 17.2591 36.4417 29.7353
10026 2 18.1669 34.9027 32.326
3667 1 19.0764 36.464 31.0235
10011 2 20.8949 36.4865 32.3073
10041 2 19.9869 34.8601 29.7546
685 1 21.8044 34.8814 31.0425
3715 1 11.8035 20.6458 33.7461
10046 2 13.6236 20.6587 35.0277
3732 1 14.5319 19.0583 33.757
3684 1 17.2598 20.6458 33.7461
10045 2 16.352 19.0703 35.0386
3683 1 19.9882 19.0583 33.757
10017 2 19.0798 20.6587 35.0277
6830 2 21.8083 19.0703 35.0386
3714 1 11.8029 23.8204 33.7218
10032 2 13.6228 23.835 35.0035
3713 1 14.5313 22.2332 33.7343
3676 1 17.2591 23.8204 33.7218
10047 2 16.3513 22.2469 35.016
3685 1 19.9876 22.2332 33.7343
10016 2 19.0791 23.835 35.0035
6814 2 21.8076 22.2469 35.016
3716 1 14.5307 25.4075 33.7084
3701 1 11.8022 26.9943 33.6943
10031 2 13.622 27.0108 34.9762
10030 2 16.3505 25.423 34.9903
3675 1 17.2584 26.9943 33.6943
10013 2 19.0782 27.0108 34.9762
3674 1 19.9869 25.4075 33.7084
6815 2 21.8068 25.423 34.9903
3699 1 14.5299 28.581 33.6795
10024 2 13.621 30.1858 34.946
3700 1 11.8014 30.1673 33.6639
10033 2 16.3496 28.5984 34.9615
3665 1 17.2577 30.1673 33.6639
10012 2 19.0773 30.1858 34.946
3677 1 19.9862 28.581 33.6795
6806 2 21.8059 28.5984 34.9615
3702 1 14.5292 31.7534 33.6476
10023 2 13.6201 33.3598 34.9129
3695 1 11.8007 33.3392 33.6306
10022 2 16.3487 31.7729 34.9298
3664 1 17.2569 33.3392 33.6306
10010 2 19.0763 33.3598 34.9129
3663 1 19.9854 31.7534 33.6476
6807 2 21.8049 31.7729 34.9298
3693 1 14.5284 34.9246 33.6129
10021 2 13.6191 36.5326 34.877
3694 1 11.8 36.5096 33.5945
10025 2 16.3477 34.9464 34.8953
3658 1 17.2562 36.5096 33.5945
10009 2 19.0754 36.5326 34.877
3666 1 19.9847 34.9246 33.6129
6805 2 21.804 34.9464 34.8953
10222 2 11.8072 20.6847 37.5933
16037 1 13.627 20.6979 38.8773
3711 1 12.7153 19.0825 36.3231
10224 2 14.5358 19.0946 37.6041
10211 2 17.2635 20.6847 37.5933
16036 1 16.3556 19.1069 38.888
3672 1 15.443 20.6718 36.3123
3682 1 18.1716 19.0825 36.3231
10210 2 19.992 19.0946 37.6041
16002 1 19.0833 20.6979 38.8773
3654 1 20.8993 20.6718 36.3123
13224 1 21.8119 19.1069 38.888
10221 2 11.8062 23.8646 37.5694
16033 1 13.6259 23.8797 38.8535
3712 1 12.7145 22.2609 36.3007
10220 2 14.5349 22.2747 37.5817
10208 2 17.2625 23.8646 37.5694
16038 1 16.3546 22.2888 38.8658
3671 1 15.4421 23.8499 36.2883
3670 1 18.1707 22.2609 36.3007
10212 2 19.9911 22.2747 37.5817
16001 1 19.0821 23.8797 38.8535
3653 1 20.8983 23.8499 36.2883
13222 1 21.8108 22.2888 38.8658
10218 2 11.8051 27.0442 37.5423
16032 1 13.6246 27.0611 38.8266
3697 1 12.7135 25.4388 36.2752
10223 2 14.5338 25.4545 37.5562
10207 2 17.2613 27.0442 37.5423
16031 1 16.3534 25.4704 38.8404
3661 1 15.441 27.0276 36.2613
3673 1 18.1697 25.4388 36.2752
10206 2 19.99 25.4545 37.5562
15996 1 19.0808 27.0611 38.8266
3652 1 20.8973 27.0276 36.2613
13223 1 21.8096 25.4704 38.8404
10217 2 11.8038 30.2233 37.5124
16022 1 13.6231 30.2423 38.7968
3698 1 12.7123 28.6162 36.2466
10216 2 14.5326 28.6338 37.5277
10204 2 17.26 30.2233 37.5124
16034 1 16.352 28.6518 38.812
3660 1 15.4399 30.2046 36.2313
3659 1 18.1686 28.6162 36.2466
10209 2 19.9888 28.6338 37.5277
15995 1 19.0793 30.2423 38.7968
3651 1 20.8961 30.2046 36.2313
13220 1 21.8082 28.6518 38.812
10215 2 11.8023 33.4018 37.4796
16021 1 13.6213 33.4232 38.7642
3691 1 12.7111 31.7929 36.2152
10219 2 14.5312 31.8126 37.4963
10203 2 17.2586 33.4018 37.4796
16020 1 16.3503 31.8328 38.7808
3657 1 15.4385 33.3809 36.1985
3662 1 18.1673 31.7929 36.2152
10202 2 19.9874 31.8126 37.4963
15982 1 19.0776 33.4232 38.7642
3650 1 20.8948 33.3809 36.1985
13221 1 21.8066 31.8328 38.7808
10214 2 11.8008 36.5797 37.4442
16011 1 13.6194 36.6038 38.7291
3692 1 12.7097 34.9687 36.1811
10213 2 14.5297 34.9908 37.4623
10201 2 17.257 36.5797 37.4442
16023 1 16.3485 35.0135 38.747
3656 1 15.4372 36.5563 36.1631
3655 1 18.166 34.9687 36.1811
10205 2 19.9859 34.9908 37.4623
15981 1 19.0757 36.6038 38.7291
3649 1 20.8934 36.5563 36.1631
13219 1 21.8048 35.0135 38.747
21659 2 12.7202 19.1191 40.1684
16029 1 11.8118 20.7242 41.441
16035 1 14.5404 19.1315 41.4518
21646 2 15.4478 20.7109 40.1577
15999 1 17.268 20.7242 41.441
21648 2 18.1765 19.1191 40.1684
15998 1 19.9967 19.1315 41.4518
21600 2 20.9041 20.7109 40.1577
21660 2 12.7192 22.3027 40.1461
16028 1 11.8105 23.9096 41.4172
16027 1 14.5393 22.3169 41.4295
21645 2 15.4467 23.8945 40.1338
15993 1 17.2667 23.9096 41.4172
21644 2 18.1754 22.3027 40.1461
16000 1 19.9955 22.3169 41.4295
21599 2 20.9029 23.8945 40.1338
21656 2 12.7179 25.4862 40.1207
16018 1 11.809 27.095 41.3902
16030 1 14.5379 25.5023 41.4041
21638 2 15.4453 27.0779 40.1068
15992 1 17.2653 27.095 41.3902
21647 2 18.1741 25.4862 40.1207
15991 1 19.9941 25.5023 41.4041
21598 2 20.9016 27.0779 40.1068
21657 2 12.7164 28.6695 40.0922
16017 1 11.8073 30.2803 41.3603
16016 1 14.5363 28.6876 41.3756
21637 2 15.4438 30.2611 40.0769
15979 1 17.2636 30.2803 41.3603
21636 2 18.1727 28.6695 40.0922
15994 1 19.9926 28.6876 41.3756
21591 2 20.9 30.2611 40.0769
21652 2 12.7148 31.8527 40.0609
16010 1 11.8054 33.4658 41.3276
16019 1 14.5345 31.873 41.3443
15978 1 17.2616 33.4658 41.3276
21624 2 15.442 33.4442 40.0442
21639 2 18.171 31.8527 40.0609
15977 1 19.9907 31.873 41.3443
21590 2 20.8983 33.4442 40.0442
21653 2 12.7129 35.0357 40.0268
16009 1 11.8032 36.6516 41.2922
21609 2 13.6245 36.675 42.5705
16008 1 14.5324 35.0587 41.3102
15961 1 17.2594 36.6516 41.2922
21621 2 16.3537 35.0809 42.5888
21623 2 15.4401 36.6273 40.0087
21622 2 18.1692 35.0357 40.0268
15980 1 19.9887 35.0587 41.3102
21573 2 19.0808 36.675 42.5705
21575 2 20.8963 36.6273 40.0087
18829 2 21.81 35.0809 42.5888
21642 2 13.633 20.7374 42.7207
16025 1 12.726 19.1562 44.0143
21630 2 11.8189 20.7639 45.2825
21640 2 14.5476 19.1685 45.2934
21641 2 16.3617 19.1437 42.7315
15989 1 15.4535 20.7507 44.0035
21594 2 17.2751 20.7639 45.2825
15997 1 18.1822 19.1562 44.0143
21597 2 19.0892 20.7374 42.7207
15936 1 20.9098 20.7507 44.0035
21593 2 20.0038 19.1685 45.2934
18838 2 21.8179 19.1437 42.7315
21634 2 13.6317 23.9245 42.6968
16026 1 12.7248 22.3452 43.9919
21629 2 11.8176 23.9547 45.2583
21628 2 14.5464 22.3593 45.2708
21643 2 16.3605 22.331 42.7092
15988 1 15.4522 23.9397 43.9794
21586 2 17.2739 23.9547 45.2583
15987 1 18.181 22.3452 43.9919
21596 2 19.088 23.9245 42.6968
15935 1 20.9084 23.9397 43.9794
21595 2 20.0026 22.3593 45.2708
18834 2 21.8167 22.331 42.7092
21633 2 13.6303 27.1118 42.6696
16014 1 12.7233 25.5343 43.9662
21616 2 11.8161 27.1458 45.2309
21631 2 14.545 25.5502 45.245
21632 2 16.3591 25.5182 42.6836
15975 1 15.4507 27.1289 43.9522
21585 2 17.2724 27.1458 45.2309
15990 1 18.1796 25.5343 43.9662
21589 2 19.0865 27.1118 42.6696
15934 1 20.9069 27.1289 43.9522
21584 2 20.0012 25.5502 45.245
18835 2 21.8154 25.5182 42.6836
21620 2 13.6286 30.2992 42.6395
16015 1 12.7217 28.7236 43.9375
21615 2 11.8144 30.3373 45.2002
21614 2 14.5434 28.7415 45.2159
21635 2 16.3576 28.7055 42.6549
15974 1 15.4489 30.3185 43.922
21571 2 17.2707 30.3373 45.2002
15973 1 18.1779 28.7236 43.9375
21588 2 19.0848 30.2992 42.6395
15927 1 20.9051 30.3185 43.922
21587 2 19.9997 28.7415 45.2159
18830 2 21.8138 28.7055 42.6549
21619 2 13.6267 33.4868 42.6064
16006 1 12.7198 31.9134 43.9057
21608 2 11.8125 33.5294 45.1664
21617 2 14.5416 31.9333 45.1837
21618 2 16.3558 31.893 42.6233
15960 1 15.4469 33.5085 43.8887
21570 2 17.2687 33.5294 45.1664
15976 1 18.176 31.9134 43.9057
21574 2 19.0829 33.4868 42.6064
15926 1 20.9031 33.5085 43.8887
21569 2 19.9978 31.9333 45.1837
18831 2 21.812 31.893 42.6233
16007 1 12.7176 35.1039 43.871
21607 2 11.8104 36.7226 45.1297
21606 2 14.5396 35.1259 45.1484
15959 1 15.4446 36.6995 43.8526
21554 2 17.2666 36.7226 45.1297
15958 1 18.1739 35.1039 43.871
15911 1 20.9008 36.6995 43.8526
21572 2 19.9958 35.1259 45.1484
15967 1 11.8268 20.804 49.1246
15985 1 13.6398 20.7773 46.5646
21626 2 12.7342 19.1935 47.8541
15930 1 17.2831 20.804 49.1246
15983 1 14.5555 19.206 49.1356
15984 1 16.3685 19.1811 46.5755
21582 2 15.4618 20.7906 47.8431
15929 1 20.0118 19.206 49.1356
15933 1 19.0961 20.7773 46.5646
21534 2 20.918 20.7906 47.8431
21592 2 18.1905 19.1935 47.8541
13204 1 21.8248 19.1811 46.5755
15966 1 11.8256 24.0003 49.0998
15971 1 13.6385 23.97 46.5403
21627 2 12.7331 22.3877 47.8312
15922 1 17.2818 24.0003 49.0998
15965 1 14.5544 22.4021 49.1126
15986 1 16.3673 22.3736 46.5529
21581 2 15.4605 23.985 47.8185
15931 1 20.0106 22.4021 49.1126
15932 1 19.0947 23.97 46.5403
21533 2 20.9168 23.985 47.8185
21580 2 18.1893 22.3877 47.8312
13192 1 21.8235 22.3736 46.5529
15952 1 11.8242 27.1971 49.0715
15970 1 13.637 27.163 46.5126
21612 2 12.7317 25.5824 47.8049
15921 1 17.2804 27.1971 49.0715
15968 1 14.553 25.5986 49.0861
15969 1 16.3659 25.5664 46.5269
21567 2 15.4591 27.1799 47.7905
15920 1 20.0093 25.5986 49.0861
15925 1 19.0932 27.163 46.5126
21532 2 20.9153 27.1799 47.7905
21583 2 18.188 25.5824 47.8049
13193 1 21.8221 25.5664 46.5269
15951 1 11.8226 30.3946 49.0398
15956 1 13.6352 30.3566 46.4817
21613 2 12.7302 28.7775 47.7752
15907 1 17.2788 30.3946 49.0398
15950 1 14.5515 28.7957 49.0561
15972 1 16.3643 28.7597 46.4976
21566 2 15.4575 30.3753 47.7591
21565 2 18.1864 28.7775 47.7752
15923 1 20.0077 28.7957 49.0561
15924 1 19.0915 30.3566 46.4817
21525 2 20.9137 30.3753 47.7591
13184 1 21.8205 28.7597 46.4976
15944 1 11.8208 33.5934 49.0047
15955 1 13.6333 33.5511 46.4477
21604 2 12.7285 31.9734 47.7422
15953 1 14.5498 31.9938 49.0227
15906 1 17.277 33.5934 49.0047
15954 1 16.3624 31.9537 46.4651
21553 2 15.4557 33.5718 47.7244
21568 2 18.1847 31.9734 47.7422
15905 1 20.006 31.9938 49.0227
15910 1 19.0895 33.5511 46.4477
21524 2 20.9119 33.5718 47.7244
13185 1 21.8187 31.9537 46.4651
15943 1 11.8188 36.7938 48.9661
15945 1 13.6311 36.747 46.4105
21605 2 12.7266 35.1705 47.7058
15942 1 14.548 35.1933 48.9858
15892 1 17.2751 36.7938 48.9661
15957 1 16.3603 35.1488 46.4295
21552 2 15.4537 36.7697 47.6864
21551 2 18.1828 35.1705 47.7058
15908 1 20.0042 35.1933 48.9858
15909 1 19.0873 36.747 46.4105
21513 2 20.9099 36.7697 47.6864
13183 1 21.8166 35.1488 46.4295
15963 1 12.7432 19.2311 51.6946
21578 2 13.6492 20.8173 50.4024
21625 2 10.9216 19.2185 50.4136
15918 1 15.4708 20.8308 51.6833
21577 2 16.3778 19.2185 50.4136
15876 1 20.927 20.8308 51.6833
15928 1 18.1994 19.2311 51.6946
21531 2 19.1054 20.8173 50.4024
15964 1 12.7421 22.4307 51.6711
21563 2 13.648 24.0153 50.3774
21610 2 10.9205 22.4163 50.3903
15917 1 15.4696 24.0306 51.658
21579 2 16.3767 22.4163 50.3903
15875 1 20.9259 24.0306 51.658
15916 1 18.1984 22.4307 51.6711
21530 2 19.1042 24.0153 50.3774
15948 1 12.7409 25.6308 51.644
21562 2 13.6467 27.2139 50.3487
21611 2 10.9192 25.6145 50.3635
15903 1 15.4684 27.2311 51.6291
21561 2 16.3755 25.6145 50.3635
15874 1 20.9246 27.2311 51.6291
15919 1 18.1971 25.6308 51.644
21523 2 19.1029 27.2139 50.3487
15949 1 12.7396 28.8316 51.6132
21549 2 13.6452 30.4132 50.3165
21602 2 10.9178 28.8134 50.3331
15902 1 15.467 30.4324 51.5964
21564 2 16.3741 28.8134 50.3331
15868 1 20.9232 30.4324 51.5964
15901 1 18.1958 28.8316 51.6132
21522 2 19.1014 30.4132 50.3165
15940 1 12.7381 32.0336 51.5787
21548 2 13.6436 33.6138 50.2807
21603 2 10.9163 32.0133 50.299
15891 1 15.4654 33.6351 51.56
21547 2 16.3725 32.0133 50.299
15867 1 20.9217 33.6351 51.56
15904 1 18.1943 32.0336 51.5787
21512 2 19.0998 33.6138 50.2807
15941 1 12.7365 35.2372 51.5404
21540 2 13.6419 36.816 50.2411
21601 2 10.9146 35.2146 50.2614
15890 1 15.4638 36.8398 51.5198
21550 2 16.3709 35.2146 50.2614
15860 1 20.92 36.8398 51.5198
15889 1 18.1927 35.2372 51.5404
21511 2 19.0981 36.816 50.2411
15914 1 13.6592 20.8577 54.241
15962 1 10.9315 19.2562 54.2525
21555 2 12.7545 19.2686 55.5293
21559 2 11.8372 20.8441 52.9606
15913 1 16.3878 19.2562 54.2525
21516 2 15.4821 20.8709 55.5177
21528 2 17.2935 20.8441 52.9606
21576 2 14.5658 19.2435 52.972
15873 1 19.1154 20.8577 54.241
21498 2 20.9384 20.8709 55.5177
21526 2 18.2107 19.2686 55.5293
21527 2 20.0221 19.2435 52.972
15899 1 13.6581 24.061 54.2151
15946 1 10.9305 22.4592 54.2285
21556 2 12.7535 22.4734 55.5051
21558 2 11.8361 24.0456 52.935
15915 1 16.3868 22.4592 54.2285
21515 2 15.4812 24.0759 55.4916
21520 2 17.2924 24.0456 52.935
21557 2 14.5648 22.4448 52.9483
15872 1 19.1144 24.061 54.2151
21497 2 20.9374 24.0759 55.4916
21514 2 18.2098 22.4734 55.5051
21529 2 20.0211 22.4448 52.9483
15898 1 13.657 27.2649 54.1854
15947 1 10.9295 25.6628 54.2007
21541 2 12.7525 25.6786 55.477
21545 2 11.835 27.2478 52.9057
15897 1 16.3857 25.6628 54.2007
21505 2 15.4801 27.2815 55.4614
21519 2 17.2912 27.2478 52.9057
21560 2 14.5637 25.6466 52.9208
15866 1 19.1133 27.2649 54.1854
21496 2 20.9364 27.2815 55.4614
21517 2 18.2088 25.6786 55.477
21518 2 20.0199 25.6466 52.9208
15887 1 13.6558 30.4699 54.1517
15938 1 10.9283 28.8673 54.1691
21542 2 12.7515 28.8847 55.4449
21544 2 11.8337 30.4508 52.8725
15900 1 16.3845 28.8673 54.1691
21504 2 15.479 30.4881 55.4273
21509 2 17.2899 30.4508 52.8725
21543 2 14.5624 28.8492 52.8895
15865 1 19.1121 30.4699 54.1517
21495 2 20.9353 30.4881 55.4273
21503 2 18.2077 28.8847 55.4449
21521 2 20.0187 28.8492 52.8895
15886 1 13.6546 33.6763 54.114
15939 1 10.9271 32.0729 54.1334
21535 2 12.7503 32.0919 55.4086
21539 2 11.8323 33.6552 52.8354
21546 2 14.5611 32.0528 52.8544
21508 2 17.2885 33.6552 52.8354
15885 1 16.3833 32.0729 54.1334
21501 2 15.4779 33.696 55.3889
21507 2 20.0174 32.0528 52.8544
21506 2 18.2066 32.0919 55.4086
21494 2 20.9341 33.696 55.3889
15859 1 19.1108 33.6763 54.114
21538 2 11.8309 36.8614 52.7943
21536 2 12.7492 35.3006 55.3681
15937 1 10.9258 35.2802 54.0936
15880 1 13.6533 36.8846 54.0721
21537 2 14.5597 35.258 52.8153
21502 2 17.2871 36.8614 52.7943
21500 2 15.4767 36.9057 55.3463
15888 1 16.382 35.2802 54.0936
21510 2 20.0159 35.258 52.8153
21499 2 18.2054 35.3006 55.3681
21493 2 20.9329 36.9057 55.3463
15858 1 19.1095 36.8846 54.0721
21845 2 13.6714 20.8977 58.0738
21852 2 10.9437 19.2937 58.0857
15895 1 11.8481 20.8845 56.7976
21844 2 16.3999 19.2937 58.0857
15870 1 17.3044 20.8845 56.7976
15912 1 14.5767 19.2813 56.8093
21810 2 19.1276 20.8977 58.0738
15869 1 20.0329 19.2813 56.8093
21841 2 13.6705 24.1061 58.0471
21850 2 10.9428 22.5019 58.061
15894 1 11.8472 24.0912 56.7712
21846 2 16.3991 22.5019 58.061
15863 1 17.3035 24.0912 56.7712
15893 1 14.5758 22.4878 56.7849
21809 2 19.1268 24.1061 58.0471
15871 1 20.0321 22.4878 56.7849
21840 2 13.6696 27.3151 58.0163
21851 2 10.9419 25.7105 58.0322
15883 1 11.8463 27.2986 56.7407
21839 2 16.3982 25.7105 58.0322
15862 1 17.3025 27.2986 56.7407
15896 1 14.5749 25.6948 56.7564
21804 2 19.1258 27.3151 58.0163
15861 1 20.0311 25.6948 56.7564
21830 2 13.6687 30.525 57.9811
21848 2 10.941 28.9199 57.9992
15882 1 11.8453 30.507 56.706
16189 1 15.4914 30.5437 59.2595
21842 2 16.3973 28.9199 57.9992
15856 1 17.3015 30.507 56.706
15881 1 14.5739 28.9027 56.7239
16143 1 20.9476 30.5437 59.2595
21803 2 19.1249 30.525 57.9811
15864 1 20.0301 28.9027 56.7239
16204 1 12.7629 32.15 59.24
21829 2 13.6677 33.7361 57.9416
21849 2 10.9401 32.1304 57.9619
15879 1 11.8442 33.7168 56.667
16176 1 15.4906 33.7565 59.2194
21828 2 16.3963 32.1304 57.9619
15855 1 17.3005 33.7168 56.667
15884 1 14.5729 32.1117 56.6871
16142 1 20.9468 33.7565 59.2194
16191 1 18.2191 32.15 59.24
21790 2 19.124 33.7361 57.9416
15854 1 20.0291 32.1117 56.6871
16205 1 12.762 35.3635 59.1976
21819 2 13.6668 36.9489 57.8976
21847 2 10.9391 35.3423 57.9202
15878 1 11.8432 36.9283 56.6236
16175 1 15.4898 36.9709 59.1746
21831 2 16.3954 35.3423 57.9202
15853 1 17.2995 36.9283 56.6236
15877 1 14.5719 35.3223 56.6459
16127 1 20.946 36.9709 59.1746
16174 1 18.2183 35.3635 59.1976
21789 2 19.123 36.9489 57.8976
15857 1 20.0281 35.3223 56.6459
16211 1 12.7662 19.3065 59.3652
16194 1 13.6839 20.9381 61.9082
16210 1 10.9562 19.3316 61.9203
21837 2 11.8612 20.9245 60.629
16198 1 15.4939 20.9113 59.3533
16193 1 16.4124 19.3316 61.9203
21807 2 17.3174 20.9245 60.629
21843 2 14.5897 19.3188 60.641
16152 1 20.9502 20.9113 59.3533
16200 1 18.2224 19.3065 59.3652
16149 1 19.1402 20.9381 61.9082
21806 2 20.0459 19.3188 60.641
16212 1 12.7654 22.5163 59.3403
16186 1 13.6832 24.1515 61.8807
16206 1 10.9554 22.5447 61.895
21836 2 11.8604 24.1362 60.6018
16197 1 15.4931 24.1214 59.3263
16195 1 16.4117 22.5447 61.895
21801 2 17.3166 24.1362 60.6018
21835 2 14.5889 22.5303 60.6159
16151 1 20.9493 24.1214 59.3263
16196 1 18.2216 22.5163 59.3403
16148 1 19.1394 24.1515 61.8807
21808 2 20.0451 22.5303 60.6159
16208 1 12.7645 25.7267 59.3112
16185 1 13.6824 27.3654 61.8489
16207 1 10.9546 25.7584 61.8653
21826 2 11.8595 27.3485 60.5702
16190 1 15.4922 27.3321 59.2951
16184 1 16.4109 25.7584 61.8653
21800 2 17.3158 27.3485 60.5702
21838 2 14.5881 25.7422 60.5865
16150 1 20.9485 27.3321 59.2951
16199 1 18.2208 25.7267 59.3112
16141 1 19.1386 27.3654 61.8489
21799 2 20.0443 25.7422 60.5865
16209 1 12.7637 28.9378 59.2778
16172 1 13.6816 30.5801 61.8125
16202 1 10.9539 28.9726 61.8313
21825 2 11.8587 30.5615 60.5343
16187 1 16.4101 28.9726 61.8313
21787 2 17.3149 30.5615 60.5343
21824 2 14.5872 28.9549 60.5528
16188 1 18.2199 28.9378 59.2778
16140 1 19.1379 30.5801 61.8125
21802 2 20.0435 28.9549 60.5528
16171 1 13.6809 33.7957 61.7714
16203 1 10.9531 32.1877 61.7925
21818 2 11.8579 33.7756 60.4938
16170 1 16.4094 32.1877 61.7925
21786 2 17.3141 33.7756 60.4938
21827 2 14.5864 32.1684 60.5146
16126 1 19.1371 33.7957 61.7714
21785 2 20.0427 32.1684 60.5146
16161 1 13.6802 37.0125 61.7255
16201 1 10.9524 35.4039 61.7491
21817 2 11.8571 36.991 60.4485
16173 1 16.4087 35.4039 61.7491
21769 2 17.3133 36.991 60.4485
21816 2 14.5856 35.3832 60.4717
16125 1 19.1364 37.0125 61.7255
21788 2 20.0418 35.3832 60.4717
16182 1 11.8744 20.9649 64.4626
21793 2 13.6984 20.9775 65.7362
21832 2 10.9707 19.3685 65.7486
21833 2 12.7799 19.3437 63.1954
16146 1 17.3306 20.9649 64.4626
16192 1 14.6029 19.3567 64.4749
21792 2 16.4269 19.3685 65.7486
21797 2 15.5077 20.9511 63.1832
16145 1 20.0591 19.3567 64.4749
21741 2 19.1546 20.9775 65.7362
21744 2 20.9639 20.9511 63.1832
21805 2 18.2362 19.3437 63.1954
16181 1 11.8736 24.1815 64.4347
21779 2 13.6976 24.1957 65.7082
21820 2 10.9698 22.5865 65.7228
21834 2 12.7792 22.5585 63.1699
16138 1 17.3298 24.1815 64.4347
16180 1 14.6021 22.5732 64.4492
21794 2 16.4261 22.5865 65.7228
21796 2 15.5069 24.1661 63.1555
16147 1 20.0583 22.5732 64.4492
21740 2 19.1538 24.1957 65.7082
21743 2 20.9631 24.1661 63.1555
21795 2 18.2354 22.5585 63.1699
16168 1 11.8728 27.3986 64.4024
21778 2 13.6967 27.4144 65.6757
21821 2 10.969 25.805 65.6925
21822 2 12.7784 25.7737 63.14
16137 1 17.3291 27.3986 64.4024
16183 1 14.6013 25.79 64.4191
21777 2 16.4253 25.805 65.6925
21783 2 15.5061 27.3816 63.1234
16136 1 20.0576 25.79 64.4191
21733 2 19.153 27.4144 65.6757
21742 2 20.9623 27.3816 63.1234
21798 2 18.2346 25.7737 63.14
16167 1 11.8721 30.6162 64.3654
21764 2 13.6959 30.6335 65.6386
21812 2 10.9682 29.0239 65.6577
21823 2 12.7776 28.9895 63.1057
16123 1 17.3283 30.6162 64.3654
16166 1 14.6006 29.0073 64.3845
21780 2 16.4244 29.0239 65.6577
21782 2 15.5053 30.5977 63.0868
16139 1 20.0568 29.0073 64.3845
21732 2 19.1521 30.6335 65.6386
21735 2 20.9615 30.5977 63.0868
21781 2 18.2338 28.9895 63.1057
16160 1 11.8714 33.8344 64.3236
21763 2 13.6951 33.8531 65.5967
21813 2 10.9674 32.2432 65.6182
21814 2 12.7768 32.206 63.0667
16122 1 17.3276 33.8344 64.3236
16169 1 14.5998 32.2252 64.3451
21762 2 16.4236 32.2432 65.6182
21768 2 15.5045 33.8146 63.0455
16121 1 20.0561 32.2252 64.3451
21718 2 19.1513 33.8531 65.5967
21734 2 20.9608 33.8146 63.0455
21784 2 18.233 32.206 63.0667
16159 1 11.8707 37.0533 64.2769
21753 2 13.6943 37.0731 65.55
21811 2 10.9666 35.463 65.5739
21815 2 12.776 35.4234 63.023
16106 1 17.3269 37.0533 64.2769
16158 1 14.5991 35.4438 64.3009
21765 2 16.4228 35.463 65.5739
21767 2 15.5038 37.0324 62.9993
16124 1 20.0554 35.4438 64.3009
21717 2 19.1505 37.0731 65.55
21719 2 20.96 37.0324 62.9993
21766 2 18.2323 35.4234 63.023
16178 1 12.7936 19.3825 67.0299
21775 2 11.8894 21.0033 68.2873
16134 1 15.5213 20.9923 67.0175
21738 2 17.3456 21.0033 68.2873
21791 2 14.618 19.3927 68.2998
16086 1 20.9775 20.9923 67.0175
16144 1 18.2498 19.3825 67.0299
21737 2 20.0742 19.3927 68.2998
16179 1 12.7927 22.6022 67.004
21774 2 11.8885 24.2248 68.2591
16133 1 15.5204 24.2122 66.9893
21730 2 17.3447 24.2248 68.2591
21773 2 14.6171 22.614 68.2737
16085 1 20.9767 24.2122 66.9893
16132 1 18.249 22.6022 67.004
21739 2 20.0733 22.614 68.2737
16164 1 12.7919 25.8222 66.9736
21760 2 11.8876 27.4467 68.2263
16119 1 15.5196 27.4323 66.9567
21729 2 17.3438 27.4467 68.2263
21776 2 14.6161 25.8357 68.2432
16084 1 20.9758 27.4323 66.9567
16135 1 18.2481 25.8222 66.9736
21728 2 20.0724 25.8357 68.2432
16165 1 12.791 29.0425 66.9386
21759 2 11.8866 30.6688 68.1888
16118 1 15.5187 30.6528 66.9193
21715 2 17.3429 30.6688 68.1888
21758 2 14.6152 29.0577 68.2082
16077 1 20.975 30.6528 66.9193
16117 1 18.2473 29.0425 66.9386
21731 2 20.0714 29.0577 68.2082
16156 1 12.7902 32.2631 66.8988
21752 2 11.8857 33.8911 68.1466
16105 1 15.5179 33.8734 66.8771
21714 2 17.3419 33.8911 68.1466
21761 2 14.6143 32.2799 68.1683
16076 1 20.9742 33.8734 66.8771
16120 1 18.2464 32.2631 66.8988
21713 2 20.0705 32.2799 68.1683
16157 1 12.7894 35.4839 66.8542
21751 2 11.8847 37.1135 68.0996
16104 1 15.5172 37.0939 66.83
21700 2 17.341 37.1135 68.0996
21750 2 14.6133 35.5023 68.1237
16065 1 20.9734 37.0939 66.83
16103 1 18.2456 35.4839 66.8542
21716 2 20.0696 35.5023 68.1237
16111 1 11.8968 21.0451 72.1521
16130 1 13.7115 21.0185 69.5765
16177 1 10.9838 19.407 69.589
21771 2 12.809 19.4154 70.8462
16080 1 17.3531 21.0451 72.1521
16128 1 14.6255 19.432 72.1647
16129 1 16.44 19.407 69.589
21726 2 15.5366 21.0277 70.8337
16079 1 20.0818 19.432 72.1647
16083 1 19.1677 21.0185 69.5765
21684 2 20.9929 21.0277 70.8337
21736 2 18.2653 19.4154 70.8462
16110 1 11.8957 24.2713 72.1236
16115 1 13.7105 24.2415 69.5481
16162 1 10.9829 22.63 69.5629
21772 2 12.808 22.6401 70.82
16072 1 17.3519 24.2713 72.1236
16109 1 14.6244 22.6582 72.1384
16131 1 16.4391 22.63 69.5629
21725 2 15.5356 24.2525 70.8053
16081 1 20.0806 22.6582 72.1384
16082 1 19.1667 24.2415 69.5481
21683 2 20.9919 24.2525 70.8053
21724 2 18.2643 22.6401 70.82
16097 1 11.8945 27.4976 72.0906
16114 1 13.7095 27.4648 69.5152
16163 1 10.9819 25.8531 69.5322
21756 2 12.807 25.865 70.7894
16071 1 17.3507 27.4976 72.0906
16112 1 14.6232 25.8844 72.1077
16113 1 16.4381 25.8531 69.5322
21711 2 15.5345 27.4776 70.7723
16070 1 20.0794 25.8844 72.1077
16075 1 19.1657 27.4648 69.5152
21682 2 20.9908 27.4776 70.7723
21727 2 18.2632 25.865 70.7894
16096 1 11.8932 30.7237 72.0528
16101 1 13.7085 30.6881 69.4776
16154 1 10.9809 29.0764 69.497
21757 2 12.8059 29.0902 70.7541
16061 1 17.3495 30.7237 72.0528
16095 1 14.622 29.1107 72.0723
16116 1 16.4371 29.0764 69.497
21710 2 15.5335 30.7028 70.7347
16073 1 20.0782 29.1107 72.0723
16074 1 19.1647 30.6881 69.4776
21676 2 20.9897 30.7028 70.7347
21709 2 18.2621 29.0902 70.7541
16091 1 11.8921 33.9495 72.0103
16100 1 13.7075 33.9114 69.4351
16155 1 10.9799 32.2998 69.457
21748 2 12.8048 32.3154 70.7141
16060 1 17.3483 33.9495 72.0103
16098 1 14.6208 32.3367 72.0322
16099 1 16.4361 32.2998 69.457
21699 2 15.5324 33.9281 70.6924
16059 1 20.077 32.3367 72.0322
16064 1 19.1638 33.9114 69.4351
21675 2 20.9886 33.9281 70.6924
21712 2 18.261 32.3154 70.7141
16090 1 11.8909 37.1747 71.9631
16092 1 13.7065 37.1345 69.3879
16153 1 10.9789 35.523 69.4121
21749 2 12.8037 35.5406 70.6694
16054 1 17.3472 37.1747 71.9631
16089 1 14.6196 35.5622 71.9873
16102 1 16.4352 35.523 69.4121
21698 2 15.5313 37.153 70.6453
16062 1 20.0759 35.5622 71.9873
16063 1 19.1628 37.1345 69.3879
21668 2 20.9875 37.153 70.6453
21697 2 18.2599 35.5406 70.6694
16107 1 12.7519 19.4686 74.8159
21703 2 11.8878 21.082 75.8398
21722 2 13.7259 21.051 73.3655
21770 2 10.9984 19.437 73.3781
16068 1 15.4793 21.0832 74.8033
21678 2 17.344 21.082 75.8398
21720 2 14.6166 19.4666 75.8524
21721 2 16.4546 19.437 73.3781
16050 1 20.9356 21.0832 74.8033
16078 1 18.2082 19.4686 74.8159
21677 2 20.0728 19.4666 75.8524
21681 2 19.1822 21.051 73.3655
16108 1 12.7505 22.6978 74.7896
21702 2 11.8863 24.3128 75.8113
21707 2 13.7247 24.279 73.337
21754 2 10.9972 22.665 73.3518
16067 1 15.4778 24.3122 74.7748
21671 2 17.3425 24.3128 75.8113
21701 2 14.6152 22.6974 75.8261
21723 2 16.4535 22.665 73.3518
16049 1 20.9341 24.3122 74.7748
16066 1 18.2067 22.6978 74.7896
21679 2 20.0714 22.6974 75.8261
21680 2 19.181 24.279 73.337
16093 1 12.749 25.9264 74.7589
21691 2 11.8848 27.5435 75.7784
21706 2 13.7235 27.5074 73.304
21755 2 10.996 25.8932 73.3211
16057 1 15.4763 27.5405 74.7418
21670 2 17.341 27.5435 75.7784
21704 2 14.6137 25.9282 75.7954
21705 2 16.4522 25.8932 73.3211
16048 1 20.9326 27.5405 74.7418
16069 1 18.2052 25.9264 74.7589
21669 2 20.0699 25.9282 75.7954
21674 2 19.1797 27.5074 73.304
16094 1 12.7475 29.1544 74.7236
21690 2 11.8833 30.774 75.7409
21695 2 13.7222 30.7359 73.2663
21746 2 10.9947 29.1216 73.2857
16056 1 15.475 30.7681 74.7042
21664 2 17.3395 30.774 75.7409
21689 2 14.6121 29.1588 75.7602
21708 2 16.451 29.1216 73.2857
16047 1 20.9312 30.7681 74.7042
16055 1 18.2038 29.1544 74.7236
21672 2 20.0684 29.1588 75.7602
21673 2 19.1784 30.7359 73.2663
16087 1 12.7463 32.3815 74.6836
21687 2 11.8819 34.0038 75.6989
21694 2 13.7209 33.9642 73.224
21747 2 10.9934 32.3501 73.2458
16053 1 15.4739 33.9947 74.6619
21663 2 17.3382 34.0038 75.6989
21692 2 14.6107 32.389 75.7204
21693 2 16.4497 32.3501 73.2458
16046 1 20.9301 33.9947 74.6619
16058 1 18.2025 32.3815 74.6836
21662 2 20.0669 32.389 75.7204
21667 2 19.1772 33.9642 73.224
16088 1 12.7454 35.6075 74.639
21686 2 11.8807 37.2325 75.6524
21688 2 13.7196 37.1919 73.1771
21745 2 10.9922 35.5781 73.2011
16052 1 15.4732 37.2199 74.615
21661 2 17.3369 37.2325 75.6524
21685 2 14.6094 35.6183 75.6761
21696 2 16.4484 35.5781 73.2011
16045 1 20.9294 37.2199 74.615
16051 1 18.2016 35.6075 74.639
21665 2 20.0656 35.6183 75.6761
21666 2 19.1759 37.1919 73.1771
10401 2 11.8266 39.1502 -1.17868
10409 2 13.643 39.1164 -3.68226
4032 1 12.7331 40.7105 -2.64538
10414 2 10.9167 40.6891 -3.70564
4018 1 15.458 39.1372 -2.62156
10371 2 17.2828 39.1502 -1.17868
10399 2 14.5558 40.723 -1.20255
10410 2 16.3729 40.6891 -3.70564
3972 1 20.9142 39.1372 -2.62156
10374 2 19.0992 39.1164 -3.68226
4016 1 18.1893 40.7105 -2.64538
10372 2 20.012 40.723 -1.20255
10400 2 11.8288 42.2965 -1.22678
10405 2 13.6466 42.2626 -3.72935
4028 1 12.7397 43.8597 -2.694
10415 2 10.9204 43.8372 -3.75329
4017 1 15.4645 42.2847 -2.66957
10365 2 17.285 42.2965 -1.22678
10402 2 14.558 43.8708 -1.25126
10403 2 16.3766 43.8372 -3.75329
3971 1 20.9207 42.2847 -2.66957
10373 2 19.1029 42.2626 -3.72935
4019 1 18.196 43.8597 -2.694
10363 2 20.0142 43.8708 -1.25126
10390 2 11.831 45.4459 -1.27587
10404 2 13.6504 45.4127 -3.77732
4029 1 12.7467 47.0125 -2.7431
10412 2 10.9242 46.9893 -3.80133
4010 1 15.4713 45.4356 -2.71856
10364 2 17.2872 45.4459 -1.27587
10388 2 14.5602 47.0219 -1.30046
10406 2 16.3804 46.9893 -3.80133
3970 1 20.9276 45.4356 -2.71856
10368 2 19.1066 45.4127 -3.77732
4008 1 18.2029 47.0125 -2.7431
10366 2 20.0164 47.0219 -1.30046
10389 2 11.8331 48.5988 -1.32491
10394 2 13.6542 48.567 -3.82517
4024 1 12.7538 50.169 -2.79162
10413 2 10.928 50.1458 -3.84872
4009 1 15.4784 48.5903 -2.76751
10351 2 17.2894 48.5988 -1.32491
10391 2 14.5623 50.1766 -1.34907
10392 2 16.3843 50.1458 -3.84872
3963 1 20.9346 48.5903 -2.76751
10367 2 19.1105 48.567 -3.82517
4011 1 18.21 50.169 -2.79162
10349 2 20.0186 50.1766 -1.34907
10382 2 11.8353 51.7555 -1.37279
10393 2 13.6581 51.7257 -3.87182
4025 1 12.7608 53.3294 -2.83834
10411 2 10.9318 53.3067 -3.89433
3996 1 15.4854 51.7487 -2.81528
10350 2 17.2915 51.7555 -1.37279
10380 2 14.5645 53.3353 -1.39591
10395 2 16.3881 53.3067 -3.89433
3962 1 20.9417 51.7487 -2.81528
10354 2 19.1143 51.7257 -3.87182
3994 1 18.217 53.3294 -2.83834
10352 2 20.0207 53.3353 -1.39591
10381 2 11.8375 54.9161 -1.41827
10383 2 13.6619 54.8889 -3.91609
4415 1 12.7675 56.4935 -2.88205
10824 2 10.9356 56.4722 -3.93697
3995 1 15.4923 54.911 -2.86065
10333 2 17.2937 54.9161 -1.41827
10815 2 14.5666 56.4979 -1.43974
10816 2 16.3918 56.4722 -3.93697
3947 1 20.9485 54.911 -2.86065
10353 2 19.1181 54.8889 -3.91609
4404 1 18.2237 56.4935 -2.88205
10778 2 20.0229 56.4979 -1.43974
4014 1 13.6445 39.1693 0.0430212
4026 1 10.9178 40.7424 0.0189779
10398 2 12.7371 40.7592 1.34987
10361 2 15.4639 39.1861 1.37405
4015 1 16.3741 40.7424 0.0189779
3969 1 19.1007 39.1693 0.0430212
10308 2 20.9201 39.1861 1.37405
10359 2 18.1933 40.7592 1.34987
4006 1 13.6474 42.3162 -0.00543419
4027 1 10.9208 43.8908 -0.0301001
10386 2 12.7397 43.907 1.30048
10360 2 15.4665 42.3328 1.32531
4003 1 14.5587 43.9254 2.56498
4004 1 16.377 43.8908 -0.0301001
3968 1 19.1037 42.3162 -0.00543419
10307 2 20.9227 42.3328 1.32531
3956 1 20.0149 43.9254 2.56498
10362 2 18.1959 43.907 1.30048
3988 1 11.832 45.5003 2.53975
4005 1 13.6504 45.466 -0.054895
4022 1 10.9237 47.042 -0.0796853
10387 2 12.7423 47.0575 1.25052
3957 1 17.2883 45.5003 2.53975
10347 2 15.4691 45.4819 1.27551
3986 1 14.5616 47.0758 2.51449
4007 1 16.38 47.042 -0.0796853
3961 1 19.1066 45.466 -0.054895
10306 2 20.9253 45.4819 1.27551
3959 1 20.0179 47.0758 2.51449
10345 2 18.1985 47.0575 1.25052
3987 1 11.835 48.6519 2.48936
3992 1 13.6533 48.6188 -0.104329
4023 1 10.9267 50.1965 -0.128679
10378 2 12.7448 50.211 1.2011
3943 1 17.2912 48.6519 2.48936
10346 2 15.4717 48.6339 1.22567
3989 1 14.5645 50.2286 2.46451
3990 1 16.3829 50.1965 -0.128679
3960 1 19.1096 48.6188 -0.104329
10299 2 20.9279 48.6339 1.22567
3941 1 20.0208 50.2286 2.46451
10348 2 18.2011 50.211 1.2011
3980 1 11.8378 51.8061 2.4401
3991 1 13.6562 51.775 -0.15258
4021 1 10.9295 53.3543 -0.175878
10379 2 12.7473 53.3675 1.15342
3942 1 17.2941 51.8061 2.4401
10332 2 15.4742 51.7889 1.17697
3978 1 14.5673 53.3843 2.41627
3993 1 16.3858 53.3543 -0.175878
3946 1 19.1125 51.775 -0.15258
10298 2 20.9305 51.7889 1.17697
3944 1 20.0236 53.3843 2.41627
10330 2 18.2036 53.3675 1.15342
3979 1 11.8406 54.9631 2.39321
3981 1 13.6591 54.9345 -0.198414
4414 1 10.9323 56.5156 -0.220032
10805 2 12.7498 56.5274 1.10876
3925 1 17.2968 54.9631 2.39321
10331 2 15.4767 54.9471 1.13064
4396 1 14.5701 56.5427 2.37108
4397 1 16.3886 56.5156 -0.220032
3945 1 19.1153 54.9345 -0.198414
10283 2 20.9329 54.9471 1.13064
4349 1 20.0263 56.5427 2.37108
10777 2 18.206 56.5274 1.10876
4002 1 11.8261 39.2041 2.63925
10357 2 13.6448 39.2212 3.94033
3999 1 12.7369 40.8122 5.19541
10384 2 10.9181 40.7944 3.9159
3966 1 17.2824 39.2041 2.63925
4000 1 14.5557 40.7774 2.61485
3954 1 15.4634 39.239 5.22011
10358 2 16.3744 40.7944 3.9159
3967 1 20.0119 40.7774 2.61485
3900 1 20.9196 39.239 5.22011
10305 2 19.101 39.2212 3.94033
3952 1 18.1931 40.8122 5.19541
4001 1 11.8291 42.3511 2.59006
10343 2 13.6478 42.368 3.89106
3984 1 12.7402 43.9598 5.14481
10385 2 10.9212 43.9421 3.86592
3958 1 17.2853 42.3511 2.59006
3953 1 15.4666 42.3859 5.17027
10341 2 16.3774 43.9421 3.86592
3899 1 20.9229 42.3859 5.17027
10304 2 19.104 42.368 3.89106
3955 1 18.1964 43.9598 5.14481
10342 2 13.6508 45.5167 3.84061
3985 1 12.7434 47.1091 5.09343
10376 2 10.9242 47.0918 3.81526
3939 1 15.4699 45.5343 5.11915
10344 2 16.3805 47.0918 3.81526
3898 1 20.9262 45.5343 5.11915
10297 2 19.1071 45.5167 3.84061
3937 1 18.1997 47.1091 5.09343
10328 2 13.6538 48.6675 3.79002
3976 1 12.7466 50.2603 5.04243
10377 2 10.9272 50.2437 3.76504
3938 1 15.4732 48.6845 5.06781
10326 2 16.3834 50.2437 3.76504
3891 1 20.9294 48.6845 5.06781
10296 2 19.1101 48.6675 3.79002
3940 1 18.2029 50.2603 5.04243
10327 2 13.6568 51.8207 3.74048
3977 1 12.7498 53.4133 4.99352
10375 2 10.9301 53.3982 3.7165
3924 1 15.4763 51.8367 5.01746
10329 2 16.3863 53.3982 3.7165
3890 1 20.9326 51.8367 5.01746
10282 2 19.113 51.8207 3.74048
3922 1 18.206 53.4133 4.99352
10317 2 13.6596 54.9764 3.69327
4382 1 12.7527 56.5691 4.94722
10804 2 10.9329 56.5553 3.67095
3923 1 15.4794 54.9909 4.9699
10764 2 16.3891 56.5553 3.67095
3876 1 20.9356 54.9909 4.9699
10281 2 19.1159 54.9764 3.69327
4348 1 18.209 56.5691 4.94722
3950 1 13.6441 39.2727 7.79657
10339 2 11.8256 39.2557 6.51151
3982 1 10.9177 40.8459 7.77165
10336 2 12.736 40.8626 9.0601
10290 2 15.4623 39.2893 9.08495
10302 2 17.2818 39.2557 6.51151
3951 1 16.374 40.8459 7.77165
10337 2 14.5554 40.8289 6.48684
3897 1 19.1003 39.2727 7.79657
10248 2 20.9185 39.2893 9.08495
10288 2 18.1923 40.8626 9.0601
10303 2 20.0116 40.8289 6.48684
3935 1 13.6477 42.4193 7.74623
10338 2 11.829 42.4024 6.46172
3983 1 10.9214 43.993 7.72043
10320 2 12.7398 44.0094 9.00899
10289 2 15.466 42.4359 9.03475
10294 2 17.2852 42.4024 6.46172
3933 1 16.3776 43.993 7.72043
10340 2 14.5588 43.9762 6.43625
3896 1 19.1039 42.4193 7.74623
10247 2 20.9223 42.4359 9.03475
10291 2 18.196 44.0094 9.00899
10292 2 20.015 43.9762 6.43625
3934 1 13.6513 45.5669 7.69439
10324 2 11.8324 45.5504 6.41057
3974 1 10.925 47.1411 7.66823
10321 2 12.7436 47.1569 8.95677
10275 2 15.4698 45.583 8.98295
10293 2 17.2886 45.5504 6.41057
3936 1 16.3813 47.1411 7.66823
10322 2 14.5622 47.1249 6.3848
3889 1 19.1076 45.5669 7.69439
10246 2 20.9261 45.583 8.98295
10273 2 18.1998 47.1569 8.95677
10295 2 20.0185 47.1249 6.3848
3920 1 13.6549 48.7156 7.64211
10323 2 11.8358 48.6998 6.35912
3975 1 10.9286 50.2906 7.61622
10312 2 12.7474 50.3055 8.90461
10274 2 15.4736 48.7311 8.9306
10279 2 17.292 48.6998 6.35912
3918 1 16.3848 50.2906 7.61622
10325 2 14.5656 50.2752 6.33365
3888 1 19.1112 48.7156 7.64211
10240 2 20.9299 48.7311 8.9306
10276 2 18.2036 50.3055 8.90461
10277 2 20.0218 50.2752 6.33365
3919 1 13.6585 51.8659 7.59075
10316 2 11.8391 51.8511 6.30862
3973 1 10.932 53.4418 7.56581
10313 2 12.751 53.4557 8.8538
10263 2 15.4773 51.8804 8.87896
10278 2 17.2953 51.8511 6.30862
3921 1 16.3883 53.4418 7.56581
10314 2 14.5688 53.4275 6.28412
3875 1 19.1147 51.8659 7.59075
10239 2 20.9336 51.8804 8.87896
10261 2 18.2073 53.4557 8.8538
10280 2 20.0251 53.4275 6.28412
3909 1 13.6618 55.0182 7.54156
10315 2 11.8423 55.0045 6.26032
4381 1 10.9353 56.5951 7.51819
10743 2 12.7545 56.6076 8.80581
10262 2 15.4809 55.0314 8.82936
10264 2 17.2985 55.0045 6.26032
4333 1 16.3916 56.5951 7.51819
10763 2 14.5719 56.5821 6.23743
3874 1 19.1181 55.0182 7.54156
10232 2 20.9372 55.0314 8.82936
10708 2 18.2108 56.6076 8.80581
10709 2 20.0282 56.5821 6.23743
3931 1 11.8244 39.306 10.3721
10286 2 13.6424 39.3229 11.6596
10318 2 10.9162 40.8961 11.6347
3894 1 17.2806 39.306 10.3721
3929 1 14.5544 40.8792 10.347
10287 2 16.3725 40.8961 11.6347
10245 2 19.0986 39.3229 11.6596
3895 1 20.0107 40.8792 10.347
3930 1 11.8283 42.4524 10.3214
10271 2 13.6464 42.4693 11.6092
10319 2 10.9204 44.0424 11.5832
3886 1 17.2845 42.4524 10.3214
3932 1 14.5584 44.0256 10.2953
10269 2 16.3766 44.0424 11.5832
10244 2 19.1026 42.4693 11.6092
3884 1 20.0146 44.0256 10.2953
3916 1 11.8323 45.599 10.2689
10270 2 13.6506 45.6155 11.5568
10310 2 10.9246 47.1887 11.5302
3885 1 17.2885 45.599 10.2689
3914 1 14.5624 47.1725 10.2423
10272 2 16.3808 47.1887 11.5302
10238 2 19.1068 45.6155 11.5568
3887 1 20.0187 47.1725 10.2423
3915 1 11.8363 48.7462 10.2157
10259 2 13.6548 48.762 11.5035
10311 2 10.9288 50.3356 11.477
3872 1 17.2926 48.7462 10.2157
3917 1 14.5664 50.3202 10.1892
10257 2 16.385 50.3356 11.477
10237 2 19.111 48.762 11.5035
3870 1 20.0227 50.3202 10.1892
3908 1 11.8403 51.8945 10.163
10258 2 13.659 51.9093 11.4506
10309 2 10.9329 53.4834 11.4247
3871 1 17.2965 51.8945 10.163
3906 1 14.5703 53.4692 10.1373
10260 2 16.3892 53.4834 11.4247
10231 2 19.1152 51.9093 11.4506
3873 1 20.0265 53.4692 10.1373
3907 1 11.8441 55.0443 10.1123
10252 2 13.663 55.0578 11.3995
10742 2 10.9369 56.6326 11.3751
3861 1 17.3003 55.0443 10.1123
4332 1 14.574 56.6198 10.0882
10693 2 16.3931 56.6326 11.3751
10230 2 19.1193 55.0578 11.3995
4277 1 20.0302 56.6198 10.0882
3878 1 13.6398 39.3742 15.5241
10267 2 11.822 39.3571 14.2353
3928 1 12.7344 40.9128 12.9227
3910 1 10.9138 40.9474 15.4991
3882 1 15.4605 39.3396 12.9478
10242 2 17.2782 39.3571 14.2353
10265 2 14.5522 40.9303 14.2103
3879 1 16.3701 40.9474 15.4991
3849 1 19.096 39.3742 15.5241
3852 1 20.9167 39.3396 12.9478
3880 1 18.1906 40.9128 12.9227
10243 2 20.0084 40.9303 14.2103
3864 1 13.6442 42.5203 15.4734
10266 2 11.8262 42.5033 14.1847
3912 1 12.7387 44.0586 12.8707
3911 1 10.9184 44.0928 15.447
3881 1 15.4646 42.4857 12.897
10235 2 17.2825 42.5033 14.1847
10268 2 14.5566 44.0761 14.1586
3862 1 16.3746 44.0928 15.447
3848 1 19.1004 42.5203 15.4734
3851 1 20.9209 42.4857 12.897
3883 1 18.1949 44.0586 12.8707
10233 2 20.0128 44.0761 14.1586
3863 1 13.6489 45.6651 15.42
10255 2 11.8308 45.6487 14.1319
3913 1 12.7431 47.2042 12.817
3902 1 10.9232 47.2373 15.3926
3868 1 15.469 45.6314 12.844
10234 2 17.287 45.6487 14.1319
10253 2 14.5612 47.2213 14.1049
3865 1 16.3795 47.2373 15.3926
3845 1 19.1051 45.6651 15.42
3850 1 20.9253 45.6314 12.844
10236 2 20.0175 47.2213 14.1049
3866 1 18.1994 47.2042 12.817
3904 1 12.7476 50.3501 12.7627
3856 1 13.6538 48.8092 15.365
10254 2 11.8355 48.7938 14.0778
3903 1 10.9282 50.3812 15.3372
3867 1 15.4735 48.7771 12.7898
10228 2 17.2917 48.7938 14.0778
10256 2 14.5659 50.3663 14.0505
3854 1 16.3845 50.3812 15.3372
3869 1 18.2039 50.3501 12.7627
3844 1 19.1101 48.8092 15.365
3847 1 20.9297 48.7771 12.7898
10226 2 20.0222 50.3663 14.0505
3905 1 12.752 53.4967 12.7092
10251 2 11.8402 51.9389 14.0234
3855 1 13.6589 51.9531 15.3094
3901 1 10.9332 53.5252 15.2819
10227 2 17.2964 51.9389 14.0234
3860 1 15.4779 51.9233 12.7357
10249 2 14.5706 53.5116 13.9967
3857 1 16.3895 53.5252 15.2819
10229 2 20.0269 53.5116 13.9967
3846 1 20.9342 51.9233 12.7357
3842 1 19.1151 51.9531 15.3094
3858 1 18.2082 53.4967 12.7092
10250 2 11.8448 55.0847 13.9706
3853 1 13.6638 55.0975 15.255
4311 1 12.7562 56.6445 12.6583
4310 1 10.9381 56.67 15.2288
3859 1 15.4823 55.0704 12.6833
10225 2 17.3011 55.0847 13.9706
4261 1 16.3944 56.67 15.2288
10692 2 14.5752 56.658 13.9452
4276 1 18.2125 56.6445 12.6583
3843 1 20.9385 55.0704 12.6833
3841 1 19.1201 55.0975 15.255
10649 2 20.0315 56.658 13.9452
10607 2 12.7273 37.8186 16.8356
4222 1 11.8186 39.4103 18.101
4224 1 14.5447 37.8364 18.1249
10594 2 15.4574 39.3924 16.8116
4199 1 17.2749 39.4103 18.101
10596 2 18.1835 37.8186 16.8356
4198 1 20.001 37.8364 18.1249
10548 2 20.9136 39.3924 16.8116
10608 2 12.7314 40.9658 16.7868
4221 1 11.823 42.5567 18.0506
4220 1 14.5489 40.9838 18.0762
10593 2 15.4617 42.5388 16.7613
4195 1 17.2793 42.5567 18.0506
10592 2 18.1876 40.9658 16.7868
4200 1 20.0051 40.9838 18.0762
10547 2 20.918 42.5388 16.7613
10604 2 12.736 44.1114 16.7351
4215 1 11.828 45.7011 17.9972
10586 2 15.4665 45.6836 16.7082
4194 1 17.2843 45.7011 17.9972
4223 1 14.5536 44.1291 18.0243
10595 2 18.1922 44.1114 16.7351
4193 1 20.0098 44.1291 18.0243
10546 2 20.9228 45.6836 16.7082
10605 2 12.741 47.2556 16.6809
4214 1 11.8334 48.8437 17.9415
10568 2 13.6509 48.8636 19.2302
10600 2 12.7462 50.3987 16.6254
10585 2 15.4717 48.8272 16.6533
4183 1 17.2897 48.8437 17.9415
4213 1 14.5588 47.2726 17.9696
4196 1 20.015 47.2726 17.9696
10536 2 19.1071 48.8636 19.2302
10539 2 20.9279 48.8272 16.6533
10584 2 18.1972 47.2556 16.6809
10587 2 18.2025 50.3987 16.6254
10599 2 10.9257 50.4341 19.2017
4208 1 11.8391 51.9853 17.8844
10567 2 13.6569 52.0043 19.1729
10601 2 12.7516 53.5416 16.5698
4182 1 17.2953 51.9853 17.8844
4216 1 14.5644 50.4146 17.913
10566 2 16.382 50.4341 19.2017
10572 2 15.477 51.9701 16.5975
4181 1 20.0206 50.4146 17.913
10522 2 19.1131 52.0043 19.1729
10538 2 20.9333 51.9701 16.5975
10570 2 18.2078 53.5416 16.5698
10597 2 10.9318 53.5743 19.1442
4207 1 11.8449 55.1266 17.8277
10557 2 13.6631 55.1443 19.1158
11015 2 12.7569 56.6848 16.5161
4165 1 17.3011 55.1266 17.8277
4206 1 14.5701 53.5559 17.8559
10569 2 16.3881 53.5743 19.1442
10571 2 15.4824 55.1131 16.5426
4608 1 14.5758 56.6975 17.8002
4184 1 20.0263 53.5559 17.8559
10521 2 19.1193 55.1443 19.1158
10523 2 20.9386 55.1131 16.5426
4582 1 20.0321 56.6975 17.8002
11004 2 18.2132 56.6848 16.5161
10590 2 13.636 39.4295 19.3885
4218 1 12.7232 37.8739 20.7018
10578 2 11.8141 39.4689 21.9657
10588 2 14.5405 37.8936 21.9888
10589 2 16.3622 37.8551 19.4121
4191 1 15.4532 39.4485 20.6783
10542 2 17.2704 39.4689 21.9657
4197 1 18.1794 37.8739 20.7018
10545 2 19.0922 39.4295 19.3885
4140 1 20.9094 39.4485 20.6783
10541 2 19.9968 37.8936 21.9888
7342 2 21.8184 37.8551 19.4121
10582 2 13.6403 42.5765 19.3387
4219 1 12.7271 41.0225 20.654
10577 2 11.8182 42.6171 21.9168
10576 2 14.5442 41.0434 21.9417
10591 2 16.3662 41.0033 19.364
4190 1 15.4575 42.5958 20.6287
10534 2 17.2745 42.6171 21.9168
4189 1 18.1833 41.0225 20.654
10544 2 19.0966 42.5765 19.3387
4139 1 20.9137 42.5958 20.6287
10543 2 20.0004 41.0434 21.9417
7338 2 21.8224 41.0033 19.364
10603 2 10.9146 44.1491 19.3126
10581 2 13.6453 45.7211 19.2857
4211 1 12.7318 44.1683 20.6026
10564 2 11.8232 45.7622 21.8643
10579 2 14.5487 44.1901 21.891
10580 2 16.3708 44.1491 19.3126
4179 1 15.4625 45.7401 20.5756
10533 2 17.2794 45.7622 21.8643
10537 2 19.1015 45.7211 19.2857
4138 1 20.9188 45.7401 20.5756
4192 1 18.188 44.1683 20.6026
10532 2 20.005 44.1901 21.891
10598 2 10.9199 47.2926 19.2582
4212 1 12.7372 47.3113 20.5479
10563 2 11.8291 48.904 21.8085
10583 2 16.3761 47.2926 19.2582
4178 1 15.4683 48.8817 20.5195
10519 2 17.2853 48.904 21.8085
10562 2 14.5542 47.3335 21.8368
4131 1 20.9246 48.8817 20.5195
4177 1 18.1935 47.3113 20.5479
10535 2 20.0104 47.3335 21.8368
4204 1 12.7434 50.4516 20.4904
10556 2 11.8357 52.0429 21.7501
4164 1 15.4747 52.0211 20.461
10518 2 17.2919 52.0429 21.7501
10565 2 14.5604 50.4738 21.7795
4130 1 20.9309 52.0211 20.461
4180 1 18.1996 50.4516 20.4904
10517 2 20.0167 50.4738 21.7795
4205 1 12.7499 53.5902 20.4314
10555 2 11.8429 55.1797 21.6904
4163 1 15.4814 55.1592 20.4018
10501 2 17.2991 55.1797 21.6904
10554 2 14.5674 53.6115 21.7203
4115 1 20.9376 55.1592 20.4018
4162 1 18.2061 53.5902 20.4314
10520 2 20.0236 53.6115 21.7203
4171 1 11.8087 39.5326 25.8328
4187 1 13.631 39.4892 23.2557
10574 2 12.7186 37.9343 24.5652
4185 1 14.5355 37.9555 25.8549
4134 1 17.2649 39.5326 25.8328
4186 1 16.3575 37.9135 23.2786
10530 2 15.4482 39.5108 24.5427
10540 2 18.1749 37.9343 24.5652
4133 1 19.9917 37.9555 25.8549
4137 1 19.0873 39.4892 23.2557
10476 2 20.9045 39.5108 24.5427
1145 1 21.8138 37.9135 23.2786
4170 1 11.812 42.6841 25.7859
4175 1 13.635 42.6381 23.2073
10575 2 12.7218 41.0864 24.5194
4169 1 14.5383 41.1088 25.8098
4126 1 17.2682 42.6841 25.7859
4188 1 16.361 41.0641 23.232
10529 2 15.4518 42.6611 24.4951
10528 2 18.178 41.0864 24.5194
4135 1 19.9946 41.1088 25.8098
4136 1 19.0912 42.6381 23.2073
10475 2 20.9081 42.6611 24.4951
1137 1 21.8173 41.0641 23.232
4156 1 11.8164 45.8313 25.735
4174 1 13.6399 45.7833 23.155
10560 2 12.7259 44.2349 24.4698
4172 1 14.5421 44.2583 25.761
4125 1 17.2726 45.8313 25.735
4173 1 16.3654 44.2112 23.1816
10515 2 15.4565 45.8076 24.4436
10531 2 18.1821 44.2349 24.4698
4124 1 19.9984 44.2583 25.761
4129 1 19.0962 45.7833 23.155
10474 2 20.9127 45.8076 24.4436
1138 1 21.8217 44.2112 23.1816
4155 1 11.8222 48.9735 25.6799
4160 1 13.6459 48.9245 23.099
4202 1 10.9147 47.3544 23.1275
10561 2 12.7311 47.3792 24.4164
4154 1 14.5473 47.403 25.708
4111 1 17.2785 48.9735 25.6799
4176 1 16.3709 47.3544 23.1275
10514 2 15.4624 48.9497 24.3882
10513 2 18.1874 47.3792 24.4164
4127 1 20.0035 47.403 25.708
4128 1 19.1022 48.9245 23.099
10467 2 20.9186 48.9497 24.3882
4148 1 11.8296 52.1102 25.6203
4159 1 13.6529 52.0621 23.0395
4203 1 10.9212 50.4937 23.0697
10552 2 12.7376 50.5191 24.359
4110 1 17.2858 52.1102 25.6203
4157 1 14.5538 50.5425 25.6506
4158 1 16.3774 50.4937 23.0697
10500 2 15.4695 52.0874 24.329
4109 1 20.0101 50.5425 25.6506
4114 1 19.1091 52.0621 23.0395
10466 2 20.9257 52.0874 24.329
10516 2 18.1939 50.5191 24.359
4147 1 11.8383 55.2419 25.5565
4149 1 13.6606 55.1968 22.9778
4201 1 10.9285 53.6297 23.0088
10553 2 12.7453 53.6548 24.2983
4094 1 17.2945 55.2419 25.5565
4146 1 14.5619 53.6766 25.5888
4161 1 16.3848 53.6297 23.0088
10499 2 15.4776 55.2213 24.2671
10452 2 20.9339 55.2213 24.2671
10498 2 18.2016 53.6548 24.2983
4113 1 19.1168 55.1968 22.9778
4112 1 20.0181 53.6766 25.5888
4167 1 12.7136 37.9997 28.4302
10526 2 13.626 39.5554 27.1192
4122 1 15.4426 39.5787 28.4089
10525 2 16.353 37.9773 27.1408
4132 1 18.1699 37.9997 28.4302
4074 1 20.8988 39.5787 28.4089
10473 2 19.0822 39.5554 27.1192
7309 2 21.8093 37.9773 27.1408
4168 1 12.7155 41.1568 28.3868
10511 2 13.6288 42.7089 27.0731
4121 1 15.4449 42.7339 28.3638
10527 2 16.3554 41.1326 27.0966
4120 1 18.1717 41.1568 28.3868
4073 1 20.9012 42.7339 28.3638
10472 2 19.085 42.7089 27.0731
7294 2 21.8116 41.1326 27.0966
4152 1 12.7184 44.3099 28.3399
10510 2 13.6328 45.8579 27.0231
4107 1 15.4484 45.8846 28.3149
10509 2 16.3587 44.284 27.0486
4123 1 18.1746 44.3099 28.3399
4072 1 20.9047 45.8846 28.3149
10465 2 19.089 45.8579 27.0231
7295 2 21.815 44.284 27.0486
4153 1 12.7227 47.4578 28.2888
10496 2 13.6382 49.0018 26.9688
4106 1 15.4536 49.0295 28.2616
10512 2 16.3634 47.4306 26.9965
4105 1 18.1789 47.4578 28.2888
4065 1 20.9098 49.0295 28.2616
10464 2 19.0944 49.0018 26.9688
7286 2 21.8196 47.4306 26.9965
4144 1 12.7288 50.5994 28.233
10495 2 13.6454 52.1397 26.9098
10551 2 10.9134 50.5715 26.9399
4093 1 15.4607 52.1674 28.203
10494 2 16.3697 50.5715 26.9399
4108 1 18.185 50.5994 28.233
4064 1 20.917 52.1674 28.203
10451 2 19.1016 52.1397 26.9098
4145 1 12.737 53.7334 28.1714
10485 2 13.6544 55.2715 26.8461
10549 2 10.9216 53.7063 26.8785
4092 1 15.4701 55.2974 28.1384
10497 2 16.3778 53.7063 26.8785
4053 1 20.9263 55.2974 28.1384
4091 1 18.1933 53.7334 28.1714
10450 2 19.1106 55.2715 26.8461
4118 1 13.6206 39.6273 30.9835
10503 2 12.7105 38.0697 32.2878
10507 2 11.8039 39.6027 29.6943
10524 2 14.5315 38.0226 29.7152
4117 1 16.3484 38.046 31.0039
10458 2 15.4387 39.6523 32.2676
10470 2 17.2602 39.6027 29.6943
10468 2 18.1668 38.0697 32.2878
4071 1 19.0769 39.6273 30.9835
10428 2 20.895 39.6523 32.2676
10469 2 19.9877 38.0226 29.7152
1094 1 21.8047 38.046 31.0039
4103 1 13.6218 42.7874 30.9403
10504 2 12.7108 41.2342 32.2467
10506 2 11.8057 42.7603 29.65
10505 2 14.5328 41.182 29.6726
4119 1 16.3492 41.2078 30.9623
10457 2 15.4393 42.8153 32.225
10462 2 17.262 42.7603 29.65
10456 2 18.1671 41.2342 32.2467
4070 1 19.078 42.7874 30.9403
10427 2 20.8956 42.8153 32.225
10471 2 19.9891 41.182 29.6726
1078 1 21.8055 41.2078 30.9623
4102 1 13.624 45.9432 30.8936
10488 2 12.7118 44.3953 32.2025
10492 2 11.8086 45.9136 29.602
10508 2 14.5351 44.3376 29.6265
4101 1 16.3509 44.3659 30.9174
10444 2 15.4408 45.9742 32.179
10461 2 17.2648 45.9136 29.602
10459 2 18.1681 44.3953 32.2025
4063 1 19.0802 45.9432 30.8936
10426 2 20.897 45.9742 32.179
10460 2 19.9913 44.3376 29.6265
1079 1 21.8071 44.3659 30.9174
4089 1 13.6278 49.0932 30.8428
10489 2 12.7139 47.5518 32.1546
10491 2 11.813 49.0611 29.5496
10490 2 14.5387 47.4881 29.5764
4104 1 16.3538 47.519 30.8688
10443 2 15.4436 49.1277 32.129
10448 2 17.2693 49.0611 29.5496
10442 2 18.1701 47.5518 32.1546
4062 1 19.084 49.0932 30.8428
10423 2 20.8999 49.1277 32.129
10463 2 19.9949 47.4881 29.5764
1070 1 21.81 47.519 30.8688
4088 1 13.6338 52.2353 30.7867
10480 2 12.7176 50.7018 32.1021
10484 2 11.8196 52.2014 29.4918
10493 2 14.5441 50.6322 29.5214
4087 1 16.3586 50.6654 30.8155
10436 2 15.4486 52.2736 32.0736
10447 2 17.2758 52.2014 29.4918
10445 2 18.1739 50.7018 32.1021
4052 1 19.0901 52.2353 30.7867
10422 2 20.9048 52.2736 32.0736
10446 2 20.0003 50.6322 29.5214
1071 1 21.8148 50.6654 30.8155
4080 1 13.643 55.367 30.7237
10481 2 12.724 53.8429 32.0434
10483 2 11.8288 55.3332 29.4278
4090 1 16.3661 53.8026 30.7562
10435 2 15.4566 55.4091 32.011
10437 2 17.285 55.3332 29.4278
10482 2 14.5519 53.7684 29.4606
10434 2 18.1803 53.8429 32.0434
4051 1 19.0992 55.367 30.7237
10419 2 20.9129 55.4091 32.011
10449 2 20.0082 53.7684 29.4606
1069 1 21.8223 53.8026 30.7562
4099 1 11.7995 39.6781 33.5558
10454 2 13.6183 39.7039 34.8385
4116 1 14.5278 38.0941 33.5755
4068 1 17.2557 39.6781 33.5558
10453 2 16.3468 38.1185 34.8581
4067 1 19.9841 38.0941 33.5755
10425 2 19.0745 39.7039 34.8385
7238 2 21.803 38.1185 34.8581
4098 1 11.7994 42.8441 33.5143
10440 2 13.6177 42.873 34.7972
4097 1 14.5275 41.2615 33.5354
4060 1 17.2556 42.8441 33.5143
10455 2 16.3461 41.2887 34.8182
4069 1 19.9837 41.2615 33.5354
10424 2 19.074 42.873 34.7972
7222 2 21.8023 41.2887 34.8182
4085 1 11.8 46.0067 33.4698
10439 2 13.6177 46.0392 34.753
4100 1 14.5277 44.4259 33.4924
4059 1 17.2562 46.0067 33.4698
10438 2 16.3457 44.4565 34.7755
4058 1 19.9839 44.4259 33.4924
10421 2 19.0739 46.0392 34.753
7223 2 21.802 44.4565 34.7755
4083 1 14.5288 47.5862 33.4463
4084 1 11.8018 49.1643 33.4219
10432 2 13.6185 49.201 34.7053
10441 2 16.3461 47.6208 34.7296
4049 1 17.258 49.1643 33.4219
10420 2 19.0748 49.201 34.7053
4061 1 19.985 47.5862 33.4463
7214 2 21.8023 47.6208 34.7296
4086 1 14.5315 50.7406 33.3964
10431 2 13.621 52.3563 34.6528
4079 1 11.8057 52.3147 33.3696
10430 2 16.3476 50.7797 34.6797
4048 1 17.2619 52.3147 33.3696
10418 2 19.0773 52.3563 34.6528
4047 1 19.9877 50.7406 33.3964
7215 2 21.8039 50.7797 34.6797
4077 1 14.5369 53.8861 33.3412
10429 2 13.6264 55.5011 34.593
4078 1 11.813 55.4542 33.3111
4076 1 12.7068 53.9841 35.9228
10433 2 16.3514 53.9303 34.624
4042 1 17.2692 55.4542 33.3111
4040 1 15.4368 55.5609 35.8961
4039 1 18.163 53.9841 35.9228
10417 2 19.0826 55.5011 34.593
4050 1 19.9931 53.8861 33.3412
7213 2 21.8076 53.9303 34.624
4033 1 20.8931 55.5609 35.8961
10630 2 11.7992 39.7567 37.4063
16397 1 13.6174 39.784 38.6915
4095 1 12.7084 38.1436 36.1445
10632 2 14.5281 38.1683 37.4256
10619 2 17.2554 39.7567 37.4063
16396 1 16.3466 38.1939 38.7106
4056 1 15.4358 39.7306 36.1253
4066 1 18.1646 38.1436 36.1445
10618 2 19.9844 38.1683 37.4256
16362 1 19.0736 39.784 38.6915
4038 1 20.892 39.7306 36.1253
13584 1 21.8028 38.1939 38.7106
10629 2 11.7976 42.9327 37.3658
16393 1 13.6152 42.964 38.6517
4096 1 12.707 41.3171 36.1054
10628 2 14.5265 41.3449 37.3863
10616 2 17.2539 42.9327 37.3658
16398 1 16.3444 41.374 38.6719
4055 1 15.4345 42.9033 36.085
4054 1 18.1632 41.3171 36.1054
10620 2 19.9828 41.3449 37.3863
16361 1 19.0714 42.964 38.6517
4037 1 20.8907 42.9033 36.085
13582 1 21.8007 41.374 38.6719
10626 2 11.7962 46.1072 37.3226
16392 1 13.6128 46.1436 38.6096
4081 1 12.7058 44.4889 36.0639
10631 2 14.525 44.5202 37.3445
10615 2 17.2525 46.1072 37.3226
16391 1 16.3421 44.5538 38.6309
4045 1 15.4335 46.0739 36.0422
4057 1 18.1621 44.4889 36.0639
10614 2 19.9813 44.5202 37.3445
16356 1 19.0691 46.1436 38.6096
4036 1 20.8897 46.0739 36.0422
13583 1 21.7984 44.5538 38.6309
10625 2 11.7952 49.2793 37.2764
16382 1 13.6104 49.3232 38.5653
4082 1 12.705 47.6582 36.0199
10624 2 14.5238 47.6936 37.2999
10612 2 17.2515 49.2793 37.2764
16394 1 16.3398 47.7334 38.5878
4044 1 15.433 49.2416 35.9968
4043 1 18.1613 47.6582 36.0199
10617 2 19.98 47.6936 37.2999
16355 1 19.0667 49.3232 38.5653
4035 1 20.8893 49.2416 35.9968
13580 1 21.796 47.7334 38.5878
10623 2 11.7951 52.4476 37.2259
16381 1 13.6077 52.5034 38.5189
4075 1 12.7051 50.824 35.973
10627 2 14.5231 50.8641 37.2518
10611 2 17.2513 52.4476 37.2259
16380 1 16.3373 50.9132 38.5424
4041 1 15.4338 52.4049 35.9483
4046 1 18.1613 50.824 35.973
10610 2 19.9793 50.8641 37.2518
16342 1 19.064 52.5034 38.5189
4034 1 20.89 52.4049 35.9483
13581 1 21.7935 50.9132 38.5424
10622 2 11.7968 55.6085 37.1688
16371 1 13.6037 55.6864 38.4709
10621 2 14.5237 54.0293 37.1984
10609 2 17.253 55.6085 37.1688
16383 1 16.3342 54.0942 38.4951
10613 2 19.98 54.0293 37.1984
16341 1 19.06 55.6864 38.4709
13579 1 21.7904 54.0942 38.4951
22019 2 12.7109 38.2188 39.9901
22002 2 13.6222 39.864 42.5319
16389 1 11.8007 39.8379 41.2544
16395 1 14.5301 38.2447 41.2736
22006 2 15.438 39.8103 39.9708
22001 2 16.3515 38.2694 42.5515
16359 1 17.2569 39.8379 41.2544
22008 2 18.1672 38.2188 39.9901
16358 1 19.9863 38.2447 41.2736
21957 2 19.0784 39.864 42.5319
21960 2 20.8942 39.8103 39.9708
19198 2 21.8077 38.2694 42.5515
22020 2 12.7087 41.4018 39.9508
16388 1 11.798 43.0252 41.2141
21994 2 13.6196 43.0541 42.4905
16387 1 14.5275 41.4314 41.2345
22005 2 15.4357 42.9934 39.9302
22003 2 16.3491 41.4589 42.5115
16353 1 17.2542 43.0252 41.2141
22004 2 18.165 41.4018 39.9508
16360 1 19.9837 41.4314 41.2345
21956 2 19.0759 43.0541 42.4905
21959 2 20.892 42.9934 39.9302
19194 2 21.8053 41.4589 42.5115
22016 2 12.7064 44.585 39.909
16378 1 11.7949 46.2141 41.1714
21993 2 13.6169 46.246 42.4461
16390 1 14.5246 44.6194 41.193
21998 2 15.4334 46.1766 39.887
16352 1 17.2511 46.2141 41.1714
21992 2 16.3464 44.6498 42.4687
22007 2 18.1627 44.585 39.909
16351 1 19.9808 44.6194 41.193
21949 2 19.0732 46.246 42.4461
21958 2 20.8896 46.1766 39.887
19195 2 21.8027 44.6498 42.4687
22017 2 12.7041 47.7683 39.8643
16377 1 11.7913 49.406 41.1263
21980 2 13.6141 49.4404 42.398
16376 1 14.5213 47.8095 41.1492
21997 2 15.4311 49.3601 39.8407
16339 1 17.2475 49.406 41.1263
21995 2 16.3436 47.8428 42.4225
21996 2 18.1604 47.7683 39.8643
16354 1 19.9775 47.8095 41.1492
21948 2 19.0703 49.4404 42.398
21951 2 20.8873 49.3601 39.8407
19190 2 21.7999 47.8428 42.4225
22012 2 12.7019 50.9518 39.8161
16370 1 11.7865 52.6035 41.0784
21979 2 13.6111 52.6387 42.3448
16379 1 14.5172 51.0037 41.1027
16338 1 17.2428 52.6035 41.0784
21978 2 16.3407 51.039 42.3722
21984 2 15.4291 52.5435 39.7901
21999 2 18.1581 50.9518 39.8161
16337 1 19.9735 51.0037 41.1027
21934 2 19.0674 52.6387 42.3448
21950 2 20.8853 52.5435 39.7901
19191 2 21.797 51.039 42.3722
22013 2 12.7001 54.1353 39.7625
16369 1 11.7789 55.8123 41.0275
21969 2 13.6078 55.8437 42.2836
16368 1 14.5114 54.2058 41.0534
16321 1 17.2351 55.8123 41.0275
21981 2 16.3377 54.2401 42.3154
21983 2 15.4276 55.7271 39.7328
21982 2 18.1564 54.1353 39.7625
16340 1 19.9676 54.2058 41.0534
21933 2 19.064 55.8437 42.2836
21935 2 20.8838 55.7271 39.7328
19189 2 21.7939 54.2401 42.3154
16385 1 12.7152 38.2954 43.8336
21990 2 11.808 39.9172 45.0898
22000 2 14.5374 38.3197 45.1101
16349 1 15.442 39.8917 43.8138
21954 2 17.2643 39.9172 45.0898
16357 1 18.1714 38.2954 43.8336
16296 1 20.8982 39.8917 43.8138
21953 2 19.9936 38.3197 45.1101
16386 1 12.7125 41.4886 43.7934
21989 2 11.8055 43.114 45.0468
21988 2 14.5349 41.5153 45.0687
16348 1 15.4391 43.0861 43.7722
21946 2 17.2618 43.114 45.0468
16347 1 18.1687 41.4886 43.7934
16295 1 20.8954 43.0861 43.7722
21955 2 19.9912 41.5153 45.0687
16374 1 12.7094 44.6844 43.7503
21976 2 11.8028 46.3138 45.0002
21991 2 14.5323 44.7134 45.024
16335 1 15.4359 46.2837 43.7277
21945 2 17.2591 46.3138 45.0002
16350 1 18.1657 44.6844 43.7503
16294 1 20.8921 46.2837 43.7277
21944 2 19.9885 44.7134 45.024
16375 1 12.7059 47.8842 43.7042
21975 2 11.7999 49.518 44.9491
21974 2 14.5295 47.9152 44.9753
16334 1 15.432 49.4865 43.6798
21931 2 17.2562 49.518 44.9491
16333 1 18.1622 47.8842 43.7042
16287 1 20.8883 49.4865 43.6798
21947 2 19.9858 47.9152 44.9753
16366 1 12.7016 51.0909 43.6543
21968 2 11.7967 52.7287 44.8919
21977 2 14.5265 51.1223 44.9214
16320 1 15.4271 52.698 43.6276
21930 2 17.253 52.7287 44.8919
16336 1 18.1579 51.0909 43.6543
16286 1 20.8833 52.698 43.6276
21929 2 19.9828 51.1223 44.9214
16367 1 12.6957 54.3087 43.5992
21967 2 11.7925 55.9496 44.8257
21966 2 14.523 54.3375 44.8602
16319 1 15.4197 55.9239 43.5688
21914 2 17.2487 55.9496 44.8257
16318 1 18.1519 54.3087 43.5992
16271 1 20.876 55.9239 43.5688
21932 2 19.9792 54.3375 44.8602
16327 1 11.8167 39.9967 48.9238
16345 1 13.6287 39.9448 46.3701
21986 2 12.7245 38.3693 47.6661
16343 1 14.5459 38.3949 48.9454
16290 1 17.273 39.9967 48.9238
16344 1 16.358 38.3456 46.3907
21942 2 15.4516 39.9695 47.6449
21952 2 18.1808 38.3693 47.6661
16289 1 20.0022 38.3949 48.9454
16293 1 19.0849 39.9448 46.3701
21894 2 20.9078 39.9695 47.6449
13564 1 21.8143 38.3456 46.3907
16326 1 11.8145 43.2031 48.8778
16331 1 13.626 43.1456 46.3265
21987 2 12.7223 41.5705 47.6228
16325 1 14.5437 41.5994 48.9013
16282 1 17.2707 43.2031 48.8778
16346 1 16.3555 41.5448 46.3488
21941 2 15.4493 43.1722 47.5998
21940 2 18.1786 41.5705 47.6228
16291 1 20 41.5994 48.9013
16292 1 19.0823 43.1456 46.3265
21893 2 20.9055 43.1722 47.5998
13552 1 21.8117 41.5448 46.3488
16312 1 11.812 46.4143 48.8273
16330 1 13.623 46.3507 46.2792
21972 2 12.72 44.775 47.5756
16328 1 14.5414 44.808 48.8532
16281 1 17.2682 46.4143 48.8273
16329 1 16.3527 44.7475 46.3034
21927 2 15.4469 46.3788 47.5504
21943 2 18.1762 44.775 47.5756
16280 1 19.9976 44.808 48.8532
16285 1 19.0793 46.3507 46.2792
21892 2 20.9031 46.3788 47.5504
13553 1 21.8089 44.7475 46.3034
16311 1 11.8092 49.6322 48.7716
16316 1 13.6196 49.5623 46.2275
21973 2 12.7175 47.9841 47.5239
16310 1 14.5388 48.0223 48.8002
16267 1 17.2654 49.6322 48.7716
16332 1 16.3495 47.9556 46.254
21926 2 15.4442 49.5909 47.4959
21925 2 18.1737 47.9841 47.5239
16283 1 19.995 48.0223 48.8002
16284 1 19.0759 49.5623 46.2275
21885 2 20.9004 49.5909 47.4959
13544 1 21.8058 47.9556 46.254
16304 1 11.8059 52.859 48.7089
16315 1 13.6154 52.7835 46.1697
21964 2 12.7146 51.1996 47.4663
16313 1 14.5358 51.2444 48.7412
16266 1 17.2621 52.859 48.7089
16314 1 16.3458 51.1715 46.1995
21913 2 15.441 52.8106 47.4347
21928 2 18.1708 51.1996 47.4663
16265 1 19.992 51.2444 48.7412
16270 1 19.0716 52.7835 46.1697
21884 2 20.8973 52.8106 47.4347
13545 1 21.802 51.1715 46.1995
16303 1 11.8014 56.0967 48.6369
16305 1 13.6098 56.0183 46.1029
21965 2 12.7109 54.4242 47.4008
16302 1 14.532 54.4764 48.6742
16252 1 17.2577 56.0967 48.6369
16317 1 16.3409 54.3989 46.1377
21912 2 15.4364 56.0411 47.3644
21911 2 18.1671 54.4242 47.4008
16268 1 19.9882 54.4764 48.6742
16269 1 19.066 56.0183 46.1029
21873 2 20.8926 56.0411 47.3644
13543 1 21.7972 54.3989 46.1377
16323 1 12.7348 38.443 51.4982
21938 2 13.64 40.0205 50.1977
21985 2 10.9128 38.4179 50.2199
16278 1 15.4621 40.047 51.4755
21937 2 16.3691 38.4179 50.2199
16236 1 20.9183 40.047 51.4755
16288 1 18.1911 38.443 51.4982
21891 2 19.0963 40.0205 50.1977
16324 1 12.7331 41.652 51.4518
21923 2 13.6381 43.2283 50.1502
16277 1 15.4602 43.2579 51.4269
21939 2 16.3672 41.624 50.1745
16235 1 20.9165 43.2579 51.4269
16276 1 18.1893 41.652 51.4518
21890 2 19.0943 43.2283 50.1502
19150 2 21.8234 41.624 50.1745
16308 1 12.7312 44.8651 51.4008
21922 2 13.636 46.4403 50.098
16263 1 15.4583 46.4737 51.3734
21921 2 16.3652 44.8337 50.1248
16279 1 18.1874 44.8651 51.4008
19151 2 21.8214 44.8337 50.1248
16234 1 20.9145 46.4737 51.3734
21883 2 19.0922 46.4403 50.098
16309 1 12.7291 48.0838 51.3446
21909 2 13.6336 49.6581 50.0403
21904 2 11.8237 49.7192 52.5841
16262 1 15.4561 49.6955 51.3142
21924 2 16.363 48.0484 50.0699
16261 1 18.1853 48.0838 51.3446
21869 2 17.28 49.7192 52.5841
19142 2 21.8192 48.0484 50.0699
16228 1 20.9123 49.6955 51.3142
21882 2 19.0898 49.6581 50.0403
21899 2 11.8206 52.9466 52.5178
16300 1 12.7266 51.3092 51.2822
21908 2 13.6305 52.8832 49.9759
21906 2 14.5504 51.3321 52.5517
21868 2 17.2768 52.9466 52.5178
16251 1 15.4532 52.9248 51.2483
21907 2 16.3603 51.2696 50.009
16264 1 18.1829 51.3092 51.2822
19143 2 21.8165 51.2696 50.009
21867 2 20.0067 51.3321 52.5517
16227 1 20.9094 52.9248 51.2483
21872 2 19.0867 52.8832 49.9759
21897 2 14.5465 54.5629 52.4825
21898 2 11.8156 56.1806 52.4459
16301 1 12.7232 54.5423 51.2124
21900 2 13.6256 56.1174 49.9038
21862 2 17.2719 56.1806 52.4459
16250 1 15.4489 56.1616 51.1747
21910 2 16.3565 54.4991 49.9409
16249 1 18.1794 54.5423 51.2124
21870 2 20.0028 54.5629 52.4825
19141 2 21.8127 54.4991 49.9409
16220 1 20.9051 56.1616 51.1747
21871 2 19.0818 56.1174 49.9038
16274 1 13.6519 40.0956 54.0258
16322 1 10.9245 38.4897 54.0495
21915 2 12.748 38.5113 55.3233
21919 2 11.8293 40.07 52.7489
16273 1 16.3807 38.4897 54.0495
21876 2 15.4755 40.1176 55.2991
21888 2 17.2856 40.07 52.7489
21936 2 14.5582 38.4653 52.7721
16233 1 19.1081 40.0956 54.0258
21858 2 20.9317 40.1176 55.2991
21886 2 18.2042 38.5113 55.3233
21887 2 20.0145 38.4653 52.7721
16259 1 13.6505 43.31 53.9749
16306 1 10.9231 41.7023 54.001
21916 2 12.7467 41.7247 55.2738
21918 2 11.8277 43.2818 52.6991
16275 1 16.3793 41.7023 54.001
21875 2 15.4741 43.3327 55.2472
21880 2 17.284 43.2818 52.6991
21917 2 14.5567 41.6754 52.7246
16232 1 19.1067 43.31 53.9749
21857 2 20.9304 43.3327 55.2472
21874 2 18.203 41.7247 55.2738
21889 2 20.0129 41.6754 52.7246
16258 1 13.6489 46.5287 53.9188
16307 1 10.9216 44.9188 53.9475
21901 2 12.7453 44.9415 55.2194
21905 2 11.8259 46.4979 52.6443
16257 1 16.3778 44.9188 53.9475
21865 2 15.4726 46.5514 55.1904
21879 2 17.2822 46.4979 52.6443
21920 2 14.555 44.8893 52.6724
16226 1 19.1052 46.5287 53.9188
21856 2 20.9288 46.5514 55.1904
21877 2 18.2015 44.9415 55.2194
21878 2 20.0112 44.8893 52.6724
16247 1 13.647 49.7526 53.8571
16298 1 10.9199 48.14 53.8887
21902 2 12.7435 48.1623 55.16
16260 1 16.3761 48.14 53.8887
21864 2 15.4704 49.7744 55.1284
21903 2 14.553 48.1078 52.6149
16225 1 19.1032 49.7526 53.8571
21855 2 20.9267 49.7744 55.1284
21863 2 18.1997 48.1623 55.16
21881 2 20.0093 48.1078 52.6149
21895 2 12.7409 51.3876 55.0956
16299 1 10.9176 51.3665 53.8241
16246 1 13.6442 52.9819 53.7897
21861 2 15.4673 53.002 55.0616
16245 1 16.3739 51.3665 53.8241
21866 2 18.1971 51.3876 55.0956
21854 2 20.9235 53.002 55.0616
16219 1 19.1005 52.9819 53.7897
21896 2 12.737 54.6174 55.0267
16297 1 10.9141 54.5984 53.7539
16240 1 13.6397 56.216 53.7171
21860 2 15.4624 56.2337 54.9912
16248 1 16.3704 54.5984 53.7539
21859 2 18.1932 54.6174 55.0267
21853 2 20.9187 56.2337 54.9912
16218 1 19.096 56.216 53.7171
16571 1 12.7612 38.5788 59.1503
22205 2 13.6657 40.1636 57.8488
22212 2 10.9381 38.556 57.8738
16255 1 11.8422 40.1423 56.5755
16558 1 15.4889 40.1872 59.1249
22204 2 16.3944 38.556 57.8738
16230 1 17.2984 40.1423 56.5755
16272 1 14.5708 38.535 56.6001
16512 1 20.9452 40.1872 59.1249
16560 1 18.2175 38.5788 59.1503
22170 2 19.122 40.1636 57.8488
16229 1 20.0271 38.535 56.6001
16572 1 12.7603 41.7962 59.0983
22201 2 13.6646 43.3809 57.7953
22210 2 10.9371 41.7719 57.8226
16254 1 11.8411 43.3592 56.5225
16557 1 15.4879 43.4058 59.0704
22206 2 16.3933 41.7719 57.8226
16223 1 17.2973 43.3592 56.5225
16253 1 14.5698 41.7503 56.5496
16511 1 20.9442 43.4058 59.0704
16556 1 18.2166 41.7962 59.0983
22169 2 19.1208 43.3809 57.7953
16231 1 20.026 41.7503 56.5496
16568 1 12.7592 45.0161 59.0414
22200 2 13.6631 46.6011 57.7369
22211 2 10.9358 44.9906 57.7667
16243 1 11.8397 46.5797 56.4644
16550 1 15.4867 46.6271 59.0111
22199 2 16.392 44.9906 57.7667
16222 1 17.2959 46.5797 56.4644
16256 1 14.5685 44.969 56.4941
16510 1 20.9429 46.6271 59.0111
16559 1 18.2155 45.0161 59.0414
22164 2 19.1193 46.6011 57.7369
16221 1 20.0248 44.969 56.4941
16569 1 12.7577 48.2386 58.9798
22190 2 13.661 49.8245 57.6741
22208 2 10.934 48.2124 57.706
16242 1 11.8379 49.804 56.4014
16549 1 15.4848 49.8508 58.9475
22202 2 16.3902 48.2124 57.706
16216 1 17.2941 49.804 56.4014
16241 1 14.567 48.1913 56.4335
16503 1 20.941 49.8508 58.9475
16548 1 18.2139 48.2386 58.9798
22163 2 19.1172 49.8245 57.6741
16224 1 20.0232 48.1913 56.4335
16564 1 12.7554 51.4636 58.9143
22189 2 13.6578 53.0509 57.6075
22209 2 10.9314 51.4374 57.6412
16239 1 11.835 53.0319 56.3337
16536 1 15.4819 53.0768 58.8805
22188 2 16.3877 51.4374 57.6412
16215 1 17.2913 53.0319 56.3337
16244 1 14.5647 51.4175 56.368
16502 1 20.9381 53.0768 58.8805
16551 1 18.2116 51.4636 58.9143
22150 2 19.1141 53.0509 57.6075
16214 1 20.021 51.4175 56.368
16565 1 12.7518 54.6902 58.8464
22179 2 13.6532 56.2795 57.5391
22207 2 10.9276 54.665 57.5734
16238 1 11.8305 56.2626 56.2633
16535 1 15.4775 56.3039 58.8123
22191 2 16.3838 54.665 57.5734
16213 1 17.2868 56.2626 56.2633
16237 1 14.5611 54.647 56.2987
16487 1 20.9337 56.3039 58.8123
16534 1 18.208 54.6902 58.8464
22149 2 19.1094 56.2795 57.5391
16217 1 20.0174 54.647 56.2987
16554 1 13.6795 40.2307 61.6748
16570 1 10.9517 38.6214 61.7007
22197 2 11.8562 40.2081 60.3985
16553 1 16.408 38.6214 61.7007
22167 2 17.3124 40.2081 60.3985
22203 2 14.5847 38.5993 60.4241
16509 1 19.1357 40.2307 61.6748
22166 2 20.041 38.5993 60.4241
16546 1 13.6785 43.4504 61.6192
16566 1 10.9509 41.8403 61.6476
22196 2 11.8551 43.4269 60.3438
16555 1 16.4071 41.8403 61.6476
22161 2 17.3113 43.4269 60.3438
22195 2 14.5838 41.8173 60.3717
16508 1 19.1348 43.4504 61.6192
22168 2 20.04 41.8173 60.3717
16545 1 13.6772 46.6717 61.5593
16567 1 10.9498 45.0609 61.5898
22186 2 11.8536 46.6479 60.2845
16544 1 16.406 45.0609 61.5898
22160 2 17.3098 46.6479 60.2845
22198 2 14.5825 45.0371 60.3147
16501 1 19.1334 46.6717 61.5593
22159 2 20.0388 45.0371 60.3147
16532 1 13.6752 49.8944 61.4956
16562 1 10.9482 48.2829 61.5278
22185 2 11.8515 49.8707 60.2214
16547 1 16.4044 48.2829 61.5278
22147 2 17.3077 49.8707 60.2214
22184 2 14.5807 48.2591 60.2534
16500 1 19.1315 49.8944 61.4956
22162 2 20.037 48.2591 60.2534
16531 1 13.6723 53.118 61.4297
16563 1 10.9458 51.5061 61.4628
22178 2 11.8483 53.0952 60.1557
16530 1 16.402 51.5061 61.4628
22146 2 17.3046 53.0952 60.1557
22187 2 14.5782 51.4828 60.1888
16486 1 19.1285 53.118 61.4297
22145 2 20.0344 51.4828 60.1888
16521 1 13.6682 56.3416 61.3635
16561 1 10.9423 54.7298 61.3965
22177 2 11.844 56.3204 60.0893
16533 1 16.3985 54.7298 61.3965
22129 2 17.3003 56.3204 60.0893
22176 2 14.5745 54.7078 60.1224
16485 1 19.1244 56.3416 61.3635
22148 2 20.0307 54.7078 60.1224
16542 1 11.8699 40.273 64.2255
22153 2 13.6933 40.2937 65.4985
22192 2 10.9657 38.6834 65.5248
22193 2 12.7752 38.6417 62.9745
16506 1 17.3261 40.273 64.2255
16552 1 14.5984 38.6631 64.2518
22152 2 16.4219 38.6834 65.5248
22157 2 15.5029 40.2513 62.9484
16505 1 20.0547 38.6631 64.2518
22101 2 19.1496 40.2937 65.4985
22104 2 20.9591 40.2513 62.9484
22165 2 18.2315 38.6417 62.9745
16541 1 11.8689 43.4935 64.1694
22139 2 13.6921 43.5146 65.4427
22180 2 10.9646 41.9041 65.4711
22194 2 12.7742 41.8611 62.9212
16498 1 17.3251 43.4935 64.1694
16540 1 14.5976 41.8832 64.198
22154 2 16.4209 41.9041 65.4711
22156 2 15.5018 43.4713 62.8929
16507 1 20.0538 41.8832 64.198
22100 2 19.1484 43.5146 65.4427
22103 2 20.958 43.4713 62.8929
22155 2 18.2305 41.8611 62.9212
16528 1 11.8675 46.7146 64.1092
22138 2 13.6905 46.7356 65.383
22181 2 10.9633 45.1251 65.4133
22182 2 12.7729 45.0817 62.8636
16497 1 17.3237 46.7146 64.1092
16543 1 14.5964 45.104 64.1398
22137 2 16.4195 45.1251 65.4133
22143 2 15.5002 46.6924 62.8333
16496 1 20.0526 45.104 64.1398
22093 2 19.1467 46.7356 65.383
22102 2 20.9565 46.6924 62.8333
22158 2 18.2292 45.0817 62.8636
16527 1 11.8654 49.936 64.046
22124 2 13.6882 49.9564 65.3206
22172 2 10.9613 48.3461 65.3521
22183 2 12.7711 48.3032 62.8022
16483 1 17.3217 49.936 64.046
16526 1 14.5947 48.3253 64.0779
22140 2 16.4176 48.3461 65.3521
22142 2 15.4981 49.9143 62.7704
16499 1 20.0509 48.3253 64.0779
22092 2 19.1445 49.9564 65.3206
22095 2 20.9543 49.9143 62.7704
22141 2 18.2274 48.3032 62.8022
16520 1 11.8625 53.1571 63.9812
22123 2 13.6852 53.1764 65.257
22173 2 10.9587 51.5665 65.2888
22174 2 12.7685 51.5254 62.7381
16482 1 17.3187 53.1571 63.9812
16529 1 14.5922 51.5466 64.0137
22122 2 16.4149 51.5665 65.2888
22128 2 15.495 53.1365 62.7056
16481 1 20.0484 51.5466 64.0137
22078 2 19.1415 53.1764 65.257
22094 2 20.9512 53.1365 62.7056
22144 2 18.2248 51.5254 62.7381
16519 1 11.8586 56.3774 63.9169
22113 2 13.6814 56.395 65.1942
22171 2 10.9553 54.7859 65.2254
22175 2 12.765 54.7475 62.6732
16466 1 17.3148 56.3774 63.9169
16518 1 14.5888 54.7674 63.9489
22125 2 16.4115 54.7859 65.2254
22127 2 15.4909 56.3584 62.6411
16484 1 20.045 54.7674 63.9489
22077 2 19.1376 56.395 65.1942
22079 2 20.9472 56.3584 62.6411
22126 2 18.2212 54.7475 62.6732
16538 1 12.7886 38.7045 66.8046
22135 2 11.8836 40.3358 68.048
16494 1 15.5163 40.3149 66.7782
22098 2 17.3399 40.3358 68.048
22151 2 14.6123 38.7247 68.0744
16446 1 20.9725 40.3149 66.7782
16504 1 18.2449 38.7045 66.8046
22097 2 20.0686 38.7247 68.0744
16539 1 12.7876 41.9255 66.7505
22134 2 11.8823 43.5577 67.9922
16493 1 15.5152 43.536 66.7219
22090 2 17.3385 43.5577 67.9922
22133 2 14.6111 41.9468 68.0206
16445 1 20.9714 43.536 66.7219
16492 1 18.2439 41.9255 66.7505
22099 2 20.0674 41.9468 68.0206
16524 1 12.7863 45.1464 66.6923
22120 2 11.8805 46.7787 67.9328
16474 1 13.7025 46.7992 69.2203
16523 1 10.9753 45.1892 69.2505
16479 1 15.5136 46.7567 66.6619
22089 2 17.3368 46.7787 67.9328
22136 2 14.6096 45.1683 67.9629
16473 1 16.4315 45.1892 69.2505
16444 1 20.9698 46.7567 66.6619
16495 1 18.2426 45.1464 66.6923
22088 2 20.0658 45.1683 67.9629
16435 1 19.1587 46.7992 69.2203
16525 1 12.7845 48.3669 66.6308
22119 2 11.8781 49.9984 67.8711
16461 1 13.7002 50.018 69.1583
16514 1 10.9733 48.4088 69.1895
16478 1 15.5114 49.9768 66.5992
22075 2 17.3344 49.9984 67.8711
22118 2 14.6075 48.3887 67.9021
16476 1 16.4295 48.4088 69.1895
16437 1 20.9677 49.9768 66.5992
16477 1 18.2407 48.3669 66.6308
22091 2 20.0638 48.3887 67.9021
16434 1 19.1565 50.018 69.1583
16516 1 12.7819 51.5864 66.5674
22112 2 11.8751 53.2163 67.8086
16460 1 13.6974 53.2346 69.0959
16515 1 10.9707 51.6267 69.127
16465 1 15.5085 53.1956 66.5356
22074 2 17.3314 53.2163 67.8086
22121 2 14.6048 51.6076 67.8398
16459 1 16.427 51.6267 69.127
16436 1 20.9648 53.1956 66.5356
16480 1 18.2382 51.5864 66.5674
22073 2 20.0611 51.6076 67.8398
16424 1 19.1536 53.2346 69.0959
16517 1 12.7787 54.8043 66.5041
22111 2 11.8715 56.4319 67.7474
16452 1 13.6939 56.4486 69.0349
16513 1 10.9676 54.8419 69.0652
16464 1 15.5048 56.4126 66.4731
22060 2 17.3277 56.4319 67.7474
22110 2 14.6015 54.8244 67.7777
16462 1 16.4239 54.8419 69.0652
16425 1 20.9611 56.4126 66.4731
16463 1 18.2349 54.8043 66.5041
22076 2 20.0577 54.8244 67.7777
16423 1 19.1502 56.4486 69.0349
16471 1 11.8898 40.3988 71.9113
16490 1 13.7055 40.3571 69.3361
16537 1 10.9779 38.7459 69.3625
22131 2 12.8025 38.7653 70.62
16440 1 17.346 40.3988 71.9113
16488 1 14.6185 38.7869 71.9378
16489 1 16.4342 38.7459 69.3625
22086 2 15.53 40.3773 70.5937
16439 1 20.0747 38.7869 71.9378
16443 1 19.1617 40.3571 69.3361
22044 2 20.9863 40.3773 70.5937
22096 2 18.2588 38.7653 70.62
16470 1 11.8884 43.6214 71.8555
16475 1 13.7042 43.5788 69.28
16522 1 10.9768 41.9681 69.3085
22132 2 12.8012 41.989 70.5663
16432 1 17.3447 43.6214 71.8555
16469 1 14.6172 42.0103 71.8839
16491 1 16.433 41.9681 69.3085
22085 2 15.5285 43.6004 70.538
16441 1 20.0735 42.0103 71.8839
16442 1 19.1604 43.5788 69.28
22043 2 20.9848 43.6004 70.538
22084 2 18.2574 41.989 70.5663
16457 1 11.8868 46.8418 71.7962
22116 2 12.7995 45.2114 70.5088
16431 1 17.343 46.8418 71.7962
16472 1 14.6158 45.2319 71.8262
22071 2 15.5266 46.8218 70.479
16430 1 20.072 45.2319 71.8262
22042 2 20.9829 46.8218 70.479
22087 2 18.2558 45.2114 70.5088
16456 1 11.8848 50.0594 71.7339
22117 2 12.7974 48.4316 70.4486
16421 1 17.341 50.0594 71.7339
16455 1 14.614 48.451 71.7654
22070 2 15.5241 50.0408 70.4179
16433 1 20.0702 48.451 71.7654
22036 2 20.9804 50.0408 70.4179
22069 2 18.2536 48.4316 70.4486
16451 1 11.8821 53.2737 71.673
22108 2 12.7946 51.6493 70.387
16420 1 17.3384 53.2737 71.673
16458 1 14.6116 51.667 71.7035
22059 2 15.5212 53.2569 70.3564
16419 1 20.0679 51.667 71.7035
22035 2 20.9774 53.2569 70.3564
22072 2 18.2508 51.6493 70.387
16450 1 11.879 56.4847 71.6133
22109 2 12.7914 54.8637 70.326
16414 1 17.3352 56.4847 71.6133
16449 1 14.6087 54.8796 71.6429
22058 2 15.5176 56.4696 70.2962
16422 1 20.065 54.8796 71.6429
22028 2 20.9739 56.4696 70.2962
22057 2 18.2476 54.8637 70.326
16467 1 12.7449 38.832 74.5898
22063 2 11.8797 40.4597 75.6017
22082 2 13.7183 40.4185 73.1257
22130 2 10.9909 38.8054 73.1519
16428 1 15.473 40.4436 74.5637
22038 2 17.3359 40.4597 75.6017
22080 2 14.6083 38.8463 75.6275
22081 2 16.4471 38.8054 73.1519
16410 1 20.9292 40.4436 74.5637
16438 1 18.2011 38.832 74.5898
22037 2 20.0645 38.8463 75.6275
22041 2 19.1745 40.4185 73.1257
16468 1 12.7449 42.0547 74.5365
22062 2 11.8786 43.6845 75.5475
22067 2 13.7167 43.6433 73.0706
22114 2 10.9894 42.0311 73.0986
16427 1 15.4731 43.6652 74.5085
22031 2 17.3349 43.6845 75.5475
22061 2 14.6073 42.0724 75.575
22083 2 16.4457 42.0311 73.0986
16409 1 20.9293 43.6652 74.5085
16426 1 18.2011 42.0547 74.5365
22039 2 20.0635 42.0724 75.575
22040 2 19.173 43.6433 73.0706
16453 1 12.7452 45.2752 74.4797
22051 2 11.8774 46.9061 75.4909
22066 2 13.7148 46.8654 73.0124
22115 2 10.9877 45.2547 73.0418
16417 1 15.4735 46.8843 74.4504
22030 2 17.3337 46.9061 75.4909
22064 2 14.6062 45.2957 75.5195
22065 2 16.4439 45.2547 73.0418
16408 1 20.9297 46.8843 74.4504
16429 1 18.2014 45.2752 74.4797
22029 2 20.0624 45.2957 75.5195
22034 2 19.171 46.8654 73.0124
16454 1 12.7457 48.4928 74.4206
22050 2 11.876 50.1236 75.4335
22055 2 13.7121 50.0841 72.9524
22106 2 10.9855 48.4754 72.9825
16416 1 15.4743 50.0999 74.3904
22024 2 17.3322 50.1236 75.4335
22049 2 14.6049 48.5154 75.4622
22068 2 16.4417 48.4754 72.9825
16407 1 20.9306 50.0999 74.3904
16415 1 18.202 48.4928 74.4206
22032 2 20.0611 48.5154 75.4622
22033 2 19.1684 50.0841 72.9524
16447 1 12.7463 51.706 74.3602
22047 2 11.8743 53.3365 75.3741
22054 2 13.7093 53.2985 72.8918
22107 2 10.9827 51.6918 72.9221
16413 1 15.4747 53.3115 74.3298
22023 2 17.3305 53.3365 75.3741
22052 2 14.6033 51.7307 75.4037
22053 2 16.4389 51.6918 72.9221
16406 1 20.9309 53.3115 74.3298
16418 1 18.2026 51.706 74.3602
22022 2 20.0595 51.7307 75.4037
22027 2 19.1656 53.2985 72.8918
16448 1 12.7468 54.916 74.2997
22046 2 11.8723 56.5442 75.3163
22048 2 13.7059 56.5086 72.8326
22105 2 10.9795 54.9042 72.8619
16412 1 15.4751 56.5196 74.2703
22021 2 17.3285 56.5442 75.3163
22045 2 14.6014 54.941 75.3449
22056 2 16.4358 54.9042 72.8619
16405 1 20.9313 56.5196 74.2703
16411 1 18.203 54.916 74.2997
22025 2 20.0577 54.941 75.3449
22026 2 19.1621 56.5086 72.8326
10809 2 11.8396 58.0807 -1.46014
10817 2 13.6655 58.0566 -3.95682
4416 1 12.7736 59.6611 -2.92152
10822 2 10.9391 59.6419 -3.97549
4402 1 15.4987 58.0769 -2.90239
10779 2 17.2958 58.0807 -1.46014
10807 2 14.5687 59.6644 -1.47934
10818 2 16.3954 59.6419 -3.97549
4356 1 20.955 58.0769 -2.90239
10782 2 19.1217 58.0566 -3.95682
4400 1 18.2299 59.6611 -2.92152
10780 2 20.025 59.6644 -1.47934
10808 2 11.8416 61.249 -1.49718
10813 2 13.6689 61.2283 -3.99285
4412 1 12.7791 62.8316 -2.95558
10823 2 10.9424 62.8156 -4.00876
4401 1 15.5046 61.246 -2.93929
10773 2 17.2979 61.249 -1.49718
10810 2 14.5707 62.8345 -1.51355
10811 2 16.3986 62.8156 -4.00876
4355 1 20.9608 61.246 -2.93929
10781 2 19.1252 61.2283 -3.99285
4403 1 18.2354 62.8316 -2.95558
10771 2 20.027 62.8345 -1.51355
10798 2 11.8435 64.4207 -1.5283
10812 2 13.672 64.4037 -4.02312
4413 1 12.7837 66.0047 -2.98322
10820 2 10.9452 65.9925 -4.0358
4394 1 15.5097 64.4179 -2.97026
10772 2 17.2998 64.4207 -1.5283
10796 2 14.5725 66.0077 -1.54134
10814 2 16.4014 65.9925 -4.0358
4354 1 20.9659 64.4179 -2.97026
10776 2 19.1282 64.4037 -4.02312
4392 1 18.24 66.0047 -2.98322
10774 2 20.0287 66.0077 -1.54134
10797 2 11.8451 67.5953 -1.55254
10802 2 13.6745 67.582 -4.0467
4408 1 12.7872 69.1796 -3.0036
10821 2 10.9473 69.172 -4.05575
4393 1 15.5137 67.592 -2.99436
10759 2 17.3014 67.5953 -1.55254
10799 2 14.5739 69.1835 -1.56184
10800 2 16.4036 69.172 -4.05575
4347 1 20.97 67.592 -2.99436
10775 2 19.1307 67.582 -4.0467
4395 1 18.2434 69.1796 -3.0036
10757 2 20.0301 69.1835 -1.56184
10790 2 11.8463 70.7721 -1.56915
10801 2 13.6762 70.7625 -4.06287
4409 1 12.7894 72.3559 -3.01609
10819 2 10.9487 72.3534 -4.06799
4380 1 15.5166 70.7676 -3.01086
10758 2 17.3025 70.7721 -1.56915
10788 2 14.5748 72.3611 -1.57441
10803 2 16.4049 72.3534 -4.06799
4346 1 20.9728 70.7676 -3.01086
10762 2 19.1325 70.7625 -4.06287
4378 1 18.2456 72.3559 -3.01609
10760 2 20.031 72.3611 -1.57441
10789 2 11.8469 73.9503 -1.57758
10791 2 13.6772 73.9445 -4.07108
4799 1 12.7901 75.5328 -3.02029
11232 2 10.9492 75.5357 -4.07212
4379 1 15.518 73.9443 -3.01924
10741 2 17.3031 73.9503 -1.57758
11223 2 14.5751 75.5396 -1.57864
11224 2 16.4054 75.5357 -4.07212
4331 1 20.9743 73.9443 -3.01924
10761 2 19.1334 73.9445 -4.07108
4788 1 18.2463 75.5328 -3.02029
11186 2 20.0313 75.5396 -1.57864
4386 1 11.8433 58.123 2.35003
4398 1 13.6618 58.0974 -0.240577
4410 1 10.935 59.6801 -0.259899
10806 2 12.7521 59.6905 1.06838
4350 1 17.2995 58.123 2.35003
10769 2 15.4791 58.1085 1.08796
4384 1 14.5726 59.704 2.33022
4399 1 16.3912 59.6801 -0.259899
4353 1 19.118 58.0974 -0.240577
10716 2 20.9353 58.1085 1.08796
4351 1 20.0289 59.704 2.33022
10767 2 18.2083 59.6905 1.06838
4385 1 11.8457 61.2857 2.3118
4390 1 13.6644 61.2635 -0.277857
4411 1 10.9374 62.8477 -0.294315
10794 2 12.7543 62.8566 1.03347
4342 1 17.302 61.2857 2.3118
10768 2 15.4813 61.2732 1.05017
4387 1 14.575 62.868 2.29491
4388 1 16.3937 62.8477 -0.294315
4352 1 19.1206 61.2635 -0.277857
10715 2 20.9376 61.2732 1.05017
4340 1 20.0312 62.868 2.29491
10770 2 18.2105 62.8566 1.03347
4372 1 11.8479 64.4509 2.27968
4389 1 13.6666 64.4325 -0.309148
4406 1 10.9395 66.0179 -0.322244
10795 2 12.7561 66.0254 1.0051
4341 1 17.3042 64.4509 2.27968
10755 2 15.4834 64.4407 1.01841
4370 1 14.577 66.0343 2.26623
4391 1 16.3958 66.0179 -0.322244
4345 1 19.1229 64.4325 -0.309148
10714 2 20.9396 64.4407 1.01841
4343 1 20.0333 66.0343 2.26623
10753 2 18.2124 66.0254 1.0051
4371 1 11.8498 67.6182 2.25467
4376 1 13.6685 67.6039 -0.333501
4407 1 10.9412 69.1903 -0.342833
10786 2 12.7576 69.1963 0.984173
4327 1 17.306 67.6182 2.25467
10754 2 15.4851 67.6106 0.993662
4373 1 14.5786 69.2025 2.24508
4374 1 16.3974 69.1903 -0.342833
4344 1 19.1248 67.6039 -0.333501
10707 2 20.9413 67.6106 0.993662
4325 1 20.0349 69.2025 2.24508
10756 2 18.2139 69.1963 0.984173
4364 1 11.8511 70.7871 2.23755
4375 1 13.6699 70.777 -0.350168
4405 1 10.9422 72.364 -0.355448
10787 2 12.7586 72.3687 0.971339
4326 1 17.3074 70.7871 2.23755
10740 2 15.4863 70.7823 0.976712
4362 1 14.5797 72.3719 2.23212
4377 1 16.3985 72.364 -0.355448
4330 1 19.1261 70.777 -0.350168
10706 2 20.9425 70.7823 0.976712
4328 1 20.0359 72.3719 2.23212
10738 2 18.2148 72.3687 0.971339
4363 1 11.8518 73.9569 2.22885
4365 1 13.6706 73.9512 -0.358632
4798 1 10.9426 75.5386 -0.359697
11213 2 12.7589 75.5419 0.967015
4309 1 17.3081 73.9569 2.22885
10739 2 15.4869 73.9552 0.968099
4780 1 14.58 75.542 2.22775
4781 1 16.3988 75.5386 -0.359697
4329 1 19.1268 73.9512 -0.358632
10691 2 20.9432 73.9552 0.968099
4733 1 20.0363 75.542 2.22775
11185 2 18.2151 75.5419 0.967015
10765 2 13.6623 58.1349 3.64971
4383 1 12.7556 59.7273 4.90528
10792 2 10.9355 59.7152 3.62971
4338 1 15.4823 58.1479 4.92562
10766 2 16.3918 59.7152 3.62971
4284 1 20.9385 58.1479 4.92562
10713 2 19.1186 58.1349 3.64971
4336 1 18.2118 59.7273 4.90528
10751 2 13.6649 61.2961 3.6111
4368 1 12.7582 62.8879 4.86898
10793 2 10.938 62.8776 3.59402
4337 1 15.485 61.3074 4.88635
10749 2 16.3942 62.8776 3.59402
4283 1 20.9413 61.3074 4.88635
10712 2 19.1211 61.2961 3.6111
4339 1 18.2144 62.8879 4.86898
10750 2 13.6672 64.4597 3.57862
4369 1 12.7605 66.0506 4.83948
10784 2 10.9401 66.0423 3.56501
4323 1 15.4875 64.469 4.85332
10752 2 16.3963 66.0423 3.56501
4282 1 20.9437 64.469 4.85332
10705 2 19.1234 64.4597 3.57862
4321 1 18.2167 66.0506 4.83948
10736 2 13.6691 67.6254 3.5533
4360 1 12.7622 69.2149 4.81771
10785 2 10.9418 69.2089 3.54359
4322 1 15.4895 67.6326 4.82758
10734 2 16.398 69.2089 3.54359
4275 1 20.9458 67.6326 4.82758
10704 2 19.1253 67.6254 3.5533
4324 1 18.2185 69.2149 4.81771
10735 2 13.6705 70.7927 3.53596
4361 1 12.7634 72.3803 4.80436
10783 2 10.9428 72.3767 3.53046
4308 1 15.491 70.7975 4.80995
10737 2 16.3991 72.3767 3.53046
4274 1 20.9473 70.7975 4.80995
10690 2 19.1267 70.7927 3.53596
4306 1 18.2196 72.3803 4.80436
10725 2 13.6712 73.9609 3.52714
4766 1 12.7638 75.5463 4.79986
11212 2 10.9432 75.5451 3.52603
4307 1 15.4918 73.9633 4.80099
11172 2 16.3994 75.5451 3.52603
4260 1 20.9481 73.9633 4.80099
10689 2 19.1275 73.9609 3.52714
4732 1 18.2201 75.5463 4.79986
4334 1 13.665 58.1725 7.49591
10747 2 11.8453 58.1602 6.21563
4366 1 10.9384 59.7504 7.47492
10744 2 12.7578 59.7614 8.76212
10698 2 15.4843 58.1842 8.78333
10710 2 17.3015 58.1602 6.21563
4335 1 16.3946 59.7504 7.47492
10745 2 14.5749 59.7389 6.19508
4281 1 19.1212 58.1725 7.49591
10656 2 20.9406 58.1842 8.78333
10696 2 18.2141 59.7614 8.76212
10711 2 20.0311 59.7389 6.19508
4319 1 13.668 61.3289 7.45537
10746 2 11.8481 61.3181 6.17596
4367 1 10.9412 62.9078 7.43743
10728 2 12.7609 62.9172 8.72424
10697 2 15.4875 61.3391 8.74237
10702 2 17.3044 61.3181 6.17596
4317 1 16.3975 62.9078 7.43743
10748 2 14.5776 62.8979 6.15841
4280 1 19.1242 61.3289 7.45537
10655 2 20.9438 61.3391 8.74237
10699 2 18.2171 62.9172 8.72424
10700 2 20.0338 62.8979 6.15841
4318 1 13.6706 64.4872 7.42126
10732 2 11.8507 64.4782 6.14258
4358 1 10.9437 66.067 7.40697
10729 2 12.7635 66.0747 8.69345
10683 2 15.4904 64.4957 8.70789
10701 2 17.3069 64.4782 6.14258
4320 1 16.3999 66.067 7.40697
10730 2 14.5799 66.0589 6.1286
4273 1 19.1269 64.4872 7.42126
10654 2 20.9466 64.4957 8.70789
10681 2 18.2198 66.0747 8.69345
10703 2 20.0361 66.0589 6.1286
4304 1 13.6729 67.6472 7.39471
10731 2 11.8528 67.6401 6.11659
4359 1 10.9456 69.2277 7.38456
10720 2 12.7656 69.2336 8.67081
10682 2 15.4928 67.654 8.68106
10687 2 17.309 67.6401 6.11659
4302 1 16.4019 69.2277 7.38456
10733 2 14.5817 69.2215 6.10664
4272 1 19.1291 67.6472 7.39471
10648 2 20.949 67.654 8.68106
10684 2 18.2219 69.2336 8.67081
10685 2 20.0379 69.2215 6.10664
4303 1 13.6745 70.8085 7.37661
10724 2 11.8543 70.8033 6.09885
4357 1 10.9468 72.3894 7.37093
10721 2 12.7669 72.3935 8.6571
10671 2 15.4945 70.8135 8.6628
10686 2 17.3105 70.8033 6.09885
4305 1 16.4031 72.3894 7.37093
10722 2 14.5829 72.3852 6.09326
4259 1 19.1307 70.8085 7.37661
10647 2 20.9507 70.8135 8.6628
10669 2 18.2232 72.3935 8.6571
10688 2 20.0391 72.3852 6.09326
4293 1 13.6752 73.9704 7.36756
10723 2 11.855 73.9673 6.08993
4765 1 10.9472 75.5515 7.36653
11151 2 12.7672 75.5538 8.65278
10670 2 15.4953 73.9736 8.65375
10672 2 17.3112 73.9673 6.08993
4717 1 16.4034 75.5515 7.36653
11171 2 14.5832 75.5495 6.08889
4258 1 19.1315 73.9704 7.36756
10640 2 20.9516 73.9736 8.65375
11116 2 18.2235 75.5538 8.65278
11117 2 20.0394 75.5495 6.08889
4315 1 11.8477 58.1958 10.0651
10694 2 13.6669 58.2078 11.3519
10726 2 10.9407 59.7834 11.3298
4278 1 17.3039 58.1958 10.0651
4313 1 14.5775 59.7723 10.0434
10695 2 16.3969 59.7834 11.3298
10653 2 19.1232 58.2078 11.3519
4279 1 20.0337 59.7723 10.0434
4314 1 11.851 61.3491 10.0231
10679 2 13.6706 61.3594 11.3093
10727 2 10.9443 62.9359 11.2905
4296 1 12.7641 62.9448 12.571
4270 1 17.3073 61.3491 10.0231
4316 1 14.5808 62.9265 10.0045
10677 2 16.4005 62.9359 11.2905
10652 2 19.1269 61.3594 11.3093
4268 1 20.037 62.9265 10.0045
4267 1 18.2204 62.9448 12.571
4300 1 11.8541 64.5042 9.98772
10678 2 13.674 64.5128 11.2735
10718 2 10.9475 66.09 11.2585
4297 1 12.7676 66.0973 12.538
4269 1 17.3104 64.5042 9.98772
4298 1 14.5836 66.0823 9.9729
10680 2 16.4037 66.09 11.2585
4252 1 15.4941 64.5209 12.5535
4250 1 18.2239 66.0973 12.538
10646 2 19.1303 64.5128 11.2735
4271 1 20.0399 66.0823 9.9729
4234 1 20.9503 64.5209 12.5535
4288 1 12.7705 69.2509 12.5139
4299 1 11.8567 67.6607 9.9602
10667 2 13.6769 67.6675 11.2456
10719 2 10.95 69.2453 11.235
4256 1 17.313 67.6607 9.9602
4301 1 14.5859 69.2395 9.9497
10665 2 16.4062 69.2453 11.235
4251 1 15.4973 67.674 12.5248
4253 1 18.2267 69.2509 12.5139
10645 2 19.1332 67.6675 11.2456
4254 1 20.0421 69.2395 9.9497
4231 1 20.9535 67.674 12.5248
4292 1 11.8586 70.8184 9.94151
10666 2 13.679 70.8233 11.2267
4289 1 12.7722 72.4053 12.4994
10717 2 10.9515 72.4014 11.2209
4244 1 15.4996 70.828 12.5054
4255 1 17.3148 70.8184 9.94151
4290 1 14.5873 72.3975 9.9357
10668 2 16.4078 72.4014 11.2209
4230 1 20.9559 70.828 12.5054
10639 2 19.1353 70.8233 11.2267
4257 1 20.0435 72.3975 9.9357
4242 1 18.2285 72.4053 12.4994
4291 1 11.8595 73.9767 9.93231
10660 2 13.68 73.9797 11.2175
11150 2 10.9519 75.5579 11.2166
4695 1 12.7726 75.56 12.4951
4243 1 15.5007 73.9826 12.496
4245 1 17.3157 73.9767 9.93231
4716 1 14.5876 75.5559 9.93137
11101 2 16.4081 75.5579 11.2166
4227 1 20.9569 73.9826 12.496
10638 2 19.1362 73.9797 11.2175
4661 1 20.0438 75.5559 9.93137
4660 1 18.2288 75.56 12.4951
4262 1 13.6687 58.2429 15.2037
10675 2 11.8494 58.2316 13.9209
4312 1 12.7603 59.7939 12.6116
4294 1 10.9429 59.8161 15.1799
4266 1 15.4864 58.219 12.6343
10650 2 17.3056 58.2316 13.9209
4263 1 16.3992 59.8161 15.1799
10673 2 14.5797 59.8056 13.898
4233 1 19.1249 58.2429 15.2037
4236 1 20.9426 58.219 12.6343
4264 1 18.2165 59.7939 12.6116
10651 2 20.0359 59.8056 13.898
4248 1 13.6734 61.3898 15.1577
10674 2 11.8538 61.38 13.8765
4295 1 10.9476 62.9637 15.1373
4265 1 15.4904 61.3691 12.5905
10643 2 17.31 61.38 13.8765
4246 1 16.4039 62.9637 15.1373
10676 2 14.584 62.9548 13.8568
4232 1 19.1297 61.3898 15.1577
4235 1 20.9466 61.3691 12.5905
10641 2 20.0402 62.9548 13.8568
4247 1 13.678 64.538 15.1188
10663 2 11.8579 64.5299 13.839
4286 1 10.9521 66.1126 15.1026
10642 2 17.3142 64.5299 13.839
4249 1 16.4083 66.1126 15.1026
10661 2 14.588 66.1053 13.8233
4229 1 19.1343 64.538 15.1188
10644 2 20.0442 66.1053 13.8233
4240 1 13.6822 67.6875 15.0887
10662 2 11.8616 67.681 13.8099
4287 1 10.9558 69.2625 15.0773
10636 2 17.3178 67.681 13.8099
10664 2 14.5912 69.2569 13.7988
4238 1 16.412 69.2625 15.0773
4228 1 19.1384 67.6875 15.0887
10634 2 20.0474 69.2569 13.7988
10659 2 11.8642 70.833 13.7902
4239 1 13.6853 70.8377 15.0685
4285 1 10.9581 72.413 15.0623
4241 1 16.4143 72.413 15.0623
10657 2 14.5932 72.4092 13.7842
10635 2 17.3205 70.833 13.7902
10637 2 20.0494 72.4092 13.7842
4226 1 19.1415 70.8377 15.0685
10658 2 11.8655 73.9855 13.7808
4237 1 13.6867 73.9883 15.0588
4694 1 10.9585 75.5637 15.058
10633 2 17.3217 73.9855 13.7808
4645 1 16.4148 75.5637 15.058
11100 2 14.5936 75.5618 13.78
4225 1 19.1429 73.9883 15.0588
11057 2 20.0498 75.5618 13.78
11014 2 10.9381 56.7143 19.0879
10998 2 13.6694 58.2844 19.0609
4606 1 11.8506 58.2686 17.7737
11016 2 12.7623 59.8291 16.4664
11002 2 15.4877 58.2568 16.4906
10997 2 16.3943 56.7143 19.0879
4583 1 17.3068 58.2686 17.7737
4604 1 14.5816 59.8401 17.7485
10953 2 19.1256 58.2844 19.0609
10956 2 20.944 58.2568 16.4906
11000 2 18.2185 59.8291 16.4664
4584 1 20.0378 59.8401 17.7485
11010 2 10.9445 59.8548 19.0353
4605 1 11.8564 61.4119 17.7249
10990 2 13.6759 61.4255 19.0112
11012 2 12.7675 62.9747 16.423
11011 2 10.9511 62.9965 18.9891
11001 2 15.493 61.4017 16.4438
10999 2 16.4007 59.8548 19.0353
4579 1 17.3126 61.4119 17.7249
4607 1 14.5874 62.984 17.7033
10988 2 16.4073 62.9965 18.9891
10952 2 19.1321 61.4255 19.0112
10955 2 20.9493 61.4017 16.4438
11003 2 18.2238 62.9747 16.423
4577 1 20.0436 62.984 17.7033
4599 1 11.8622 64.5565 17.6838
10989 2 13.6825 64.5678 18.9693
11013 2 12.7726 66.1215 16.3878
11006 2 10.9576 66.1392 18.9519
10994 2 15.4982 64.548 16.4043
4578 1 17.3184 64.5565 17.6838
4597 1 14.5931 66.1291 17.6666
10991 2 16.4139 66.1392 18.9519
10945 2 19.1387 64.5678 18.9693
10954 2 20.9545 64.548 16.4043
4580 1 20.0493 66.1291 17.6666
10992 2 18.2288 66.1215 16.3878
4598 1 11.8676 67.702 17.652
10976 2 13.6888 67.7108 18.9371
11008 2 12.7769 69.2691 16.3621
11007 2 10.9634 69.2824 18.925
10993 2 15.503 67.6952 16.3737
4567 1 17.3239 67.702 17.652
4600 1 14.5981 69.2749 17.6401
10974 2 16.4197 69.2824 18.925
10944 2 19.1451 67.7108 18.9371
10947 2 20.9592 67.6952 16.3737
10995 2 18.2331 69.2691 16.3621
4565 1 20.0544 69.2749 17.6401
4592 1 11.8719 70.8479 17.6309
10975 2 13.6938 70.8539 18.9158
11009 2 12.7796 72.4171 16.347
11005 2 10.9673 72.4254 18.9094
4566 1 17.3282 70.8479 17.6309
10980 2 15.5066 70.8431 16.3532
4590 1 14.6014 72.4209 17.6245
10977 2 16.4235 72.4254 18.9094
10930 2 19.15 70.8539 18.9158
10946 2 20.9628 70.8431 16.3532
4568 1 20.0576 72.4209 17.6245
10978 2 18.2358 72.4171 16.347
4591 1 11.8739 73.994 17.6209
10965 2 13.6961 73.9969 18.9058
11423 2 12.7801 75.5653 16.3428
11422 2 10.9679 75.5683 18.9052
4549 1 17.3302 73.994 17.6209
10979 2 15.5083 73.9912 16.3435
11405 2 16.4242 75.5683 18.9052
4992 1 14.602 75.567 17.6203
10929 2 19.1524 73.9969 18.9058
10931 2 20.9645 73.9912 16.3435
11412 2 18.2363 75.5653 16.3428
4966 1 20.0582 75.567 17.6203
4602 1 12.7566 56.7282 20.3727
10986 2 11.8504 58.3159 21.6322
10996 2 14.5747 56.7478 21.661
4575 1 15.4882 58.2974 20.3445
10950 2 17.3066 58.3159 21.6322
4524 1 20.9444 58.2974 20.3445
4581 1 18.2129 56.7282 20.3727
10949 2 20.0309 56.7478 21.661
4603 1 12.7635 59.8668 20.3176
10985 2 11.8583 61.4527 21.5789
4574 1 15.4952 61.4366 20.2923
10942 2 17.3145 61.4527 21.5789
10984 2 14.5824 59.8842 21.6047
4523 1 20.9515 61.4366 20.2923
4573 1 18.2198 59.8668 20.3176
10951 2 20.0386 59.8842 21.6047
4595 1 12.7708 63.0068 20.2691
10972 2 11.8668 64.5905 21.534
4596 1 12.7783 66.1477 20.2302
4563 1 15.5026 64.5771 20.2483
10941 2 17.323 64.5905 21.534
10987 2 14.5906 63.0215 21.5552
4522 1 20.9589 64.5771 20.2483
4576 1 18.227 63.0068 20.2691
10940 2 20.0468 63.0215 21.5552
4561 1 18.2345 66.1477 20.2302
10971 2 11.8753 67.7286 21.5001
4588 1 12.7852 69.2888 20.2024
4562 1 15.51 67.7183 20.2148
10927 2 17.3315 67.7286 21.5001
10970 2 14.5992 66.1596 21.5156
10973 2 14.6072 69.2975 21.4877
4515 1 20.9662 67.7183 20.2148
10943 2 20.0554 66.1596 21.5156
4564 1 18.2414 69.2888 20.2024
10925 2 20.0635 69.2975 21.4877
10964 2 11.8823 70.8662 21.4783
4589 1 12.7899 72.4295 20.1864
4548 1 15.516 70.8592 20.1929
10926 2 17.3385 70.8662 21.4783
10962 2 14.6127 72.4346 21.4718
4514 1 20.9723 70.8592 20.1929
4546 1 18.2461 72.4295 20.1864
10928 2 20.0689 72.4346 21.4718
10963 2 11.8857 74.0027 21.4684
4986 1 12.7907 75.5698 20.1822
4547 1 15.5189 73.9997 20.1828
10909 2 17.3419 74.0027 21.4684
11404 2 14.6137 75.5708 21.4678
4499 1 20.9752 73.9997 20.1828
4965 1 18.2469 75.5698 20.1822
11357 2 20.0699 75.5708 21.4678
4555 1 11.8478 58.3706 25.4907
4571 1 13.6687 58.3306 22.9166
4601 1 10.9365 56.7637 22.9469
10982 2 12.7539 56.7874 24.2358
4518 1 17.3041 58.3706 25.4907
4569 1 14.5711 56.8064 25.5236
4570 1 16.3927 56.7637 22.9469
10938 2 15.4865 58.3531 24.2049
4517 1 20.0273 56.8064 25.5236
4521 1 19.1249 58.3306 22.9166
10884 2 20.9428 58.3531 24.2049
10948 2 18.2101 56.7874 24.2358
4554 1 11.8583 61.4994 25.4282
4559 1 13.6773 61.4652 22.8599
4593 1 10.9448 59.8978 22.8874
10983 2 12.7631 59.9188 24.175
4510 1 17.3146 61.4994 25.4282
4553 1 14.5811 59.9348 25.4586
4572 1 16.401 59.8978 22.8874
10937 2 15.4962 61.4847 24.1469
4519 1 20.0373 59.9348 25.4586
4520 1 19.1335 61.4652 22.8599
10883 2 20.9524 61.4847 24.1469
10936 2 18.2194 59.9188 24.175
4540 1 11.8704 64.6299 25.3761
4558 1 13.6867 64.6012 22.8124
4594 1 10.9538 63.0331 22.8348
10968 2 12.7733 63.0509 24.1212
4509 1 17.3266 64.6299 25.3761
4556 1 14.5922 63.0645 25.4005
4557 1 16.41 63.0331 22.8348
10923 2 15.507 64.6173 24.0984
4508 1 20.0485 63.0645 25.4005
4513 1 19.143 64.6012 22.8124
10882 2 20.9632 64.6173 24.0984
10939 2 18.2296 63.0509 24.1212
4539 1 11.8841 67.7606 25.3394
4544 1 13.6968 67.7374 22.7773
4586 1 10.9636 66.1694 22.7932
10969 2 12.7846 66.1837 24.0789
4495 1 17.3403 67.7606 25.3394
4538 1 14.6052 66.1954 25.3557
4560 1 16.4199 66.1694 22.7932
10922 2 15.5185 67.7499 24.0629
4511 1 20.0615 66.1954 25.3557
4512 1 19.153 67.7374 22.7773
10875 2 20.9748 67.7499 24.0629
10921 2 18.2409 66.1837 24.0789
4532 1 11.8966 70.8884 25.3186
4543 1 13.7054 70.8724 22.7552
4587 1 10.9733 69.3051 22.7646
10960 2 12.7958 69.3155 24.0504
10961 2 12.8038 72.445 24.0353
4585 1 10.9802 72.4392 22.7488
4494 1 17.3529 70.8884 25.3186
4541 1 14.6189 69.325 25.3272
4542 1 16.4295 69.3051 22.7646
10908 2 15.5286 70.8806 24.0413
4530 1 14.629 72.4506 25.3132
4545 1 16.4364 72.4392 22.7488
10906 2 18.26 72.445 24.0353
4496 1 20.0852 72.4506 25.3132
10874 2 20.9848 70.8806 24.0413
4498 1 19.1616 70.8724 22.7552
10924 2 18.2521 69.3155 24.0504
4493 1 20.0751 69.325 25.3272
4533 1 13.7097 74.0056 22.7454
4531 1 11.9031 74.012 25.3104
4985 1 10.9814 75.5719 22.7449
11390 2 12.8053 75.5725 24.0316
4478 1 17.3593 74.012 25.3104
10907 2 15.5336 74.0088 24.0321
4953 1 14.6309 75.573 25.3099
4954 1 16.4376 75.5719 22.7449
10860 2 20.9898 74.0088 24.0321
4497 1 19.1659 74.0056 22.7454
4901 1 20.0872 75.573 25.3099
11356 2 18.2615 75.5725 24.0316
4551 1 12.7474 56.8597 28.1039
10934 2 13.6648 58.3986 26.7796
10981 2 10.9313 56.8355 26.813
4506 1 15.4812 58.4207 28.0684
10933 2 16.3876 56.8355 26.813
4458 1 20.9375 58.4207 28.0684
4516 1 18.2036 56.8597 28.1039
10881 2 19.1211 58.3986 26.7796
4552 1 12.7592 59.981 28.0328
10919 2 13.6766 61.5239 26.7156
10966 2 10.9424 59.9612 26.7468
4505 1 15.4938 61.5417 27.9983
10935 2 16.3986 59.9612 26.7468
4457 1 20.9501 61.5417 27.9983
4504 1 18.2154 59.981 28.0328
10880 2 19.1328 61.5239 26.7156
4536 1 12.773 63.1031 27.9668
10918 2 13.6903 64.6498 26.6621
10967 2 10.955 63.0867 26.687
10900 2 11.8719 64.6903 29.2243
4491 1 15.5093 64.6651 27.9394
10917 2 16.4112 63.0867 26.687
10869 2 17.3282 64.6903 29.2243
10916 2 14.5909 63.1317 29.2525
4456 1 20.9655 64.6651 27.9394
4507 1 18.2292 63.1031 27.9668
10873 2 19.1465 64.6498 26.6621
10868 2 20.0472 63.1317 29.2525
4537 1 12.7902 66.2275 27.9177
10904 2 13.706 67.7756 26.6252
10958 2 10.9699 66.2129 26.6413
10899 2 11.8935 67.8069 29.1865
4490 1 15.5282 67.7892 27.9014
10920 2 16.4261 66.2129 26.6413
10856 2 17.3497 67.8069 29.1865
10898 2 14.6105 66.2489 29.2021
4449 1 20.9845 67.7892 27.9014
4489 1 18.2465 66.2275 27.9177
10872 2 19.1622 67.7756 26.6252
10871 2 20.0667 66.2489 29.2021
4528 1 12.8097 69.3496 27.8911
10903 2 13.7204 70.8978 26.6057
10959 2 10.9856 69.3373 26.6134
10892 2 11.9144 70.9179 29.1725
4477 1 15.5464 70.9082 27.8848
10902 2 16.4418 69.3373 26.6134
10855 2 17.3706 70.9179 29.1725
10901 2 14.6328 69.3634 29.1769
4448 1 21.0026 70.9082 27.8848
4492 1 18.2659 69.3496 27.8911
10859 2 19.1766 70.8978 26.6057
10854 2 20.0891 69.3634 29.1769
4529 1 12.8247 72.4644 27.8821
10893 2 13.7279 74.0153 26.5989
10957 2 10.9972 72.4571 26.6011
10891 2 11.9253 74.0219 29.1714
4935 1 12.8276 75.573 27.8806
11389 2 10.9994 75.5733 26.5984
4476 1 15.5561 74.0189 27.8812
10905 2 16.4535 72.4571 26.6011
10845 2 17.3815 74.0219 29.1714
10890 2 14.6498 72.4704 29.1716
11341 2 16.4557 75.5733 26.5984
11340 2 14.653 75.5733 29.1708
4437 1 21.0124 74.0189 27.8812
4475 1 18.2809 72.4644 27.8821
10858 2 19.1841 74.0153 26.5989
10857 2 20.1061 72.4704 29.1716
4900 1 18.2839 75.573 27.8806
11285 2 20.1092 75.5733 29.1708
4502 1 13.6554 58.4865 30.6521
4550 1 10.9207 56.9283 30.6891
10911 2 12.7341 56.972 31.9762
10915 2 11.8406 58.4563 29.3574
4501 1 16.3769 56.9283 30.6891
10866 2 15.4688 58.5313 31.9387
10878 2 17.2968 58.4563 29.3574
10932 2 14.5625 56.8957 29.3932
4455 1 19.1116 58.4865 30.6521
10836 2 20.9251 58.5313 31.9387
10876 2 18.1903 56.972 31.9762
10877 2 20.0187 56.8957 29.3932
4487 1 13.6702 61.5969 30.5734
4534 1 10.9344 60.0423 30.6132
10912 2 12.7484 60.0872 31.8987
10914 2 11.8547 61.5735 29.2853
4503 1 16.3906 60.0423 30.6132
10865 2 15.4852 61.6399 31.8573
10870 2 17.3109 61.5735 29.2853
10913 2 14.5755 60.0153 29.3209
4454 1 19.1264 61.5969 30.5734
10835 2 20.9415 61.6399 31.8573
10864 2 18.2046 60.0872 31.8987
10879 2 20.0317 60.0153 29.3209
4486 1 13.6896 64.7094 30.504
4535 1 10.9507 63.1524 30.5359
10896 2 12.7668 63.1909 31.8171
4485 1 16.4069 63.1524 30.5359
10852 2 15.5068 64.7423 31.7837
4447 1 19.1459 64.7094 30.504
10834 2 20.9631 64.7423 31.7837
10867 2 18.2231 63.1909 31.8171
4473 1 13.7168 67.8246 30.4647
4526 1 10.9738 66.2673 30.4796
10897 2 12.7924 66.2934 31.7583
4488 1 16.43 66.2673 30.4796
10851 2 15.5367 67.8439 31.7449
4446 1 19.173 67.8246 30.4647
10831 2 20.993 67.8439 31.7449
10850 2 18.2486 66.2934 31.7583
4472 1 13.7437 70.9312 30.4576
4527 1 11.0019 69.3801 30.458
10888 2 12.8252 69.3924 31.7402
4471 1 16.4581 69.3801 30.458
10844 2 15.568 70.9374 31.7453
4436 1 19.1999 70.9312 30.4576
10830 2 21.0243 70.9374 31.7453
10853 2 18.2814 69.3924 31.7402
4464 1 13.7575 74.0257 30.461
4525 1 11.0251 72.4785 30.4603
10889 2 12.8502 72.4825 31.7498
4934 1 11.0289 75.5726 30.4603
11319 2 12.8548 75.5735 31.7511
4474 1 16.4814 72.4785 30.4603
10843 2 15.5835 74.028 31.7519
4885 1 16.4851 75.5726 30.4603
4435 1 19.2138 74.0257 30.461
10827 2 21.0397 74.028 31.7519
10842 2 18.3064 72.4825 31.7498
11284 2 18.311 75.5735 31.7511
4483 1 11.825 58.5771 33.2432
10862 2 13.6365 58.6295 34.5217
4500 1 14.5465 57.0181 33.2786
4479 1 12.7117 57.1345 35.8683
4452 1 17.2813 58.5771 33.2432
10861 2 16.3588 57.0679 34.5592
4440 1 15.4441 58.7029 35.8386
4450 1 18.1679 57.1345 35.8683
4451 1 20.0027 57.0181 33.2786
10833 2 19.0927 58.6295 34.5217
7646 2 21.8151 57.0679 34.5592
4422 1 20.9003 58.7029 35.8386
4482 1 11.8419 61.6779 33.1618
10848 2 13.6529 61.7339 34.4327
10894 2 10.9157 60.1853 34.4798
4480 1 12.7215 60.265 35.8063
4444 1 17.2981 61.6779 33.1618
4481 1 14.561 60.13 33.2041
10863 2 16.3719 60.1853 34.4798
4439 1 15.456 61.8152 35.7688
4438 1 18.1777 60.265 35.8063
4453 1 20.0172 60.13 33.2041
10832 2 19.1091 61.7339 34.4327
4421 1 20.9122 61.8152 35.7688
4469 1 11.8631 64.7689 33.0753
10847 2 13.6769 64.8126 34.3341
10895 2 10.9365 63.2757 34.3821
4465 1 12.7384 63.3567 35.7291
4443 1 17.3194 64.7689 33.0753
4484 1 14.579 63.2221 33.1163
10846 2 16.3928 63.2757 34.3821
4429 1 15.4747 64.8744 35.6781
4442 1 20.0353 63.2221 33.1163
10829 2 19.1331 64.8126 34.3341
4441 1 18.1946 63.3567 35.7291
4420 1 20.931 64.8744 35.6781
4468 1 11.9024 67.8705 33.0304
10840 2 13.719 67.8839 34.2946
10886 2 10.9707 66.3495 34.3057
4466 1 12.7595 66.415 35.6378
4433 1 17.3587 67.8705 33.0304
4467 1 14.6085 66.3188 33.0481
10849 2 16.4269 66.3495 34.3057
4428 1 15.5548 67.9086 35.6351
4445 1 20.0648 66.3188 33.0481
10828 2 19.1752 67.8839 34.2946
4427 1 18.2158 66.415 35.6378
4419 1 21.011 67.9086 35.6351
4463 1 11.9485 70.9473 33.0469
10839 2 13.7709 70.9485 34.3272
10887 2 11.0203 69.412 34.311
4459 1 12.8572 69.4088 35.6653
4432 1 17.4047 70.9473 33.0469
4470 1 14.6542 69.4126 33.0385
10838 2 16.4766 69.412 34.311
4425 1 15.6067 70.9512 35.6458
4431 1 20.1105 69.4126 33.0385
10826 2 19.2272 70.9485 34.3272
4430 1 18.3135 69.4088 35.6653
4418 1 21.0629 70.9512 35.6458
10837 2 13.7963 74.032 34.3402
4462 1 11.9637 74.0309 33.05
4460 1 12.8905 72.4914 35.6424
10885 2 11.0604 72.4893 34.336
11318 2 11.0675 75.5757 34.3391
4863 1 12.8933 75.5786 35.643
4426 1 17.4199 74.0309 33.05
4461 1 14.6868 72.4879 33.0487
10841 2 16.5166 72.4893 34.336
4424 1 15.622 74.032 35.6432
4884 1 14.6911 75.5736 33.0493
11269 2 16.5237 75.5757 34.3391
10825 2 19.2526 74.032 34.3402
4434 1 20.143 72.4879 33.0487
4423 1 18.3467 72.4914 35.6424
4417 1 21.0783 74.032 35.6432
4835 1 20.1474 75.5736 33.0493
4834 1 18.3495 75.5786 35.643
11038 2 11.8022 58.7551 37.0998
16757 1 13.5941 58.8777 38.4229
11040 2 14.527 57.1842 37.1363
11027 2 17.2585 58.7551 37.0998
16756 1 16.3283 57.2798 38.4467
11026 2 19.9832 57.1842 37.1363
16722 1 19.0503 58.8777 38.4229
13944 1 21.7846 57.2798 38.4467
11037 2 11.8135 61.8729 37.0079
16753 1 13.5691 62.0924 38.3727
11036 2 14.5358 60.3184 37.0574
11024 2 17.2697 61.8729 37.0079
16758 1 16.3135 60.4776 38.4005
11028 2 19.992 60.3184 37.0574
16721 1 19.0254 62.0924 38.3727
13942 1 21.7698 60.4776 38.4005
11034 2 11.8405 64.9324 36.8803
16752 1 13.3223 65.5297 38.4396
11023 2 17.2968 64.9324 36.8803
11039 2 14.5548 63.4075 36.9429
16751 1 16.2671 63.7015 38.3437
11022 2 20.011 63.4075 36.9429
16716 1 18.7785 65.5297 38.4396
13943 1 21.7233 63.7015 38.3437
11033 2 11.8784 67.8995 36.877
16742 1 13.0979 69.1027 38.3094
11020 2 17.3347 67.8995 36.877
11032 2 14.5588 66.4214 36.8214
16754 1 15.797 67.2496 38.3828
11025 2 20.015 66.4214 36.8214
16715 1 18.5541 69.1027 38.3094
13940 1 21.2532 67.2496 38.3828
11031 2 12.0133 70.937 36.9054
16741 1 13.0933 72.4264 38.254
11019 2 17.4695 70.937 36.9054
11035 2 14.6933 69.3946 36.8797
16740 1 15.823 70.7875 38.2483
11018 2 20.1495 69.3946 36.8797
16702 1 18.5495 72.4264 38.254
13941 1 21.2792 70.7875 38.2483
11030 2 12.0352 74.0325 36.9216
11017 2 17.4914 74.0325 36.9216
11029 2 14.7554 72.4789 36.9205
16743 1 15.8247 74.0175 38.2493
11448 2 14.7621 75.5833 36.92
11021 2 20.2117 72.4789 36.9205
13939 1 21.2809 74.0175 38.2493
11434 2 20.2184 75.5833 36.92
22379 2 12.699 57.3195 39.7001
22362 2 13.6022 59.0626 42.2094
16749 1 11.7648 59.0432 40.9715
16755 1 14.5011 57.4233 41.0008
22366 2 15.4261 58.9127 39.6642
22361 2 16.3337 57.4507 42.2485
16719 1 17.221 59.0432 40.9715
22368 2 18.1552 57.3195 39.7001
19558 2 21.79 57.4507 42.2485
16718 1 19.9573 57.4233 41.0008
22317 2 19.0584 59.0626 42.2094
22320 2 20.8824 58.9127 39.6642
22380 2 12.697 60.5116 39.6225
16748 1 11.7304 62.3186 40.9079
22354 2 13.587 62.3141 42.1127
16747 1 14.4796 60.6699 40.9396
22365 2 15.4199 62.115 39.5777
22363 2 16.3249 60.6824 42.1651
16713 1 17.1866 62.3186 40.9079
22364 2 18.1532 60.5116 39.6225
19554 2 21.7811 60.6824 42.1651
16720 1 19.9358 60.6699 40.9396
22316 2 19.0432 62.3141 42.1127
22319 2 20.8761 62.115 39.5777
22376 2 12.6859 63.7405 39.5176
16738 1 11.7378 65.6302 40.6963
22353 2 13.5414 65.6569 41.9805
16750 1 14.4414 63.9721 40.8613
22358 2 15.3765 65.3806 39.4397
16712 1 17.194 65.6302 40.6963
22352 2 16.2969 63.9788 42.0523
22367 2 18.1421 63.7405 39.5176
19555 2 21.7531 63.9788 42.0523
16711 1 19.8976 63.9721 40.8613
22309 2 18.9977 65.6569 41.9805
22318 2 20.8327 65.3806 39.4397
22377 2 12.5305 67.2701 39.3909
16737 1 11.656 68.944 40.649
22340 2 13.4638 68.9959 41.9562
16736 1 14.4659 67.2153 40.5644
22357 2 15.2051 69.051 39.4274
16699 1 17.1122 68.944 40.649
22355 2 16.2318 67.3193 41.9506
22356 2 17.9867 67.2701 39.3909
19550 2 21.688 67.3193 41.9506
16714 1 19.9222 67.2153 40.5644
22308 2 18.9201 68.9959 41.9562
22311 2 20.6613 69.051 39.4274
22372 2 12.4345 70.7407 39.4679
16730 1 11.5476 72.3253 40.7749
22339 2 13.4146 72.3461 42.0105
16739 1 14.314 70.635 40.7344
16698 1 17.0038 72.3253 40.7749
22338 2 16.1621 70.6759 41.9878
22344 2 15.1418 72.3768 39.4938
22359 2 17.8907 70.7407 39.4679
19551 2 21.6183 70.6759 41.9878
16697 1 19.7702 70.635 40.7344
22294 2 18.8709 72.3461 42.0105
22310 2 20.598 72.3768 39.4938
22373 2 12.4037 74.0142 39.5078
16728 1 14.2639 73.9925 40.788
22341 2 16.133 74.0036 42.0227
22342 2 17.86 74.0142 39.5078
19549 2 21.5893 74.0036 42.0227
16700 1 19.7202 73.9925 40.788
16745 1 12.6863 57.5447 43.5355
22350 2 11.785 59.1879 44.7458
22360 2 14.5175 57.566 44.7877
16709 1 15.4079 59.1723 43.4987
22314 2 17.2412 59.1879 44.7458
16717 1 18.1426 57.5447 43.5355
16656 1 20.8641 59.1723 43.4987
22313 2 19.9737 57.566 44.7877
16746 1 12.6731 60.8076 43.4559
22349 2 11.7681 62.4571 44.6472
22348 2 14.5064 60.8181 44.6991
16691 1 13.5891 62.5356 45.9188
16708 1 15.3988 62.4499 43.3948
22306 2 17.2244 62.4571 44.6472
16707 1 18.1293 60.8076 43.4559
16655 1 20.855 62.4499 43.3948
22315 2 19.9627 60.8181 44.6991
16652 1 19.0454 62.5356 45.9188
16734 1 12.6626 64.0954 43.3168
22336 2 11.7348 65.7432 44.5521
22351 2 14.4803 64.1006 44.595
16690 1 13.5601 65.7959 45.8315
16695 1 15.3654 65.7327 43.2661
22305 2 17.191 65.7432 44.5521
16710 1 18.1188 64.0954 43.3168
16689 1 16.3046 64.1669 45.8703
13913 1 21.7608 64.1669 45.8703
16654 1 20.8217 65.7327 43.2661
22304 2 19.9365 64.1006 44.595
16645 1 19.0163 65.7959 45.8315
16735 1 12.6119 67.3637 43.2291
22335 2 11.6899 69.0336 44.5155
22334 2 14.4404 67.3868 44.5258
16676 1 13.5291 69.0591 45.7857
16694 1 15.3179 68.9866 43.2044
22291 2 17.1461 69.0336 44.5155
16693 1 18.0682 67.3637 43.2291
16692 1 16.2722 67.4258 45.8025
13904 1 21.7284 67.4258 45.8025
16647 1 20.7741 68.9866 43.2044
22307 2 19.8967 67.3868 44.5258
16644 1 18.9854 69.0591 45.7857
16726 1 12.5739 70.6439 43.2233
22328 2 11.6616 72.3433 44.5283
22337 2 14.4003 70.685 44.5197
16675 1 13.512 72.348 45.7789
16680 1 15.2796 72.3152 43.2577
22290 2 17.1179 72.3433 44.5283
16696 1 18.0301 70.6439 43.2233
16674 1 16.2464 70.6978 45.777
13905 1 21.7026 70.6978 45.777
16646 1 20.7359 72.3152 43.2577
22289 2 19.8565 70.685 44.5197
16630 1 18.9682 72.348 45.7789
16727 1 12.5376 73.994 43.2771
22326 2 14.3847 74.0043 44.5336
16678 1 17.9938 73.994 43.2771
16677 1 16.2371 74.0058 45.7822
13903 1 21.6934 74.0058 45.7822
22292 2 19.8409 74.0043 44.5336
16687 1 11.7943 59.3448 48.5535
16705 1 13.6025 59.2701 46.0214
22346 2 12.7048 57.6616 47.325
16703 1 14.5265 57.7196 48.5966
16650 1 17.2505 59.3448 48.5535
16704 1 16.3344 57.6419 46.0646
22302 2 15.4281 59.2863 47.2827
22312 2 18.161 57.6616 47.325
13924 1 21.7907 57.6419 46.0646
16649 1 19.9828 57.7196 48.5966
16653 1 19.0587 59.2701 46.0214
22254 2 20.8843 59.2863 47.2827
16686 1 11.78 62.5972 48.4659
22347 2 12.6931 60.9151 47.238
16685 1 14.5164 60.9711 48.5089
16642 1 17.2362 62.5972 48.4659
16706 1 16.3257 60.9021 45.9718
22301 2 15.4119 62.5461 47.1932
22300 2 18.1493 60.9151 47.238
13912 1 21.7819 60.9021 45.9718
16651 1 19.9727 60.9711 48.5089
22253 2 20.8682 62.5461 47.1932
16672 1 11.7587 65.8487 48.3939
22332 2 12.6726 64.1776 47.152
16688 1 14.4981 64.2229 48.427
16641 1 17.215 65.8487 48.3939
22287 2 15.388 65.8091 47.117
22303 2 18.1289 64.1776 47.152
16640 1 19.9543 64.2229 48.427
22252 2 20.8442 65.8091 47.117
16671 1 11.7393 69.1054 48.3474
22333 2 12.6463 67.4417 47.0913
16670 1 14.4763 67.4756 48.3673
16627 1 17.1956 69.1054 48.3474
22286 2 15.3618 69.0774 47.0752
22285 2 18.1026 67.4417 47.0913
16643 1 19.9326 67.4756 48.3673
22245 2 20.8181 69.0774 47.0752
16664 1 11.7292 72.3767 48.3246
22324 2 12.623 70.7177 47.0668
16673 1 14.4611 70.7391 48.3335
16626 1 17.1855 72.3767 48.3246
22273 2 15.3444 72.3632 47.0633
22288 2 18.0793 70.7177 47.0668
16625 1 19.9173 70.7391 48.3335
22244 2 20.8006 72.3632 47.0633
22325 2 12.6132 74.0131 47.0621
16662 1 14.456 74.018 48.3202
22271 2 18.0695 74.0131 47.0621
16628 1 19.9122 74.018 48.3202
16683 1 12.7175 57.7823 51.1354
22298 2 13.6172 59.3612 49.8245
22279 2 11.8078 59.4198 52.3709
22296 2 14.5402 57.7998 52.4085
16638 1 15.4413 59.4039 51.0954
22297 2 16.3501 57.7382 49.8648
16648 1 18.1738 57.7823 51.1354
22248 2 17.264 59.4198 52.3709
19525 2 21.8063 57.7382 49.8648
16596 1 20.8975 59.4039 51.0954
22251 2 19.0734 59.3612 49.8245
22247 2 19.9965 57.7998 52.4085
16684 1 12.7076 61.0259 51.0559
22283 2 13.6037 62.6105 49.7451
22278 2 11.7968 62.6613 52.2989
22277 2 14.5307 61.0404 52.334
16637 1 15.4289 62.6478 51.0185
22299 2 16.3391 60.9855 49.7841
16636 1 18.1638 61.0259 51.0559
22240 2 17.253 62.6613 52.2989
19510 2 21.7954 60.9855 49.7841
16595 1 20.8851 62.6478 51.0185
22250 2 19.0599 62.6105 49.7451
22249 2 19.987 61.0404 52.334
16668 1 12.6932 64.2698 50.9842
22282 2 13.5865 65.8614 49.6784
22265 2 11.7842 65.9041 52.238
22280 2 14.5186 64.2825 52.2666
16623 1 15.4137 65.8923 50.954
22281 2 16.3234 64.2357 49.7094
16639 1 18.1495 64.2698 50.9842
22239 2 17.2404 65.9041 52.238
19511 2 21.7796 64.2357 49.7094
16594 1 20.8699 65.8923 50.954
22243 2 19.0427 65.8614 49.6784
22238 2 19.9749 64.2825 52.2666
22263 2 14.5063 67.5266 52.2136
16669 1 12.6786 67.5159 50.9284
22269 2 13.5698 69.1175 49.634
22264 2 11.7729 69.1505 52.1938
22229 2 17.2291 69.1505 52.1938
16622 1 15.4009 69.1411 50.9075
22284 2 16.3058 67.4883 49.6531
16621 1 18.1348 67.5159 50.9284
19502 2 21.7621 67.4883 49.6531
22241 2 19.9625 67.5266 52.2136
16588 1 20.8571 69.1411 50.9075
22242 2 19.026 69.1175 49.634
22266 2 14.4967 70.776 52.1788
22259 2 11.7656 72.4031 52.1686
16660 1 12.6685 70.7682 50.8915
22268 2 13.5589 72.3851 49.612
22228 2 17.2219 72.4031 52.1686
16611 1 15.394 72.3973 50.8805
22267 2 16.2915 70.7497 49.6206
16624 1 18.1248 70.7682 50.8915
19503 2 21.7477 70.7497 49.6206
22227 2 19.9529 70.776 52.1788
16587 1 20.8502 72.3973 50.8805
22232 2 19.0152 72.3851 49.612
22257 2 14.4922 74.0314 52.163
16661 1 12.6646 74.0276 50.8745
22270 2 16.2849 74.0227 49.6074
16609 1 18.1208 74.0276 50.8745
22230 2 19.9485 74.0314 52.163
19501 2 21.7411 74.0227 49.6074
16634 1 13.6324 59.4528 53.6428
22275 2 12.7311 57.8506 54.9555
16633 1 16.3646 57.8342 53.6798
22236 2 15.4554 59.468 54.9203
22246 2 18.1873 57.8506 54.9555
13862 1 21.8208 57.8342 53.6798
16593 1 19.0887 59.4528 53.6428
22218 2 20.9116 59.468 54.9203
16619 1 13.6222 62.6903 53.5728
22276 2 12.723 61.0855 54.8862
16635 1 16.3557 61.0715 53.6069
22235 2 15.4464 62.7032 54.8538
22234 2 18.1792 61.0855 54.8862
13846 1 21.812 61.0715 53.6069
16592 1 19.0785 62.6903 53.5728
22217 2 20.9027 62.7032 54.8538
16618 1 13.6111 65.9285 53.5133
22261 2 12.7135 64.3211 54.824
16617 1 16.3447 64.3092 53.5415
22225 2 15.4369 65.9392 54.7972
22237 2 18.1697 64.3211 54.824
13847 1 21.801 64.3092 53.5415
16586 1 19.0674 65.9285 53.5133
22216 2 20.8931 65.9392 54.7972
22262 2 12.7044 67.5578 54.7739
16607 1 13.602 69.169 53.4685
22223 2 18.1606 67.5578 54.7739
22224 2 15.4287 69.1771 54.7547
16620 1 16.3343 67.5483 53.4889
13838 1 21.7905 67.5483 53.4889
22215 2 20.8849 69.1771 54.7547
16585 1 19.0582 69.169 53.4685
22255 2 12.6975 70.7971 54.7397
16606 1 13.5967 72.4127 53.4414
22226 2 18.1537 70.7971 54.7397
22221 2 15.4235 72.4178 54.7293
16605 1 16.3269 70.7905 53.4526
13839 1 21.7832 70.7905 53.4526
22214 2 20.8797 72.4178 54.7293
16579 1 19.0529 72.4127 53.4414
22256 2 12.6942 74.039 54.7236
16608 1 16.3237 74.0355 53.4354
22219 2 18.1505 74.039 54.7236
13837 1 21.78 74.0355 53.4354
16615 1 11.8239 59.4945 56.1933
16931 1 12.7466 57.9176 58.7786
22572 2 10.9222 57.8943 57.5051
22565 2 13.647 59.5091 57.4718
16632 1 14.5556 57.8785 56.2279
16590 1 17.2801 59.4945 56.1933
16918 1 15.4716 59.5313 58.7458
22564 2 16.3784 57.8943 57.5051
16872 1 20.9278 59.5313 58.7458
16589 1 20.0118 57.8785 56.2279
16920 1 18.2029 57.9176 58.7786
22530 2 19.1032 59.5091 57.4718
16614 1 11.8156 62.7265 56.1283
16932 1 12.7401 61.1448 58.7143
22570 2 10.9153 61.124 57.4398
22561 2 13.6396 62.7388 57.4096
16613 1 14.548 61.1106 56.1599
16917 1 15.4647 62.7581 58.6846
16583 1 17.2718 62.7265 56.1283
22566 2 16.3715 61.124 57.4398
16871 1 20.9209 62.7581 58.6846
16591 1 20.0042 61.1106 56.1599
16916 1 18.1963 61.1448 58.7143
22529 2 19.0958 62.7388 57.4096
16603 1 11.807 65.9587 56.0727
16928 1 12.733 64.3714 58.6572
22560 2 13.632 65.9686 57.3565
16616 1 14.5393 64.3426 56.0991
16910 1 15.4578 65.9845 58.6325
16582 1 17.2632 65.9587 56.0727
22559 2 16.3639 64.3537 57.3816
16919 1 18.1893 64.3714 58.6572
16870 1 20.914 65.9845 58.6325
16581 1 19.9956 64.3426 56.0991
22524 2 19.0883 65.9686 57.3565
19751 2 21.8201 64.3537 57.3816
16602 1 11.8 69.1915 56.0304
16929 1 12.7266 67.5975 58.6109
22550 2 13.6257 69.1989 57.3163
16601 1 14.5313 67.5749 56.0497
16909 1 15.4521 69.2105 58.5927
16576 1 17.2562 69.1915 56.0304
22562 2 16.3568 67.5836 57.3346
16908 1 18.1829 67.5975 58.6109
16863 1 20.9084 69.2105 58.5927
16584 1 19.9876 67.5749 56.0497
22523 2 19.0819 69.1989 57.3163
19748 2 21.813 67.5836 57.3346
16599 1 11.7957 72.4254 56.0046
16924 1 12.7219 70.8234 58.5785
22549 2 13.6217 72.4301 57.2919
16604 1 14.5256 70.8083 56.0153
16896 1 15.4486 72.4364 58.5684
16575 1 17.252 72.4254 56.0046
22548 2 16.3515 70.8144 57.3019
16911 1 18.1782 70.8234 58.5785
16862 1 20.9048 72.4364 58.5684
16574 1 19.9818 70.8083 56.0153
22510 2 19.0779 72.4301 57.2919
19749 2 21.8077 70.8144 57.3019
16925 1 12.7197 74.0493 58.5628
16597 1 14.523 74.0426 55.9987
22551 2 16.3489 74.046 57.2863
16894 1 18.1759 74.0493 58.5628
16577 1 19.9792 74.0426 55.9987
19747 2 21.8052 74.046 57.2863
16914 1 13.6629 59.5647 61.2999
16930 1 10.9375 57.9533 61.3312
22557 2 11.8385 59.5456 60.025
16913 1 16.3938 57.9533 61.3312
22527 2 17.2947 59.5456 60.025
22563 2 14.5695 57.9331 60.0566
22517 2 15.486 59.5794 62.5793
16869 1 19.1191 59.5647 61.2999
22526 2 20.0257 57.9331 60.0566
22464 2 20.9422 59.5794 62.5793
16906 1 13.657 62.7867 61.2419
16926 1 10.9319 61.1758 61.27
22556 2 11.8322 62.7702 59.9661
22554 2 12.7552 61.1894 62.5504
16915 1 16.3881 61.1758 61.27
22521 2 17.2885 62.7702 59.9661
22555 2 14.5635 61.158 59.9946
22516 2 15.4806 62.7991 62.5232
16868 1 19.1132 62.7867 61.2419
22528 2 20.0198 61.158 59.9946
22463 2 20.9368 62.7991 62.5232
22515 2 18.2114 61.1894 62.5504
16905 1 13.6512 66.0075 61.1926
16927 1 10.9259 64.3972 61.216
22546 2 11.8261 65.9942 59.916
22542 2 12.7498 64.4084 62.4982
16904 1 16.3822 64.3972 61.216
22520 2 17.2823 65.9942 59.916
22558 2 14.5572 64.3823 59.9397
22503 2 15.4753 66.0175 62.4757
16861 1 19.1075 66.0075 61.1926
22519 2 20.0134 64.3823 59.9397
22462 2 20.9316 66.0175 62.4757
22518 2 18.206 64.4084 62.4982
16892 1 13.6465 69.2274 61.1551
16922 1 10.9206 67.6176 61.1722
22545 2 11.8209 69.2177 59.878
22543 2 12.7449 67.6262 62.4561
22544 2 14.5514 67.6059 59.8953
16907 1 16.3768 67.6176 61.1722
22507 2 17.2772 69.2177 59.878
22502 2 15.471 69.2348 62.4396
16860 1 19.1027 69.2274 61.1551
22522 2 20.0077 67.6059 59.8953
22455 2 20.9272 69.2348 62.4396
22501 2 18.2011 67.6262 62.4561
16891 1 13.6434 72.4465 61.1321
16923 1 10.9166 70.837 61.1417
22538 2 11.8177 72.4411 59.8548
22547 2 14.5471 70.8294 59.8644
22534 2 12.7412 70.8432 62.4267
16890 1 16.3728 70.837 61.1417
22506 2 17.2739 72.4411 59.8548
22488 2 15.4682 72.4514 62.4175
16846 1 19.0997 72.4465 61.1321
22505 2 20.0034 70.8294 59.8644
22454 2 20.9244 72.4514 62.4175
22504 2 18.1975 70.8432 62.4267
22536 2 14.545 74.0528 59.8494
22535 2 12.7394 74.0596 62.4121
16921 1 10.9146 74.056 61.1266
16893 1 16.3709 74.056 61.1266
22508 2 20.0013 74.0528 59.8494
22486 2 18.1957 74.0596 62.4121
16902 1 11.8539 59.5963 63.8557
22513 2 13.6769 59.6119 65.1345
22552 2 10.9511 58.0037 65.1638
22553 2 12.7604 57.969 62.6097
16866 1 17.3101 59.5963 63.8557
16912 1 14.5844 57.9871 63.8858
22512 2 16.4073 58.0037 65.1638
16865 1 20.0407 57.9871 63.8858
22461 2 19.1331 59.6119 65.1345
22525 2 18.2167 57.969 62.6097
16901 1 11.8487 62.8136 63.8002
22499 2 13.6721 62.8268 65.0806
22540 2 10.9464 61.2196 65.1067
16858 1 17.3049 62.8136 63.8002
16900 1 14.5794 61.2052 63.827
22514 2 16.4026 61.2196 65.1067
16867 1 20.0357 61.2052 63.827
22460 2 19.1283 62.8268 65.0806
16888 1 11.8437 66.0292 63.7532
22498 2 13.6674 66.0399 65.0351
22541 2 10.9416 64.4336 65.0566
16857 1 17.3 66.0292 63.7532
16903 1 14.5743 64.4216 63.7754
22497 2 16.3978 64.4336 65.0566
16856 1 20.0305 64.4216 63.7754
22453 2 19.1237 66.0399 65.0351
16887 1 11.8396 69.2433 63.7176
22484 2 13.6636 69.2513 65.0007
22532 2 10.9373 67.6458 65.0164
16843 1 17.2958 69.2433 63.7176
16886 1 14.5696 67.6364 63.7338
22500 2 16.3935 67.6458 65.0164
16859 1 20.0259 67.6364 63.7338
22452 2 19.1199 69.2513 65.0007
22533 2 10.9341 70.8566 64.9882
16889 1 14.5662 70.85 63.7048
22482 2 16.3903 70.8566 64.9882
16841 1 20.0224 70.85 63.7048
16880 1 11.8369 72.4565 63.6956
22483 2 13.6611 72.4617 64.9793
22531 2 10.9324 74.0667 64.974
16842 1 17.2932 72.4565 63.6956
16878 1 14.5644 74.0628 63.6902
22485 2 16.3886 74.0667 64.974
16844 1 20.0207 74.0628 63.6902
22438 2 19.1174 72.4617 64.9793
16898 1 12.7746 58.0203 66.4429
22495 2 11.8673 59.6448 67.6895
16850 1 13.69 59.6596 68.9773
16897 1 10.9639 58.0544 69.0056
16854 1 15.5005 59.6275 66.4138
22458 2 17.3235 59.6448 67.6895
22511 2 14.5975 58.0387 67.7179
16849 1 16.4201 58.0544 69.0056
16806 1 20.9568 59.6275 66.4138
16864 1 18.2309 58.0203 66.4429
22457 2 20.0538 58.0387 67.7179
16803 1 19.1462 59.6596 68.9773
16899 1 12.7701 61.2341 66.3862
22494 2 11.8628 62.855 67.6374
16835 1 13.6858 62.8678 68.9255
16882 1 10.9598 61.2641 68.9505
16853 1 15.4959 62.8402 66.3603
22450 2 17.3191 62.855 67.6374
22493 2 14.5932 61.2502 67.6626
16851 1 16.416 61.2641 68.9505
16805 1 20.9521 62.8402 66.3603
16852 1 18.2263 61.2341 66.3862
22459 2 20.0494 61.2502 67.6626
16802 1 19.142 62.8678 68.9255
16884 1 12.7655 64.4457 66.3366
22480 2 11.8586 66.0627 67.5936
16834 1 13.6819 66.0733 68.8819
16883 1 10.9557 64.4709 68.9026
16839 1 15.4915 66.0507 66.3153
22449 2 17.3148 66.0627 67.5936
22496 2 14.5888 64.4591 67.6143
16833 1 16.4119 64.4709 68.9026
16804 1 20.9477 66.0507 66.3153
16855 1 18.2218 64.4457 66.3366
22448 2 20.045 64.4591 67.6143
16795 1 19.1381 66.0733 68.8819
16885 1 12.7614 67.6552 66.2967
22479 2 11.8551 69.2683 67.5603
16821 1 13.6786 69.2765 68.8489
16874 1 10.952 67.6751 68.864
16838 1 15.4878 69.2594 66.2811
22435 2 17.3113 69.2683 67.5603
22478 2 14.5849 67.6657 67.5755
16836 1 16.4082 67.6751 68.864
16797 1 20.9441 69.2594 66.2811
16837 1 18.2177 67.6552 66.2967
22451 2 20.0411 67.6657 67.5755
16794 1 19.1348 69.2765 68.8489
16876 1 12.7583 70.8632 66.2687
16875 1 10.9492 70.8774 68.8369
22481 2 14.5819 70.8704 67.5482
16819 1 16.4055 70.8774 68.8369
16840 1 18.2146 70.8632 66.2687
22433 2 20.0381 70.8704 67.5482
22472 2 11.8528 72.4724 67.5394
16820 1 13.6764 72.4781 68.8282
16877 1 12.7567 74.0702 66.2545
16873 1 10.9477 74.0785 68.8229
16825 1 15.4855 72.4667 66.2598
22434 2 17.309 72.4724 67.5394
22470 2 14.5803 74.0741 67.5341
16822 1 16.404 74.0785 68.8229
16796 1 20.9417 72.4667 66.2598
16784 1 19.1327 72.4781 68.8282
16823 1 18.213 74.0702 66.2545
22436 2 20.0366 74.0741 67.5341
16831 1 11.8755 59.692 71.5571
22491 2 12.7876 58.0745 70.2673
16800 1 17.3317 59.692 71.5571
16848 1 14.6054 58.0888 71.5846
22446 2 15.5136 59.6786 70.2395
16799 1 20.0616 58.0888 71.5846
22404 2 20.9699 59.6786 70.2395
22456 2 18.2438 58.0745 70.2673
16830 1 11.8718 62.8957 71.5066
22492 2 12.7834 61.2818 70.2132
16792 1 17.3281 62.8957 71.5066
16829 1 14.6018 61.2943 71.531
22445 2 15.5095 62.884 70.1887
16801 1 20.058 61.2943 71.531
22403 2 20.9657 62.884 70.1887
22444 2 18.2397 61.2818 70.2132
16817 1 11.8684 66.0959 71.4643
22476 2 12.7793 64.4855 70.1662
16791 1 17.3246 66.0959 71.4643
16832 1 14.5982 64.4962 71.4843
22431 2 15.5055 66.0861 70.1461
16790 1 20.0544 64.4962 71.4843
22402 2 20.9618 66.0861 70.1461
22447 2 18.2356 64.4855 70.1662
16816 1 11.8655 69.2933 71.4323
22477 2 12.7757 67.6861 70.1285
16781 1 17.3217 69.2933 71.4323
16815 1 14.5949 67.6949 71.4469
22430 2 15.5023 69.2855 70.1138
16793 1 20.0512 67.6949 71.4469
22396 2 20.9585 69.2855 70.1138
22429 2 18.2319 67.6861 70.1285
22468 2 12.7729 70.8843 70.1021
16818 1 14.5925 70.8912 71.4207
16779 1 20.0488 70.8912 71.4207
22432 2 18.2291 70.8843 70.1021
16811 1 11.8636 72.4887 71.4122
22469 2 12.7714 74.0811 70.0884
16780 1 17.3198 72.4887 71.4122
22419 2 15.5001 72.4828 70.0936
16809 1 14.5912 74.0859 71.4071
22395 2 20.9564 72.4828 70.0936
16782 1 20.0475 74.0859 71.4071
22417 2 18.2277 74.0811 70.0884
16827 1 12.7471 58.1222 74.2418
22423 2 11.8699 59.7463 75.2623
22442 2 13.702 59.7139 72.777
22490 2 10.9759 58.1119 72.8043
16788 1 15.4754 59.7237 74.2144
22398 2 17.3261 59.7463 75.2623
22440 2 14.5992 58.1459 75.2887
22441 2 16.4321 58.1119 72.8043
16770 1 20.9316 59.7237 74.2144
16798 1 18.2034 58.1222 74.2418
22397 2 20.0555 58.1459 75.2887
22401 2 19.1583 59.7139 72.777
16828 1 12.7473 61.3242 74.1885
22422 2 11.8673 62.9429 75.2141
22427 2 13.698 62.9144 72.7273
22474 2 10.9719 61.3148 72.7513
16787 1 15.4755 62.9236 74.1644
22391 2 17.3236 62.9429 75.2141
22421 2 14.5967 61.3453 75.2373
22443 2 16.4281 61.3148 72.7513
16769 1 20.9317 62.9236 74.1644
16786 1 18.2036 61.3242 74.1885
22399 2 20.053 61.3453 75.2373
22400 2 19.1542 62.9144 72.7273
16813 1 12.7474 64.522 74.1422
22411 2 11.8648 66.1342 75.1738
22426 2 13.6941 66.1106 72.6857
22475 2 10.9679 64.513 72.7053
16777 1 15.4755 66.1195 74.1224
22390 2 17.3211 66.1342 75.1738
22424 2 14.5942 64.5392 75.1928
22425 2 16.4241 64.513 72.7053
16768 1 20.9318 66.1195 74.1224
16789 1 18.2036 64.522 74.1422
22389 2 20.0504 64.5392 75.1928
22394 2 19.1504 66.1106 72.6857
16814 1 12.7474 67.716 74.1051
22415 2 13.691 69.3031 72.6542
22466 2 10.9643 67.7073 72.6685
22409 2 14.5918 67.7281 75.1573
22428 2 16.4206 67.7073 72.6685
16775 1 18.2037 67.716 74.1051
22392 2 20.0481 67.7281 75.1573
22393 2 19.1472 69.3031 72.6542
22410 2 11.8627 69.321 75.1435
16807 1 12.7474 70.9069 74.0791
22467 2 10.9616 70.8983 72.6428
16776 1 15.4755 69.3118 74.0906
22384 2 17.319 69.321 75.1435
22412 2 14.59 70.9131 75.1325
22413 2 16.4179 70.8983 72.6428
16767 1 20.9318 69.3118 74.0906
16778 1 18.2037 70.9069 74.0791
22382 2 20.0463 70.9131 75.1325
22407 2 11.8613 72.5045 75.1246
22414 2 13.6889 72.4931 72.6345
22465 2 10.9602 74.0874 72.6295
16808 1 12.7474 74.0958 74.0657
16773 1 15.4756 72.5015 74.0708
22383 2 17.3176 72.5045 75.1246
22416 2 16.4164 74.0874 72.6295
22405 2 14.5891 74.0955 75.1198
16766 1 20.9318 72.5015 74.0708
22387 2 19.1451 72.4931 72.6345
22385 2 20.0453 74.0955 75.1198
16771 1 18.2037 74.0958 74.0657
11217 2 11.8469 77.1289 -1.57758
11225 2 13.6772 77.1269 -4.07108
4800 1 12.7894 78.7098 -3.01609
11230 2 10.9487 78.718 -4.06799
4786 1 15.518 77.1213 -3.01924
11187 2 17.3031 77.1289 -1.57758
11215 2 14.5748 78.7181 -1.57441
11226 2 16.4049 78.718 -4.06799
4740 1 20.9743 77.1213 -3.01924
11190 2 19.1334 77.1269 -4.07108
4784 1 18.2456 78.7098 -3.01609
11188 2 20.031 78.7181 -1.57441
11216 2 11.8463 80.307 -1.56915
11221 2 13.6762 80.3089 -4.06287
4796 1 12.7872 81.8863 -3.0036
11231 2 10.9473 81.8995 -4.05575
4785 1 15.5166 80.2982 -3.01086
11181 2 17.3025 80.307 -1.56915
11218 2 14.5739 81.8956 -1.56184
11219 2 16.4036 81.8995 -4.05575
4739 1 20.9728 80.2982 -3.01086
11189 2 19.1325 80.3089 -4.06287
4787 1 18.2434 81.8863 -3.0036
11179 2 20.0301 81.8956 -1.56184
11206 2 11.8451 83.4838 -1.55254
11220 2 13.6745 83.4896 -4.0467
4778 1 15.5137 83.4742 -2.99436
11180 2 17.3014 83.4838 -1.55254
4738 1 20.97 83.4742 -2.99436
11184 2 19.1307 83.4896 -4.0467
4797 1 12.7837 85.0617 -2.98322
11205 2 11.8435 86.6584 -1.5283
11210 2 13.672 86.6682 -4.02312
11228 2 10.9452 85.0792 -4.0358
4777 1 15.5097 86.6487 -2.97026
11167 2 17.2998 86.6584 -1.5283
11204 2 14.5725 85.0714 -1.54134
11222 2 16.4014 85.0792 -4.0358
4731 1 20.9659 86.6487 -2.97026
4776 1 18.24 85.0617 -2.98322
11182 2 20.0287 85.0714 -1.54134
11183 2 19.1282 86.6682 -4.02312
4792 1 12.7791 88.2353 -2.95558
11198 2 11.8416 89.8302 -1.49718
11209 2 13.6689 89.8439 -3.99285
11229 2 10.9424 88.2565 -4.00876
4764 1 15.5046 89.8212 -2.93929
11166 2 17.2979 89.8302 -1.49718
11207 2 14.5707 88.2447 -1.51355
11208 2 16.3986 88.2565 -4.00876
4730 1 20.9608 89.8212 -2.93929
4779 1 18.2354 88.2353 -2.95558
11165 2 20.027 88.2447 -1.51355
11170 2 19.1252 89.8439 -3.99285
4793 1 12.7736 91.4064 -2.92152
11197 2 11.8396 92.9987 -1.46014
11199 2 13.6655 93.016 -3.95682
11227 2 10.9391 91.4304 -3.97549
4763 1 15.4987 92.9909 -2.90239
11149 2 17.2958 92.9987 -1.46014
11196 2 14.5687 91.4149 -1.47934
11211 2 16.3954 91.4304 -3.97549
4715 1 20.955 92.9909 -2.90239
4762 1 18.2299 91.4064 -2.92152
11168 2 20.025 91.4149 -1.47934
11169 2 19.1217 93.016 -3.95682
4770 1 11.8518 77.1271 2.22885
4782 1 13.6706 77.1259 -0.358632
4794 1 10.9422 78.7131 -0.355448
11214 2 12.7586 78.715 0.97134
4734 1 17.3081 77.1271 2.22885
11177 2 15.4869 77.1285 0.968099
4768 1 14.5797 78.7121 2.23212
4783 1 16.3985 78.7131 -0.355448
4737 1 19.1268 77.1259 -0.358632
11124 2 20.9432 77.1285 0.968099
4735 1 20.0359 78.7121 2.23212
11175 2 18.2148 78.715 0.97134
4769 1 11.8511 80.2969 2.23755
4774 1 13.6699 80.3002 -0.350168
4795 1 10.9412 81.8869 -0.342833
11202 2 12.7576 81.8874 0.984173
4726 1 17.3074 80.2969 2.23755
11176 2 15.4863 80.3014 0.976712
4771 1 14.5786 81.8815 2.24508
4772 1 16.3974 81.8869 -0.342833
4736 1 19.1261 80.3002 -0.350168
11123 2 20.9425 80.3014 0.976712
4724 1 20.0349 81.8815 2.24508
11178 2 18.2139 81.8874 0.984173
4756 1 11.8498 83.4658 2.25467
4773 1 13.6685 83.4734 -0.333501
4725 1 17.306 83.4658 2.25467
11163 2 15.4851 83.473 0.993662
4754 1 14.577 85.0496 2.26623
4729 1 19.1248 83.4734 -0.333501
11122 2 20.9413 83.473 0.993662
4727 1 20.0333 85.0496 2.26623
4755 1 11.8479 86.633 2.27968
4760 1 13.6666 86.6448 -0.309148
4790 1 10.9395 85.0593 -0.322244
11203 2 12.7561 85.0582 1.0051
4711 1 17.3042 86.633 2.27968
4775 1 16.3958 85.0593 -0.322244
11162 2 15.4834 86.6429 1.01841
4728 1 19.1229 86.6448 -0.309148
11115 2 20.9396 86.6429 1.01841
11161 2 18.2124 85.0582 1.0051
4748 1 11.8457 89.7983 2.3118
4759 1 13.6644 89.8139 -0.277856
4791 1 10.9374 88.2297 -0.294314
11194 2 12.7543 88.227 1.03347
4710 1 17.302 89.7983 2.3118
4757 1 14.575 88.2159 2.29491
4758 1 16.3937 88.2297 -0.294314
11148 2 15.4813 89.8104 1.05017
4709 1 20.0312 88.2159 2.29491
4714 1 19.1206 89.8139 -0.277856
11114 2 20.9376 89.8104 1.05017
11164 2 18.2105 88.227 1.03347
4747 1 11.8433 92.9611 2.35003
4749 1 13.6618 92.9803 -0.240576
4789 1 10.935 91.3975 -0.259899
11195 2 12.7521 91.3931 1.06838
4693 1 17.2995 92.9611 2.35003
4746 1 14.5726 91.38 2.33022
4761 1 16.3912 91.3975 -0.259899
11147 2 15.4791 92.9751 1.08796
4712 1 20.0289 91.38 2.33022
4713 1 19.118 92.9803 -0.240576
11099 2 20.9353 92.9751 1.08796
11146 2 18.2083 91.3931 1.06838
11173 2 13.6712 77.1294 3.52714
4767 1 12.7634 78.7122 4.80436
11200 2 10.9428 78.7135 3.53046
4722 1 15.4918 77.1293 4.80099
11174 2 16.3991 78.7135 3.53046
4668 1 20.9481 77.1293 4.80099
11121 2 19.1275 77.1294 3.52714
4720 1 18.2196 78.7122 4.80436
11159 2 13.6705 80.2975 3.53596
4752 1 12.7622 81.8775 4.81771
11201 2 10.9418 81.8812 3.54359
4721 1 15.491 80.2949 4.80995
11157 2 16.398 81.8812 3.54359
4667 1 20.9473 80.2949 4.80995
11120 2 19.1267 80.2975 3.53596
4723 1 18.2185 81.8775 4.81771
11158 2 13.6691 83.4646 3.5533
4753 1 12.7605 85.0415 4.83948
11192 2 10.9401 85.0476 3.56501
4707 1 15.4895 83.4597 4.82758
11160 2 16.3963 85.0476 3.56501
4666 1 20.9458 83.4597 4.82758
11113 2 19.1253 83.4646 3.5533
4705 1 18.2167 85.0415 4.83948
4744 1 12.7582 88.204 4.86898
11144 2 13.6672 86.6301 3.57862
4706 1 15.4875 86.623 4.85332
4708 1 18.2144 88.204 4.86898
4659 1 20.9437 86.623 4.85332
11112 2 19.1234 86.6301 3.57862
11193 2 10.938 88.2121 3.59402
11143 2 13.6649 89.7936 3.6111
11142 2 16.3942 88.2121 3.59402
4692 1 15.485 89.7845 4.88635
11098 2 19.1211 89.7936 3.6111
4658 1 20.9413 89.7845 4.88635
11191 2 10.9355 91.3745 3.62971
11133 2 13.6623 92.9548 3.64971
4745 1 12.7556 91.3645 4.90528
11145 2 16.3918 91.3745 3.62971
4691 1 15.4823 92.9439 4.92562
11097 2 19.1186 92.9548 3.64971
4690 1 18.2118 91.3645 4.90528
4644 1 20.9385 92.9439 4.92562
4718 1 13.6751 77.1326 7.36784
11155 2 11.8549 77.1316 6.09014
4750 1 10.9466 78.7136 7.3715
11152 2 12.7666 78.7141 8.65799
11106 2 15.4951 77.134 8.6542
11118 2 17.3112 77.1316 6.09014
4719 1 16.4029 78.7136 7.3715
11153 2 14.5827 78.7136 6.09367
4665 1 19.1314 77.1326 7.36784
11064 2 20.9514 77.134 8.6542
11104 2 18.2228 78.7141 8.65799
11119 2 20.0389 78.7136 6.09367
4703 1 13.6741 80.2944 7.37745
11154 2 11.854 80.2955 6.09945
4751 1 10.9452 81.875 7.38566
11136 2 12.765 81.8737 8.67254
11105 2 15.494 80.294 8.66413
11110 2 17.3103 80.2955 6.09945
4701 1 16.4015 81.875 7.38566
11156 2 14.5814 81.8771 6.10744
4664 1 19.1304 80.2944 7.37745
11063 2 20.9502 80.294 8.66413
11107 2 18.2212 81.8737 8.67254
11108 2 20.0377 81.8771 6.10744
4702 1 13.6724 83.4553 7.39606
11140 2 11.8524 83.4585 6.11756
11137 2 12.7627 85.0322 8.6959
4742 1 10.9432 85.0353 7.40854
11091 2 15.492 83.4531 8.68316
11109 2 17.3086 83.4585 6.11756
4704 1 16.3994 85.0353 7.40854
11138 2 14.5795 85.0394 6.12973
4657 1 19.1286 83.4553 7.39606
11062 2 20.9483 83.4531 8.68316
11089 2 18.2189 85.0322 8.6959
11111 2 20.0357 85.0394 6.12973
4688 1 13.67 86.615 7.42302
11139 2 11.8502 86.62 6.14384
11128 2 12.7599 88.1893 8.72726
4743 1 10.9406 88.1942 7.43936
11090 2 15.4894 86.611 8.71064
11095 2 17.3065 86.62 6.14384
4686 1 16.3968 88.1942 7.43936
11141 2 14.5771 88.2002 6.15979
4656 1 19.1263 86.615 7.42302
11056 2 20.9457 86.611 8.71064
11092 2 18.2161 88.1893 8.72726
11093 2 20.0333 88.2002 6.15979
4687 1 13.6673 89.7729 7.45743
11132 2 11.8477 89.7798 6.17743
11129 2 12.7567 91.3447 8.7655
4741 1 10.9377 91.3512 7.47707
11079 2 15.4865 89.7672 8.74559
11094 2 17.3039 89.7798 6.17743
4689 1 16.394 91.3512 7.47707
4643 1 19.1236 89.7729 7.45743
11055 2 20.9427 89.7672 8.74559
11077 2 18.213 91.3447 8.7655
4677 1 13.6643 92.929 7.49813
11131 2 11.8448 92.9375 6.21721
11559 2 12.7534 94.4982 8.80933
11078 2 15.4832 92.9217 8.78681
11080 2 17.301 92.9375 6.21721
11130 2 14.5744 91.3589 6.19662
4642 1 19.1205 92.929 7.49813
11048 2 20.9394 92.9217 8.78681
11096 2 20.0306 91.3589 6.19662
11524 2 18.2096 94.4982 8.80933
4699 1 11.8592 77.1351 9.93288
11102 2 13.6797 77.1362 11.2182
11134 2 10.9509 78.7144 11.2223
4696 1 12.7715 78.7146 12.5012
4662 1 17.3155 77.1351 9.93288
4650 1 15.5003 77.1373 12.4969
4697 1 14.5868 78.7143 9.93684
11103 2 16.4072 78.7144 11.2223
11061 2 19.1359 77.1362 11.2182
4620 1 20.9566 77.1373 12.4969
4663 1 20.0431 78.7143 9.93684
4648 1 18.2277 78.7146 12.5012
4698 1 11.8579 80.2932 9.9432
11087 2 13.6782 80.2924 11.2289
11135 2 10.9489 81.8702 11.2378
4680 1 12.7691 81.8686 12.5173
4654 1 17.3142 80.2932 9.9432
4649 1 15.4985 80.2917 12.508
4700 1 14.585 81.872 9.95191
11085 2 16.4051 81.8702 11.2378
11060 2 19.1344 80.2924 11.2289
4619 1 20.9548 80.2917 12.508
4652 1 20.0413 81.872 9.95191
4651 1 18.2253 81.8686 12.5173
4684 1 11.8557 83.4505 9.96289
11086 2 13.6756 83.4478 11.249
11126 2 10.946 85.0251 11.2624
4681 1 12.7659 85.0218 12.5428
4653 1 17.312 83.4505 9.96289
4636 1 15.4957 83.4454 12.5289
11088 2 16.4022 85.0251 11.2624
4682 1 14.5825 85.0287 9.97604
11054 2 19.1319 83.4478 11.249
4618 1 20.9519 83.4454 12.5289
4634 1 18.2221 85.0218 12.5428
4655 1 20.0387 85.0287 9.97604
4683 1 11.8529 86.6066 9.99125
11075 2 13.6725 86.6021 11.2779
11127 2 10.9426 88.1787 11.2953
4672 1 12.7621 88.1737 12.5769
4640 1 17.3092 86.6066 9.99125
4635 1 15.4922 86.5979 12.5589
11073 2 16.3988 88.1787 11.2953
4685 1 14.5795 88.1841 10.0084
11053 2 19.1287 86.6021 11.2779
4615 1 20.9484 86.5979 12.5589
4637 1 18.2184 88.1737 12.5769
4638 1 20.0357 88.1841 10.0084
4676 1 11.8497 89.7612 10.0272
11074 2 13.6689 89.7549 11.3145
11125 2 10.9389 91.3307 11.3353
4639 1 17.3059 89.7612 10.0272
11076 2 16.3952 91.3307 11.3353
4674 1 14.5761 91.3378 10.0477
11047 2 19.1251 89.7549 11.3145
4641 1 20.0324 91.3378 10.0477
4675 1 11.8462 92.914 10.0696
11068 2 13.6651 92.9061 11.3575
11558 2 10.935 94.4811 11.3808
4629 1 17.3025 92.914 10.0696
5100 1 14.5725 94.4898 10.0927
11509 2 16.3913 94.4811 11.3808
11046 2 19.1214 92.9061 11.3575
5045 1 20.0288 94.4898 10.0927
4646 1 13.6861 77.139 15.06
11083 2 11.865 77.1381 13.7818
4678 1 10.9569 78.7143 15.0646
11058 2 17.3212 77.1381 13.7818
4647 1 16.4132 78.7143 15.0646
11081 2 14.5923 78.7143 13.7862
4617 1 19.1423 77.139 15.06
11059 2 20.0485 78.7143 13.7862
4632 1 13.6836 80.2894 15.072
11082 2 11.8629 80.2904 13.7932
4679 1 10.9537 81.8645 15.0819
11051 2 17.3191 80.2904 13.7932
4630 1 16.4099 81.8645 15.0819
11084 2 14.5895 81.8663 13.8027
4616 1 19.1399 80.2894 15.072
11049 2 20.0457 81.8663 13.8027
4631 1 13.6798 83.4393 15.0943
11071 2 11.8596 83.442 13.8146
4670 1 10.9495 85.0139 15.1092
11050 2 17.3158 83.442 13.8146
4633 1 16.4057 85.0139 15.1092
11069 2 14.5858 85.0174 13.8289
4613 1 19.136 83.4393 15.0943
11052 2 20.042 85.0174 13.8289
4624 1 13.6753 86.5882 15.1262
11070 2 11.8556 86.5926 13.8453
4671 1 10.9448 88.1622 15.1454
11044 2 17.3118 86.5926 13.8453
4622 1 16.401 88.1622 15.1454
11072 2 14.5816 88.1674 13.8636
4612 1 19.1315 86.5882 15.1262
11042 2 20.0378 88.1674 13.8636
4673 1 12.7582 91.3241 12.6182
4669 1 10.94 91.3092 15.189
4623 1 13.6705 89.7359 15.1664
11067 2 11.8512 89.7419 13.8838
11065 2 14.5771 91.316 13.9056
4625 1 16.3962 91.3092 15.189
4628 1 15.4883 89.7491 12.5968
11043 2 17.3075 89.7419 13.8838
11045 2 20.0334 91.316 13.9056
4626 1 18.2144 91.3241 12.6182
4614 1 20.9445 89.7491 12.5968
4610 1 19.1267 89.7359 15.1664
5078 1 10.9351 94.4549 15.2382
11066 2 11.8467 92.8898 13.9288
4621 1 13.6656 92.8822 15.2131
5079 1 12.754 94.4729 12.6652
4627 1 15.4842 92.8987 12.6411
11041 2 17.303 92.8898 13.9288
5029 1 16.3913 94.4549 15.2382
11508 2 14.5726 94.4633 13.9532
4611 1 20.9405 92.8987 12.6411
4609 1 19.1219 92.8822 15.2131
5044 1 18.2102 94.4729 12.6652
11465 2 20.0288 94.4633 13.9532
11406 2 13.6951 77.1398 18.9074
4990 1 11.873 77.14 17.6224
11418 2 10.9652 78.7113 18.9126
11424 2 12.7782 78.7134 16.3496
11410 2 15.5075 77.1394 16.3448
4967 1 17.3293 77.14 17.6224
11407 2 16.4215 78.7113 18.9126
4988 1 14.5997 78.713 17.6275
11361 2 19.1513 77.1398 18.9074
11364 2 20.9638 77.1394 16.3448
11408 2 18.2344 78.7134 16.3496
4968 1 20.0559 78.713 17.6275
4989 1 11.8695 80.286 17.6353
11398 2 13.691 80.2829 18.9205
11419 2 10.96 81.8544 18.9313
11420 2 12.7744 81.8612 16.3672
11409 2 15.5046 80.2874 16.3571
4963 1 17.3257 80.286 17.6353
4991 1 14.5951 81.8589 17.6459
11396 2 16.4162 81.8544 18.9313
11360 2 19.1472 80.2829 18.9205
11363 2 20.9609 80.2874 16.3571
4961 1 20.0514 81.8589 17.6459
11411 2 18.2307 81.8612 16.3672
4983 1 11.8643 83.4317 17.6592
11397 2 13.6849 83.426 18.9449
11421 2 12.7695 85.0085 16.3951
11414 2 10.9534 84.9974 18.9611
11402 2 15.5002 83.435 16.38
4962 1 17.3205 83.4317 17.6592
4981 1 14.5895 85.0044 17.6751
11399 2 16.4097 84.9974 18.9611
11353 2 19.1411 83.426 18.9449
11362 2 20.9564 83.435 16.38
4964 1 20.0457 85.0044 17.6751
11400 2 18.2258 85.0085 16.3951
4982 1 11.8584 86.5768 17.6933
11384 2 13.6781 86.5687 18.9797
11416 2 12.7642 88.1548 16.4321
11415 2 10.9466 88.1397 19.0006
11401 2 15.495 86.5818 16.4125
4951 1 17.3146 86.5768 17.6933
4984 1 14.5835 88.149 17.7138
11382 2 16.4029 88.1397 19.0006
11352 2 19.1344 86.5687 18.9797
11355 2 20.9512 86.5818 16.4125
11403 2 18.2204 88.1548 16.4321
4949 1 20.0398 88.149 17.7138
4976 1 11.8525 89.7208 17.7362
11383 2 13.6714 89.7104 19.0235
11417 2 12.7588 91.2998 16.4765
11413 2 10.94 91.2808 19.0481
4950 1 17.3087 89.7208 17.7362
11388 2 15.4896 89.7274 16.4535
4974 1 14.5776 91.2923 17.7603
11385 2 16.3963 91.2808 19.0481
11338 2 19.1277 89.7104 19.0235
11354 2 20.9459 89.7274 16.4535
4952 1 20.0339 91.2923 17.7603
11386 2 18.215 91.2998 16.4765
4975 1 11.8466 92.8635 17.7858
11373 2 13.6649 92.8511 19.074
11831 2 12.7534 94.4437 16.5265
11830 2 10.9336 94.4212 19.1009
4933 1 17.3029 92.8635 17.7858
11387 2 15.4842 92.8719 16.501
11813 2 16.3899 94.4212 19.1009
5376 1 14.5718 94.4345 17.8123
11337 2 19.1212 92.8511 19.074
11339 2 20.9405 92.8719 16.501
11820 2 18.2097 94.4437 16.5265
5350 1 20.0281 94.4345 17.8123
11394 2 11.8842 77.139 21.4701
4987 1 12.7873 78.7102 20.1899
4959 1 15.5176 77.14 20.1846
11358 2 17.3404 77.139 21.4701
11392 2 14.6098 78.7074 21.4754
4908 1 20.9739 77.14 20.1846
4957 1 18.2436 78.7102 20.1899
11359 2 20.066 78.7074 21.4754
11393 2 11.8782 80.2761 21.4837
4979 1 12.781 81.8512 20.2095
4958 1 15.5125 80.2806 20.1982
11350 2 17.3345 80.2761 21.4837
11395 2 14.6023 81.845 21.495
4907 1 20.9688 80.2806 20.1982
4960 1 18.2372 81.8512 20.2095
11348 2 20.0586 81.845 21.495
11380 2 11.8699 83.414 21.5094
4980 1 12.7733 84.9923 20.2406
4947 1 15.5053 83.4217 20.2236
11349 2 17.3261 83.414 21.5094
11378 2 14.5935 84.9831 21.5267
4906 1 20.9616 83.4217 20.2236
4945 1 18.2296 84.9923 20.2406
11351 2 20.0498 84.9831 21.5267
11379 2 11.861 86.5521 21.5468
4972 1 12.7657 88.1328 20.2823
4946 1 15.4976 86.5627 20.2603
11335 2 17.3173 86.5521 21.5468
11381 2 14.5849 88.1209 21.5694
4899 1 20.9538 86.5627 20.2603
4948 1 18.222 88.1328 20.2823
11333 2 20.0411 88.1209 21.5694
11372 2 11.8527 89.6895 21.5941
4973 1 12.7585 91.2721 20.3323
4932 1 15.4902 89.7026 20.3065
11334 2 17.3089 89.6895 21.5941
11370 2 14.5768 91.2578 21.6205
4898 1 20.9464 89.7026 20.3065
4930 1 18.2148 91.2721 20.3323
11336 2 20.0331 91.2578 21.6205
11371 2 11.8449 92.826 21.6482
5370 1 12.7516 94.4105 20.3876
4931 1 15.4832 92.8414 20.3595
11317 2 17.3011 92.826 21.6482
11812 2 14.5692 94.3942 21.6767
4883 1 20.9394 92.8414 20.3595
5349 1 18.2079 94.4105 20.3876
11765 2 20.0255 94.3942 21.6767
4939 1 11.9001 77.1345 25.3117
4955 1 13.7078 77.1384 22.7472
4977 1 10.9765 78.7052 22.7525
11391 2 12.7995 78.7009 24.0388
4902 1 17.3564 77.1345 25.3117
11346 2 15.5313 77.1365 24.0338
4937 1 14.6236 78.6969 25.3162
4956 1 16.4327 78.7052 22.7525
4905 1 19.164 77.1384 22.7472
11292 2 20.9876 77.1365 24.0338
4903 1 20.0798 78.6969 25.3162
11344 2 18.2558 78.7009 24.0388
4938 1 11.8893 80.2604 25.3239
4943 1 13.7003 80.2725 22.7609
4978 1 10.9673 81.8402 22.7725
11376 2 12.789 81.8318 24.0584
4894 1 17.3455 80.2604 25.3239
11345 2 15.5227 80.266 24.0469
4940 1 14.6105 81.8249 25.3353
4941 1 16.4236 81.8402 22.7725
4904 1 19.1566 80.2725 22.7609
11291 2 20.979 80.266 24.0469
4892 1 20.0667 81.8249 25.3353
11347 2 18.2452 81.8318 24.0584
4924 1 11.8752 83.3901 25.3507
4942 1 13.6903 83.4083 22.7875
4970 1 10.957 84.9765 22.8057
11377 2 12.7771 84.9644 24.092
4893 1 17.3314 83.3901 25.3507
11331 2 15.5111 83.398 24.0734
4922 1 14.5965 84.9557 25.3703
4944 1 16.4133 84.9765 22.8057
4897 1 19.1465 83.4083 22.7875
11290 2 20.9674 83.398 24.0734
4895 1 20.0527 84.9557 25.3703
11329 2 18.2333 84.9644 24.092
4923 1 11.8619 86.5212 25.3938
4928 1 13.6802 86.5446 22.827
4971 1 10.9473 88.1125 22.8511
11368 2 12.7661 88.097 24.1385
4879 1 17.3182 86.5212 25.3938
11330 2 15.4996 86.5308 24.1138
4925 1 14.5842 88.0863 25.4206
4926 1 16.4036 88.1125 22.8511
4896 1 19.1364 86.5446 22.827
11283 2 20.9558 86.5308 24.1138
4877 1 20.0404 88.0863 25.4206
11332 2 18.2224 88.097 24.1385
4916 1 11.8506 89.651 25.4499
4927 1 13.671 89.68 22.8775
4969 1 10.9386 91.2472 22.9056
11369 2 12.7563 91.2289 24.1943
4878 1 17.3068 89.651 25.4499
11316 2 15.4892 89.663 24.1655
4914 1 14.5735 91.2154 25.4808
4929 1 16.3948 91.2472 22.9056
11314 2 18.2125 91.2289 24.1943
4880 1 20.0297 91.2154 25.4808
11282 2 20.9454 89.663 24.1655
4882 1 19.1272 89.68 22.8775
11798 2 12.7473 94.361 24.2543
5369 1 10.9304 94.3813 22.9647
4917 1 13.6625 92.8142 22.9348
4915 1 11.8404 92.7798 25.5125
5338 1 16.3866 94.3813 22.9647
5337 1 14.5638 94.3446 25.5442
11315 2 15.4798 92.7948 24.2241
4862 1 17.2967 92.7798 25.5125
11764 2 18.2035 94.361 24.2543
5285 1 20.0201 94.3446 25.5442
11268 2 20.9361 92.7948 24.2241
4881 1 19.1188 92.8142 22.9348
11342 2 13.7245 77.1317 26.5996
4936 1 12.8166 78.6843 27.8824
11374 2 10.991 78.6911 26.6034
11323 2 11.9205 77.125 29.1699
4890 1 15.5517 77.1278 27.8805
11343 2 16.4472 78.6911 26.6034
11286 2 17.3767 77.125 29.1699
11321 2 14.6407 78.6779 29.1701
4842 1 21.0079 77.1278 27.8805
11289 2 19.1807 77.1317 26.5996
4888 1 18.2728 78.6843 27.8824
11287 2 20.0969 78.6779 29.1701
11327 2 13.712 80.2518 26.6103
4920 1 12.7978 81.8038 27.8977
11375 2 10.9759 81.8137 26.6213
11322 2 11.9024 80.2327 29.1738
4889 1 15.5357 80.2432 27.888
11325 2 16.4322 81.8137 26.6213
11278 2 17.3587 80.2327 29.1738
11324 2 14.619 81.7896 29.1829
4841 1 20.992 80.2432 27.888
11288 2 19.1683 80.2518 26.6103
4891 1 18.254 81.8038 27.8977
11276 2 20.0753 81.7896 29.1829
11326 2 13.6959 83.3765 26.6367
4921 1 12.7786 84.9282 27.9346
11366 2 10.9599 84.9397 26.6566
11308 2 11.8797 83.3478 29.1981
4875 1 15.5159 83.3657 27.9134
11328 2 16.4162 84.9397 26.6566
11277 2 17.3359 83.3478 29.1981
11306 2 14.5973 84.9066 29.2197
4840 1 20.9721 83.3657 27.9134
11281 2 19.1521 83.3765 26.6367
4873 1 18.2348 84.9282 27.9346
11279 2 20.0536 84.9066 29.2197
11312 2 13.6808 86.5029 26.6806
4912 1 12.763 88.0518 27.9919
11367 2 10.946 88.0658 26.7082
11307 2 11.86 86.4653 29.2473
4874 1 15.4984 86.4903 27.9612
11310 2 16.4023 88.0658 26.7082
11264 2 17.3163 86.4653 29.2473
4833 1 20.9547 86.4903 27.9612
11280 2 19.137 86.5029 26.6806
4876 1 18.2192 88.0518 27.9919
11311 2 13.668 89.6286 26.7384
4913 1 12.7502 91.1733 28.0595
11365 2 10.9341 91.1914 26.7701
4861 1 15.4845 89.6126 28.0252
11313 2 16.3904 91.1914 26.7701
4832 1 20.9407 89.6126 28.0252
11267 2 19.1242 89.6286 26.7384
4859 1 18.2064 91.1733 28.0595
11301 2 13.6568 92.7548 26.8023
5319 1 12.739 94.2975 28.1267
11797 2 10.9236 94.3192 26.8342
4860 1 15.4725 92.7347 28.0936
11749 2 16.3799 94.3192 26.8342
4821 1 20.9287 92.7347 28.0936
11266 2 19.1131 92.7548 26.8023
5284 1 18.1952 94.2975 28.1267
4886 1 13.7517 77.1199 30.4581
4918 1 11.0131 78.6678 30.4546
11320 2 12.8374 78.6643 31.7417
11274 2 15.5766 77.119 31.7474
4887 1 16.4693 78.6678 30.4546
4839 1 19.2079 77.1199 30.4581
11244 2 21.0329 77.119 31.7474
11272 2 18.2936 78.6643 31.7417
4871 1 13.7272 80.2198 30.4546
4919 1 10.9856 81.7757 30.4611
11304 2 12.8052 81.7591 31.7415
11273 2 15.5502 80.21 31.7365
4869 1 16.4418 81.7757 30.4611
4838 1 19.1834 80.2198 30.4546
11243 2 21.0064 80.21 31.7365
11275 2 18.2614 81.7591 31.7415
4870 1 13.6987 83.3333 30.4761
4910 1 10.9583 84.8914 30.5003
11305 2 12.7755 84.8614 31.7803
11260 2 15.5171 83.3101 31.755
4872 1 16.4145 84.8914 30.5003
4831 1 19.1549 83.3333 30.4761
11242 2 20.9733 83.3101 31.755
11258 2 18.2317 84.8614 31.7803
4857 1 13.6756 86.4484 30.5318
4911 1 10.9389 88.0039 30.5682
11296 2 12.7537 87.9644 31.8527
11259 2 15.4917 86.4128 31.8135
4855 1 16.3951 88.0039 30.5682
11309 2 14.5799 88.0237 29.2792
4830 1 19.1319 86.4484 30.5318
11239 2 20.9479 86.4128 31.8135
11261 2 18.21 87.9644 31.8527
11262 2 20.0362 88.0237 29.2792
4856 1 13.6592 89.5589 30.6064
11300 2 11.8444 89.5822 29.3136
4909 1 10.9238 91.1155 30.6436
11297 2 12.7373 91.0748 31.9307
11252 2 15.473 89.518 31.8924
11263 2 17.3006 89.5822 29.3136
4858 1 16.3801 91.1155 30.6436
11298 2 14.5657 91.1417 29.3487
4820 1 19.1154 89.5589 30.6064
11238 2 20.9292 89.518 31.8924
11250 2 18.1935 91.0748 31.9307
11265 2 20.0219 91.1417 29.3487
4848 1 13.6455 92.6745 30.679
11299 2 11.8313 92.7029 29.3832
11727 2 12.7253 94.1989 31.9998
11251 2 15.4588 92.635 31.9665
11253 2 17.2876 92.7029 29.3832
5269 1 16.3678 94.2367 30.7122
11748 2 14.5539 94.2661 29.4163
11692 2 18.1815 94.1989 31.9998
2246 1 21.8241 94.2367 30.7122
4819 1 19.1017 92.6745 30.679
11235 2 20.9151 92.635 31.9665
11693 2 20.0101 94.2661 29.4163
4867 1 11.957 77.1165 33.0464
11270 2 13.786 77.1182 34.3328
11302 2 11.0389 78.6586 34.3215
4864 1 12.8755 78.6587 35.6446
4836 1 17.4132 77.1165 33.0464
4865 1 14.6729 78.6567 33.0427
11271 2 16.4951 78.6586 34.3215
4824 1 15.6175 77.1185 35.6409
11241 2 19.2422 77.1182 34.3328
4837 1 20.1292 78.6567 33.0427
4806 1 21.0737 77.1185 35.6409
4822 1 18.3317 78.6587 35.6446
4866 1 11.9215 80.1927 33.0333
11256 2 13.7437 80.1947 34.3038
11303 2 10.9865 81.7241 34.2905
4849 1 12.8156 81.7021 35.6246
4828 1 17.3777 80.1927 33.0333
4868 1 14.6265 81.737 33.0266
11254 2 16.4428 81.7241 34.2905
4823 1 15.5786 80.1983 35.6582
11240 2 19.1999 80.1947 34.3038
4826 1 20.0828 81.737 33.0266
4805 1 21.0348 80.1983 35.6582
4825 1 18.2718 81.7021 35.6246
4853 1 11.8759 83.2893 33.045
11255 2 13.6943 83.2595 34.3035
11294 2 10.945 84.7961 34.3332
4850 1 12.7435 84.738 35.6799
4827 1 17.3321 83.2893 33.045
4851 1 14.5874 84.8387 33.0736
11257 2 16.4012 84.7961 34.3332
4813 1 15.4824 83.1989 35.6383
11237 2 19.1506 83.2595 34.3035
4829 1 20.0436 84.8387 33.0736
4804 1 20.9386 83.1989 35.6383
4811 1 18.1997 84.738 35.6799
4852 1 11.8476 86.3851 33.1139
11248 2 13.661 86.3341 34.381
11295 2 10.9209 87.8776 34.4294
4843 1 12.725 87.8034 35.7615
4817 1 17.3038 86.3851 33.1139
4854 1 14.5665 87.93 33.1571
11246 2 16.3771 87.8776 34.4294
4812 1 15.4639 86.2568 35.7263
4814 1 18.1812 87.8034 35.7615
11236 2 19.1172 86.3341 34.381
4815 1 20.0228 87.93 33.1571
4803 1 20.9201 86.2568 35.7263
4847 1 11.8292 89.4795 33.197
11247 2 13.64 89.4279 34.4742
4844 1 12.7129 90.9192 35.8277
4845 1 14.5495 91.0338 33.2342
4809 1 15.4466 89.3552 35.7973
4807 1 18.1691 90.9192 35.8277
4816 1 17.2854 89.4795 33.197
11249 2 16.3609 90.9852 34.514
8029 2 21.8172 90.9852 34.514
4802 1 20.9029 89.3552 35.7973
4818 1 20.0058 91.0338 33.2342
11234 2 19.0962 89.4279 34.4742
5247 1 12.7057 94.0632 35.8827
5268 1 14.5377 94.159 33.2989
11245 2 13.6272 92.5482 34.5496
4846 1 11.8148 92.594 33.2679
4808 1 15.4368 92.4887 35.856
5218 1 18.162 94.0632 35.8827
11677 2 16.3512 94.1162 34.5817
4810 1 17.2711 92.594 33.2679
11233 2 19.0835 92.5482 34.5496
8462 2 21.8075 94.1162 34.5817
5219 1 19.994 94.159 33.2989
4801 1 20.893 92.4887 35.856
11446 2 12.0237 77.1362 36.9172
16731 1 13.0968 75.6179 38.2498
11435 2 17.4799 77.1362 36.9172
17116 1 15.8195 77.2081 38.2554
11444 2 14.7367 78.6765 36.8979
16701 1 18.5531 75.6179 38.2498
11436 2 20.193 78.6765 36.8979
14304 1 21.2758 77.2081 38.2554
11445 2 11.9547 80.2189 36.8685
17117 1 13.0961 78.8596 38.246
11432 2 17.4109 80.2189 36.8685
17118 1 15.8276 80.5644 38.3128
11447 2 14.5947 81.7054 36.863
17082 1 18.5523 78.8596 38.246
11430 2 20.051 81.7054 36.863
14302 1 21.2839 80.5644 38.3128
11442 2 11.8285 83.1882 36.8227
17113 1 13.0924 82.4104 38.3876
11431 2 17.2847 83.1882 36.8227
17111 1 16.0857 84.1386 38.431
11440 2 14.566 84.6809 36.8846
17081 1 18.5487 82.4104 38.3876
11433 2 20.0222 84.6809 36.8846
14303 1 21.542 84.1386 38.431
11441 2 11.8226 86.2104 36.9432
17112 1 13.5466 85.9432 38.3292
11443 2 14.5379 87.7475 37.0055
11428 2 17.2789 86.2104 36.9432
17114 1 16.3 87.5469 38.3621
17076 1 19.0028 85.9432 38.3292
11426 2 19.9941 87.7475 37.0055
14300 1 21.7562 87.5469 38.3621
11439 2 11.8038 89.3045 37.0522
17102 1 13.586 89.1611 38.3882
11437 2 14.5267 90.8696 37.092
11427 2 17.2601 89.3045 37.0522
17100 1 16.3218 90.7601 38.4096
17075 1 19.0423 89.1611 38.3882
11429 2 19.983 90.8696 37.092
14301 1 21.7781 90.7601 38.4096
11856 2 14.5217 94.019 37.1571
11438 2 11.7955 92.442 37.1264
17101 1 13.599 92.3573 38.4328
11425 2 17.2517 92.442 37.1264
17103 1 16.3301 93.9504 38.4562
11842 2 19.978 94.019 37.1571
17062 1 19.0552 92.3573 38.4328
14299 1 21.7863 93.9504 38.4562
22739 2 12.4164 77.2738 39.4865
16729 1 11.5378 75.665 40.7844
22329 2 13.4056 75.6569 42.0203
17115 1 14.2799 77.3348 40.7673
22721 2 16.1456 77.3162 42.004
16681 1 16.9941 75.665 40.7844
22343 2 15.132 75.6312 39.5071
22728 2 17.8727 77.2738 39.4865
17078 1 19.7361 77.3348 40.7673
22293 2 18.8618 75.6569 42.0203
22295 2 20.5883 75.6312 39.5071
19918 2 21.6018 77.3162 42.004
22740 2 12.4861 80.6119 39.4154
22722 2 13.4386 78.9886 41.9786
17109 1 11.5936 79.0248 40.7216
17107 1 14.3967 80.7165 40.6299
22726 2 15.169 78.9139 39.4564
22723 2 16.1982 80.6688 41.9472
17079 1 17.0499 79.0248 40.7216
22724 2 17.9424 80.6119 39.4154
17080 1 19.8529 80.7165 40.6299
22677 2 18.8949 78.9886 41.9786
22680 2 20.6253 78.9139 39.4564
19914 2 21.6544 80.6688 41.9472
22736 2 12.6551 84.2762 39.4423
17108 1 11.7411 82.4326 40.5675
22714 2 13.5095 82.3416 41.9455
17110 1 14.462 84.0216 40.7091
22725 2 15.2727 82.4102 39.3848
17073 1 17.1974 82.4326 40.5675
22712 2 16.2731 84.0057 41.9789
22727 2 18.1114 84.2762 39.4423
19915 2 21.7293 84.0057 41.9789
17071 1 19.9183 84.0216 40.7091
22676 2 18.9658 82.3416 41.9455
22679 2 20.729 82.4102 39.3848
22737 2 12.6906 87.5255 39.5734
17098 1 11.715 85.687 40.8606
22713 2 13.571 85.6827 42.051
17096 1 14.4612 87.3383 40.8983
22718 2 15.4142 85.9061 39.5166
17072 1 17.1713 85.687 40.8606
22715 2 16.3151 87.3429 42.109
22716 2 18.1469 87.5255 39.5734
19910 2 21.7713 87.3429 42.109
17074 1 19.9174 87.3383 40.8983
22669 2 19.0273 85.6827 42.051
22678 2 20.8705 85.9061 39.5166
22732 2 12.6954 90.7259 39.6558
17097 1 11.7533 88.9837 40.9278
22700 2 13.5957 88.9713 42.1585
17099 1 14.4934 90.6084 40.9587
22717 2 15.423 89.1279 39.616
17059 1 17.2095 88.9837 40.9278
22698 2 16.3285 90.5895 42.2006
22719 2 18.1517 90.7259 39.6558
19911 2 21.7847 90.5895 42.2006
17057 1 19.9497 90.6084 40.9587
22668 2 19.0519 88.9713 42.1585
22671 2 20.8793 89.1279 39.616
22733 2 12.6967 93.9121 39.7205
17090 1 11.7725 92.2268 40.9867
22699 2 13.6034 92.2007 42.2377
17088 1 14.506 93.8368 41.0125
17058 1 17.2288 92.2268 40.9867
22701 2 16.3335 93.8074 42.271
22704 2 15.4244 92.3193 39.6897
22702 2 18.1529 93.9121 39.7205
19909 2 21.7898 93.8074 42.271
17060 1 19.9622 93.8368 41.0125
22654 2 19.0596 92.2007 42.2377
22670 2 20.8806 92.3193 39.6897
17105 1 12.5543 77.3502 43.2505
22327 2 11.657 75.6663 44.532
22720 2 14.3912 77.3269 44.5237
16665 1 13.5092 75.6663 45.781
16679 1 15.2668 75.6727 43.2743
22274 2 17.1133 75.6663 44.532
17077 1 18.0105 77.3502 43.2505
17064 1 16.2405 77.3232 45.7757
14284 1 21.6968 77.3232 45.7757
22673 2 19.8474 77.3269 44.5237
16631 1 20.7231 75.6727 43.2743
16629 1 18.9654 75.6663 45.781
17106 1 12.5917 80.6725 43.2014
22710 2 11.6746 78.9843 44.5135
22708 2 14.4211 80.6347 44.5094
17065 1 13.5193 78.972 45.7731
17069 1 15.3044 79.0194 43.2155
22674 2 17.1308 78.9843 44.5135
17067 1 18.048 80.6725 43.2014
17066 1 16.2588 80.6101 45.7809
14272 1 21.715 80.6101 45.7809
17016 1 20.7607 79.0194 43.2155
22675 2 19.8774 80.6347 44.5094
17013 1 18.9755 78.972 45.7731
17094 1 12.6407 83.9286 43.2614
22709 2 11.7151 82.2809 44.5205
22711 2 14.465 83.9237 44.5475
17051 1 13.5458 82.2432 45.7971
17068 1 15.3434 82.2959 43.2254
22666 2 17.1714 82.2809 44.5205
17070 1 18.0969 83.9286 43.2614
17049 1 16.2898 83.8731 45.8258
14273 1 21.7461 83.8731 45.8258
17015 1 20.7996 82.2959 43.2254
22664 2 19.9213 83.9237 44.5475
17012 1 19.0021 82.2432 45.7971
17095 1 12.6708 87.2139 43.3905
22696 2 11.7534 85.5662 44.5908
22694 2 14.4965 87.2093 44.6422
17050 1 13.5777 85.5025 45.8639
17055 1 15.3926 85.5674 43.3142
22665 2 17.2096 85.5662 44.5908
17053 1 18.1271 87.2139 43.3905
17052 1 16.3178 87.1344 45.9118
14264 1 21.774 87.1344 45.9118
17014 1 20.8488 85.5674 43.3142
22667 2 19.9527 87.2093 44.6422
17005 1 19.0339 85.5025 45.8639
17086 1 12.6797 90.4896 43.4871
22695 2 11.7776 88.8471 44.6921
22697 2 14.5116 90.4758 44.7366
17054 1 15.4013 88.8556 43.4472
22651 2 17.2338 88.8471 44.6921
17056 1 18.1359 90.4896 43.4871
17007 1 20.8575 88.8556 43.4472
22649 2 19.9679 90.4758 44.7366
17087 1 12.6905 93.7358 43.5541
22688 2 11.7875 92.0968 44.7765
22686 2 14.5185 93.7126 44.8126
17040 1 15.4139 92.1161 43.5222
22650 2 17.2438 92.0968 44.7765
17038 1 18.1468 93.7358 43.5541
22652 2 19.9747 93.7126 44.8126
17006 1 20.8701 92.1161 43.5222
22706 2 12.617 77.3137 47.0603
16663 1 11.7279 75.6606 48.3195
17063 1 14.4575 77.3016 48.3225
16612 1 17.1841 75.6606 48.3195
22272 2 15.3416 75.6644 47.061
22672 2 18.0732 77.3137 47.0603
17009 1 19.9137 77.3016 48.3225
22233 2 20.7978 75.6644 47.061
17047 1 11.7334 78.9388 48.3299
22707 2 12.635 80.5978 47.0699
17045 1 14.468 80.5721 48.3425
17010 1 17.1896 78.9388 48.3299
22662 2 15.3523 78.9583 47.0624
22660 2 18.0913 80.5978 47.0699
17011 1 19.9242 80.5721 48.3425
22614 2 20.8086 78.9583 47.0624
17046 1 11.7489 82.2016 48.3614
22692 2 12.6608 83.8652 47.1111
17048 1 14.4875 83.8285 48.387
17002 1 17.2051 82.2016 48.3614
22661 2 15.3757 82.2329 47.0857
22663 2 18.1171 83.8652 47.1111
17000 1 19.9437 83.8285 48.387
22613 2 20.832 82.2329 47.0857
17032 1 11.7703 85.4545 48.4192
22693 2 12.6837 87.1281 47.1859
17030 1 14.5081 87.0804 48.457
17001 1 17.2266 85.4545 48.4192
22647 2 15.4012 85.4966 47.1456
22645 2 18.1399 87.1281 47.1859
17003 1 19.9643 87.0804 48.457
22612 2 20.8574 85.4966 47.1456
17031 1 11.7877 88.7069 48.4988
22684 2 12.6987 90.3873 47.2725
17033 1 14.5214 90.3335 48.5419
17036 1 13.5972 88.7683 45.9635
16987 1 17.244 88.7069 48.4988
17034 1 16.3298 90.4001 46.0108
22646 2 15.4204 88.759 47.2295
22648 2 18.1549 90.3873 47.2725
14265 1 21.786 90.4001 46.0108
16985 1 19.9776 90.3335 48.5419
22605 2 20.8767 88.759 47.2295
17004 1 19.0534 88.7683 45.9635
17024 1 11.797 91.9587 48.5833
17035 1 13.6051 92.0278 46.0518
22685 2 12.7063 93.6317 47.3505
17022 1 14.5279 93.5816 48.6219
16986 1 17.2532 91.9587 48.5833
17037 1 16.3365 93.651 46.0883
22633 2 15.4312 92.0115 47.3129
22631 2 18.1625 93.6317 47.3505
14263 1 21.7927 93.651 46.0883
16988 1 19.9841 93.5816 48.6219
16990 1 19.0614 92.0278 46.0518
22604 2 20.8875 92.0115 47.3129
17043 1 12.6658 77.2887 50.8783
22260 2 13.5569 75.6613 49.6066
22258 2 11.7641 75.6599 52.1622
22656 2 14.4937 77.288 52.1661
22657 2 16.2873 77.2987 49.6095
16610 1 15.3927 75.6584 50.8738
17008 1 18.1221 77.2887 50.8783
22222 2 17.2203 75.6599 52.1622
19885 2 21.7436 77.2987 49.6095
16580 1 20.8489 75.6584 50.8738
22231 2 19.0131 75.6613 49.6066
22607 2 19.95 77.288 52.1661
17044 1 12.6728 80.5446 50.9023
22658 2 13.5638 78.9336 49.6167
22639 2 11.7686 78.915 52.1748
22637 2 14.5009 80.5403 52.1883
16998 1 15.3966 78.9176 50.8878
22659 2 16.2983 80.5653 49.6289
16996 1 18.129 80.5446 50.9023
22608 2 17.2248 78.915 52.1748
19870 2 21.7546 80.5653 49.6289
16956 1 20.8529 78.9176 50.8878
22611 2 19.02 78.9336 49.6167
22609 2 19.9571 80.5403 52.1883
17028 1 12.6855 83.7933 50.9461
22643 2 13.578 82.1941 49.647
22638 2 11.778 82.1641 52.2067
22640 2 14.5119 83.7866 52.2297
16997 1 15.4067 82.1697 50.9218
22641 2 16.3147 83.8208 49.6713
16999 1 18.1418 83.7933 50.9461
22600 2 17.2342 82.1641 52.2067
19871 2 21.771 83.8208 49.6713
16955 1 20.8629 82.1697 50.9218
22610 2 19.0343 82.1941 49.647
22598 2 19.9682 83.7866 52.2297
17029 1 12.7003 87.0382 51.008
22642 2 13.5951 85.4466 49.7013
22623 2 14.5241 87.0297 52.2881
22625 2 11.7899 85.4084 52.2571
16983 1 15.4211 85.4159 50.975
22644 2 16.3313 87.0719 49.736
16981 1 18.1565 87.0382 51.008
22599 2 17.2462 85.4084 52.2571
19862 2 21.7875 87.0719 49.736
16954 1 20.8774 85.4159 50.975
22603 2 19.0514 85.4466 49.7013
22601 2 19.9803 87.0297 52.2881
22626 2 14.5345 90.2717 52.3572
22624 2 11.8015 88.6509 52.3218
17020 1 12.712 90.2827 51.0822
22629 2 13.6101 88.6971 49.7737
22589 2 17.2577 88.6509 52.3218
16982 1 15.4349 88.6605 51.0441
22627 2 16.344 90.3215 49.8127
16984 1 18.1683 90.2827 51.0822
19863 2 21.8002 90.3215 49.8127
22587 2 19.9907 90.2717 52.3572
16948 1 20.8911 88.6605 51.0441
22602 2 19.0663 88.6971 49.7737
22617 2 14.5419 93.5112 52.4295
22619 2 11.8105 91.892 52.3934
17021 1 12.7191 93.5256 51.1586
22628 2 13.6203 91.9444 49.8514
22588 2 17.2667 91.892 52.3934
16971 1 15.4442 91.9047 51.1208
22630 2 16.3518 93.565 49.8888
16969 1 18.1753 93.5256 51.1586
22590 2 19.9982 93.5112 52.4295
19861 2 21.8081 93.565 49.8888
16947 1 20.9004 91.9047 51.1208
22592 2 19.0766 91.9444 49.8514
22635 2 12.6952 77.2815 54.7266
16600 1 13.5956 75.6585 53.4345
16993 1 16.3247 77.2813 53.4389
22220 2 15.4223 75.6603 54.7227
22606 2 18.1514 77.2815 54.7266
14222 1 21.7809 77.2813 53.4389
16578 1 19.0518 75.6585 53.4345
22213 2 20.8785 75.6603 54.7227
16994 1 13.5986 78.9036 53.4484
22636 2 12.7001 80.5222 54.7485
16995 1 16.3298 80.5251 53.4626
22596 2 15.4253 78.9022 54.7353
22594 2 18.1564 80.5222 54.7485
14206 1 21.786 80.5251 53.4626
16953 1 19.0548 78.9036 53.4484
22578 2 20.8816 78.9022 54.7353
16979 1 13.6058 82.1458 53.4814
22621 2 12.7081 83.7603 54.7876
16977 1 16.3387 83.7658 53.5042
22595 2 15.4319 82.1416 54.766
22597 2 18.1643 83.7603 54.7876
14207 1 21.795 83.7658 53.5042
16952 1 19.062 82.1458 53.4814
22577 2 20.8882 82.1416 54.766
16978 1 13.616 85.3852 53.5308
22622 2 12.7172 86.9967 54.8412
22583 2 18.1735 86.9967 54.8412
16980 1 16.3495 87.0045 53.5607
22585 2 15.4407 85.3786 54.8129
14198 1 21.8058 87.0045 53.5607
22576 2 20.897 85.3786 54.8129
16946 1 19.0722 85.3852 53.5308
22615 2 12.7258 90.2326 54.9047
16967 1 13.6266 88.6236 53.5933
22586 2 18.182 90.2326 54.9047
22584 2 15.4498 88.6147 54.8721
16965 1 16.3593 90.2427 53.6278
14199 1 21.8155 90.2427 53.6278
22575 2 20.906 88.6147 54.8721
16945 1 19.0828 88.6236 53.5933
22616 2 12.7325 93.4673 54.973
16966 1 13.635 91.8616 53.6635
22581 2 15.4575 91.8502 54.9386
16968 1 16.3661 93.4802 53.6994
22579 2 18.1887 93.4673 54.973
22574 2 20.9138 91.8502 54.9386
16939 1 19.0912 91.8616 53.6635
14197 1 21.8224 93.4802 53.6994
17291 1 12.7202 77.2754 58.5651
16598 1 11.7948 75.6599 55.9978
22539 2 13.6207 75.662 57.2852
16992 1 14.5236 77.2772 56.0017
22924 2 16.3496 77.2779 57.2888
16895 1 15.4477 75.6623 58.5616
16573 1 17.251 75.6599 55.9978
17280 1 18.1764 77.2754 58.5651
16949 1 19.9799 77.2772 56.0017
16847 1 20.9039 75.6623 58.5616
22509 2 19.077 75.662 57.2852
20112 2 21.8058 77.2779 57.2888
16975 1 11.7971 78.8944 56.0104
17292 1 12.7234 80.5016 58.5849
22925 2 13.6229 78.8937 57.2968
16973 1 14.5276 80.5113 56.0236
16950 1 17.2534 78.8944 56.0104
17278 1 15.4496 78.8884 58.5729
22926 2 16.3532 80.5093 57.3091
17276 1 18.1796 80.5016 58.5849
17232 1 20.9058 78.8884 58.5729
16951 1 19.9839 80.5113 56.0236
22890 2 19.0792 78.8937 57.2968
20110 2 21.8095 80.5093 57.3091
16974 1 11.8026 82.128 56.0411
17288 1 12.7287 83.728 58.6205
22921 2 13.6279 82.1247 57.3255
16976 1 14.5344 83.7446 56.0623
17277 1 15.4539 82.1148 58.6009
16943 1 17.2588 82.128 56.0411
22919 2 16.3593 83.74 57.3455
17279 1 18.1849 83.728 58.6205
17231 1 20.9102 82.1148 58.6009
16941 1 19.9906 83.7446 56.0623
22889 2 19.0841 82.1247 57.3255
20111 2 21.8155 83.74 57.3455
16963 1 11.8103 85.3609 56.0869
17289 1 12.7353 86.955 58.669
22920 2 13.6347 85.3551 57.3689
16961 1 14.5426 86.9773 56.1145
17270 1 15.46 85.3415 58.6433
16942 1 17.2665 85.3609 56.0869
22922 2 16.3665 86.9703 57.3951
17268 1 18.1915 86.955 58.669
17230 1 20.9163 85.3415 58.6433
16944 1 19.9988 86.9773 56.1145
22884 2 19.0909 85.3551 57.3689
20108 2 21.8227 86.9703 57.3951
16962 1 11.8186 88.5936 56.1445
17284 1 12.742 90.1826 58.7269
22929 2 10.9173 90.2006 57.4543
22910 2 13.642 88.5854 57.4238
16964 1 14.5506 90.21 56.1764
17269 1 15.4668 88.5687 58.697
16936 1 17.2749 88.5936 56.1445
22908 2 16.3735 90.2006 57.4543
17223 1 20.9231 88.5687 58.697
17271 1 18.1982 90.1826 58.7269
16934 1 20.0068 90.21 56.1764
22883 2 19.0982 88.5854 57.4238
16959 1 11.8259 91.8264 56.2097
17285 1 12.7477 93.4106 58.7908
22927 2 10.9233 93.4308 57.519
22909 2 13.6486 91.8158 57.4862
16957 1 14.5569 93.4426 56.2438
17256 1 15.4731 91.7966 58.7583
16935 1 17.2821 91.8264 56.2097
22911 2 16.3795 93.4308 57.519
17222 1 20.9293 91.7966 58.7583
17254 1 18.2039 93.4106 58.7908
16937 1 20.0132 93.4426 56.2438
22870 2 19.1048 91.8158 57.4862
16881 1 13.6426 75.6655 61.1253
22537 2 11.8168 75.6646 59.8482
22923 2 14.5455 77.2763 59.8513
22913 2 12.7397 77.276 62.4134
17290 1 10.915 77.275 61.1282
17273 1 16.3712 77.275 61.1282
22489 2 17.2731 75.6646 59.8482
22487 2 15.4674 75.6678 62.4107
22886 2 20.0017 77.2763 59.8513
16845 1 19.0989 75.6655 61.1253
22885 2 18.1959 77.276 62.4134
22439 2 20.9236 75.6678 62.4107
17274 1 13.6441 78.8846 61.1352
17286 1 10.9176 80.4944 61.1462
22917 2 11.8185 78.8881 59.8585
22915 2 14.5483 80.5 59.8698
22914 2 12.742 80.4929 62.4303
17275 1 16.3738 80.4944 61.1462
22887 2 17.2747 78.8881 59.8585
22877 2 15.4687 78.8844 62.4199
17229 1 19.1004 78.8846 61.1352
22888 2 20.0046 80.5 59.8698
22824 2 20.925 78.8844 62.4199
22875 2 18.1982 80.4929 62.4303
17266 1 13.6477 82.1045 61.1609
17287 1 10.922 83.7147 61.179
22916 2 11.8224 82.1119 59.8849
22902 2 12.7459 83.7105 62.4614
22918 2 14.5531 83.7239 59.9035
17264 1 16.3782 83.7147 61.179
22881 2 17.2786 82.1119 59.8849
22876 2 15.4719 82.1016 62.4442
17228 1 19.1039 82.1045 61.1609
22879 2 20.0093 83.7239 59.9035
22823 2 20.9281 82.1016 62.4442
22878 2 18.2022 83.7105 62.4614
17265 1 13.6527 85.3253 61.2002
17282 1 10.9274 86.9362 61.2242
22906 2 11.8278 85.336 59.9252
22903 2 12.7509 86.9293 62.5047
17267 1 16.3837 86.9362 61.2242
22880 2 17.2841 85.336 59.9252
22904 2 14.559 86.9483 59.9497
22863 2 15.4764 85.3198 62.4817
17221 1 19.109 85.3253 61.2002
22882 2 20.0152 86.9483 59.9497
22822 2 20.9327 85.3198 62.4817
22861 2 18.2071 86.9293 62.5047
17252 1 13.6584 88.5473 61.2506
17283 1 10.9332 90.1588 61.2789
22905 2 11.8339 88.5608 59.9765
22894 2 12.7561 90.1494 62.5574
17250 1 16.3894 90.1588 61.2789
22867 2 17.2901 88.5608 59.9765
22907 2 14.565 90.1735 60.0053
22862 2 15.4816 88.5392 62.5301
17220 1 19.1147 88.5473 61.2506
22865 2 20.0212 90.1735 60.0053
22815 2 20.9379 88.5392 62.5301
22864 2 18.2124 90.1494 62.5574
17251 1 13.664 91.7705 61.3088
17281 1 10.9383 93.3823 61.3399
22898 2 11.8397 91.7863 60.0356
17253 1 16.3945 93.3823 61.3399
22866 2 17.2959 91.7863 60.0356
22896 2 14.5703 93.3991 60.067
22848 2 15.4868 91.7598 62.5864
17206 1 19.1202 91.7705 61.3088
22868 2 20.0266 93.3991 60.067
22814 2 20.943 91.7598 62.5864
22912 2 10.9325 77.2766 64.9746
16879 1 11.8362 75.6692 63.6887
22473 2 13.6604 75.6716 64.9724
17272 1 14.5646 77.2756 63.6912
22872 2 16.3888 77.2766 64.9746
16826 1 17.2924 75.6692 63.6887
17225 1 20.0209 77.2756 63.6912
22437 2 19.1166 75.6716 64.9724
17262 1 11.8374 78.8821 63.6975
22873 2 13.6614 78.8817 64.9805
22900 2 10.9344 80.487 64.99
17226 1 17.2936 78.8821 63.6975
17260 1 14.5668 80.4889 63.7075
22874 2 16.3907 80.487 64.99
17227 1 20.023 80.4889 63.7075
22821 2 19.1176 78.8817 64.9805
17261 1 11.8403 82.096 63.7211
22859 2 13.6641 82.0926 65.0029
22901 2 10.9378 83.6986 65.0191
17218 1 17.2966 82.096 63.7211
17263 1 14.5705 83.7034 63.738
22857 2 16.394 83.6986 65.0191
17216 1 20.0267 83.7034 63.738
22820 2 19.1203 82.0926 65.0029
17248 1 11.8446 85.3112 63.7579
22858 2 13.668 85.3049 65.0382
22892 2 10.9421 86.9117 65.0599
17217 1 17.3009 85.3112 63.7579
17246 1 14.5752 86.9194 63.7805
22860 2 16.3984 86.9117 65.0599
17219 1 20.0314 86.9194 63.7805
22813 2 19.1242 85.3049 65.0382
17247 1 11.8496 88.528 63.8054
22844 2 13.6726 88.5189 65.084
22893 2 10.9469 90.1266 65.1102
17203 1 17.3058 88.528 63.8054
17249 1 14.5802 90.1371 63.8325
22842 2 16.4031 90.1266 65.1102
17201 1 20.0364 90.1371 63.8325
22812 2 19.1288 88.5189 65.084
17240 1 11.8545 91.7465 63.8611
22843 2 13.6773 91.7348 65.1381
22891 2 10.9514 93.3434 65.1673
22895 2 12.761 93.3706 62.6166
17202 1 17.3107 91.7465 63.8611
17238 1 14.5849 93.3562 63.8911
22845 2 16.4076 93.3434 65.1673
22846 2 18.2173 93.3706 62.6166
17204 1 20.0411 93.3562 63.8911
22798 2 19.1335 91.7348 65.1381
17258 1 12.7568 77.277 66.2549
22471 2 11.852 75.6758 67.5323
17257 1 10.9477 77.2793 68.8229
16812 1 13.6757 75.6789 68.8211
22871 2 14.5803 77.2775 67.5341
16824 1 15.4847 75.6735 66.2528
22420 2 17.3082 75.6758 67.5323
17209 1 16.404 77.2793 68.8229
17224 1 18.2131 77.277 66.2549
22817 2 20.0366 77.2775 67.5341
16785 1 20.9409 75.6735 66.2528
16783 1 19.1319 75.6789 68.8211
17259 1 12.7586 80.4844 66.2699
22855 2 11.8528 78.8793 67.5394
17210 1 13.6764 78.8799 68.8282
17242 1 10.9492 80.4807 68.8369
17214 1 15.4856 78.8806 66.2606
22818 2 17.309 78.8793 67.5394
22853 2 14.5819 80.4814 67.5482
17211 1 16.4055 80.4807 68.8369
17166 1 20.9419 78.8806 66.2606
17212 1 18.2148 80.4844 66.2699
22819 2 20.0381 80.4814 67.5482
17163 1 19.1327 78.8799 68.8282
17244 1 12.7617 83.6932 66.2984
22854 2 11.8551 82.0839 67.5603
17195 1 13.6786 82.0819 68.8489
17243 1 10.952 83.6836 68.864
17213 1 15.4881 82.0886 66.2825
22810 2 17.3113 82.0839 67.5603
22856 2 14.5849 83.6868 67.5755
17193 1 16.4082 83.6836 68.864
17165 1 20.9444 82.0886 66.2825
17215 1 18.218 83.6932 66.2984
22808 2 20.0411 83.6868 67.5755
17162 1 19.1348 82.0819 68.8489
17245 1 12.7659 86.9037 66.3387
22840 2 11.8586 85.2901 67.5936
17194 1 13.6819 85.2858 68.8819
17234 1 10.9557 86.8886 68.9026
17199 1 15.4918 85.2982 66.3172
22809 2 17.3148 85.2901 67.5936
22838 2 14.5888 86.8941 67.6143
17196 1 16.4119 86.8886 68.9026
17164 1 20.9481 85.2982 66.3172
17197 1 18.2221 86.9037 66.3387
22811 2 20.045 86.8941 67.6143
17155 1 19.1381 85.2858 68.8819
17236 1 12.7704 90.1164 66.3885
22839 2 11.8628 88.4986 67.6374
17181 1 13.6858 88.492 68.9255
17235 1 10.9598 90.0962 68.9505
17198 1 15.4962 88.5098 66.3626
22795 2 17.3191 88.4986 67.6374
22841 2 14.5932 90.1038 67.6626
17179 1 16.416 90.0962 68.9505
17157 1 20.9525 88.5098 66.3626
17200 1 18.2266 90.1164 66.3885
22793 2 20.0494 90.1038 67.6626
17154 1 19.142 88.492 68.9255
17237 1 12.7748 93.3312 66.4452
22832 2 11.8673 91.7096 67.6895
17180 1 13.69 91.701 68.9773
17233 1 10.9639 93.3065 69.0056
17185 1 15.5007 91.7235 66.4162
22794 2 17.3235 91.7096 67.6895
22830 2 14.5975 93.3161 67.7179
17182 1 16.4201 93.3065 69.0056
17156 1 20.957 91.7235 66.4162
17183 1 18.231 93.3312 66.4452
22796 2 20.0538 93.3161 67.7179
17144 1 19.1462 91.701 68.9773
22851 2 12.7714 77.2774 70.0884
16810 1 11.8629 75.683 71.4054
17208 1 14.5912 77.2802 71.4071
16774 1 17.3192 75.683 71.4054
22418 2 15.4994 75.6792 70.0867
17159 1 20.0475 77.2802 71.4071
22816 2 18.2277 77.2774 70.0884
22388 2 20.9556 75.6792 70.0867
17191 1 11.8636 78.8775 71.4122
22852 2 12.7729 80.4744 70.1021
17160 1 17.3198 78.8775 71.4122
17189 1 14.5925 80.4751 71.4207
22806 2 15.5001 78.8757 70.0936
17161 1 20.0488 80.4751 71.4207
22764 2 20.9564 78.8757 70.0936
22804 2 18.2291 80.4744 70.1021
17190 1 11.8655 82.0732 71.4323
22836 2 12.7757 83.673 70.1285
17152 1 17.3217 82.0732 71.4323
17192 1 14.5949 83.6718 71.4469
22805 2 15.5023 82.0734 70.1138
17150 1 20.0512 83.6718 71.4469
22763 2 20.9585 82.0734 70.1138
22807 2 18.2319 83.673 70.1285
17177 1 11.8684 85.2711 71.4643
22837 2 12.7793 86.8742 70.1662
17151 1 17.3246 85.2711 71.4643
17175 1 14.5982 86.8711 71.4843
22791 2 15.5055 85.2732 70.1461
17153 1 20.0544 86.8711 71.4843
22762 2 20.9618 85.2732 70.1461
22789 2 18.2356 86.8742 70.1662
17176 1 11.8718 88.472 71.5066
22828 2 12.7834 90.0785 70.2132
17141 1 17.3281 88.472 71.5066
17178 1 14.6018 90.0737 71.531
22790 2 15.5095 88.4759 70.1887
17139 1 20.058 90.0737 71.531
22756 2 20.9657 88.4759 70.1887
22792 2 18.2397 90.0785 70.2132
17171 1 11.8755 91.6763 71.5571
22829 2 12.7876 93.2863 70.2673
17140 1 17.3317 91.6763 71.5571
17169 1 14.6054 93.2798 71.5846
22779 2 15.5136 91.682 70.2395
17142 1 20.0616 93.2798 71.5846
22755 2 20.9699 91.682 70.2395
22777 2 18.2438 93.2863 70.2673
17187 1 12.7474 77.2842 74.0657
22850 2 10.9602 77.2759 72.6295
22406 2 11.8608 75.6864 75.1182
22408 2 13.6881 75.6817 72.6278
22800 2 14.5891 77.2772 75.1198
22801 2 16.4164 77.2759 72.6295
16772 1 15.4756 75.69 74.0641
22381 2 17.3171 75.6864 75.1182
17158 1 18.2037 77.2842 74.0657
22757 2 20.0453 77.2772 75.1198
16765 1 20.9318 75.69 74.0641
22386 2 19.1444 75.6817 72.6278
17188 1 12.7474 80.4734 74.0791
22783 2 11.8613 78.8683 75.1246
22802 2 13.6889 78.8704 72.6345
22834 2 10.9616 80.4652 72.6428
17148 1 15.4756 78.8786 74.0708
22758 2 17.3176 78.8683 75.1246
22781 2 14.59 80.4599 75.1325
22803 2 16.4179 80.4652 72.6428
17130 1 20.9318 78.8786 74.0708
17146 1 18.2037 80.4734 74.0791
22759 2 20.0463 80.4599 75.1325
22761 2 19.1451 78.8704 72.6345
17173 1 12.7474 83.6649 74.1051
22782 2 11.8627 82.0522 75.1435
22787 2 13.691 82.0606 72.6542
22835 2 10.9643 83.6566 72.6685
17147 1 15.4755 82.0688 74.0906
22751 2 17.319 82.0522 75.1435
22784 2 14.5918 83.6454 75.1573
22785 2 16.4206 83.6566 72.6685
17129 1 20.9318 82.0688 74.0906
17149 1 18.2037 83.6649 74.1051
22749 2 20.0481 83.6454 75.1573
22760 2 19.1472 82.0606 72.6542
17174 1 12.7474 86.8596 74.1422
22771 2 11.8648 85.2396 75.1738
22786 2 13.6941 85.2535 72.6857
22826 2 10.9679 86.8514 72.7053
17137 1 15.4755 85.2618 74.1224
22750 2 17.3211 85.2396 75.1738
22769 2 14.5942 86.835 75.1928
22788 2 16.4241 86.8514 72.7053
17128 1 20.9318 85.2618 74.1224
17135 1 18.2036 86.8596 74.1422
22752 2 20.0504 86.835 75.1928
22754 2 19.1504 85.2535 72.6857
17167 1 12.7473 90.0584 74.1885
22770 2 11.8673 88.4316 75.2141
22775 2 13.698 88.4502 72.7273
22827 2 10.9719 90.0502 72.7513
17136 1 15.4755 88.4585 74.1644
22744 2 17.3236 88.4316 75.2141
22772 2 14.5967 90.0296 75.2373
22773 2 16.4281 90.0502 72.7513
17127 1 20.9317 88.4585 74.1644
17138 1 18.2036 90.0584 74.1885
22742 2 20.053 90.0296 75.2373
22753 2 19.1542 88.4502 72.7273
17168 1 12.7471 93.2616 74.2418
22767 2 11.8699 91.629 75.2623
22774 2 13.702 91.6512 72.777
22825 2 10.9759 93.2535 72.8043
22776 2 16.4321 93.2535 72.8043
17133 1 15.4754 91.6595 74.2144
22743 2 17.3261 91.629 75.2623
22765 2 14.5992 93.2298 75.2887
22747 2 19.1583 91.6512 72.777
22745 2 20.0555 93.2298 75.2887
17131 1 18.2034 93.2616 74.2418
17126 1 20.9316 91.6595 74.2144
5183 1 12.7675 94.5747 -2.88205
11625 2 11.8375 96.1635 -1.41827
11633 2 13.6619 96.1842 -3.91609
11640 2 10.9356 94.6006 -3.93697
5170 1 15.4923 96.1575 -2.86065
11595 2 17.2937 96.1635 -1.41827
11631 2 14.5666 94.5815 -1.43974
11632 2 16.3918 94.6006 -3.93697
5124 1 20.9485 96.1575 -2.86065
5172 1 18.2237 94.5747 -2.88205
11594 2 20.0229 94.5815 -1.43974
11598 2 19.1181 96.1842 -3.91609
5184 1 12.7608 97.7395 -2.83834
11624 2 11.8353 99.3244 -1.37279
11629 2 13.6581 99.348 -3.87182
11638 2 10.9318 97.7666 -3.89433
5169 1 15.4854 99.3205 -2.81528
11589 2 17.2915 99.3244 -1.37279
11623 2 14.5645 97.7444 -1.39591
11634 2 16.3881 97.7666 -3.89433
5123 1 20.9417 99.3205 -2.81528
5168 1 18.217 97.7395 -2.83834
11596 2 20.0207 97.7444 -1.39591
11597 2 19.1143 99.348 -3.87182
5180 1 12.7538 100.901 -2.79162
11614 2 11.8331 102.482 -1.32491
11628 2 13.6542 102.507 -3.82517
11639 2 10.928 100.928 -3.84872
5162 1 15.4784 102.48 -2.76751
11588 2 17.2894 102.482 -1.32491
11626 2 14.5623 100.903 -1.34907
11627 2 16.3843 100.928 -3.84872
5122 1 20.9346 102.48 -2.76751
5171 1 18.21 100.901 -2.79162
11587 2 20.0186 100.903 -1.34907
11592 2 19.1105 102.507 -3.82517
5181 1 12.7467 104.058 -2.7431
11613 2 11.831 105.635 -1.27587
11618 2 13.6504 105.662 -3.77732
11636 2 10.9242 104.085 -3.80133
5161 1 15.4713 105.635 -2.71856
11575 2 17.2872 105.635 -1.27587
11612 2 14.5602 104.059 -1.30046
11630 2 16.3804 104.085 -3.80133
5115 1 20.9276 105.635 -2.71856
5160 1 18.2029 104.058 -2.7431
11590 2 20.0164 104.059 -1.30046
11591 2 19.1066 105.662 -3.77732
5176 1 12.7397 107.212 -2.694
11606 2 11.8288 108.785 -1.22678
11617 2 13.6466 108.813 -3.72935
11637 2 10.9204 107.238 -3.75329
5148 1 15.4645 108.787 -2.66957
11574 2 17.285 108.785 -1.22678
11615 2 14.558 107.21 -1.25126
11616 2 16.3766 107.238 -3.75329
5114 1 20.9207 108.787 -2.66957
5163 1 18.196 107.212 -2.694
11573 2 20.0142 107.21 -1.25126
11578 2 19.1029 108.813 -3.72935
5177 1 12.7331 110.362 -2.64538
11605 2 11.8266 111.932 -1.17867
11607 2 13.643 111.96 -3.68226
11635 2 10.9167 110.387 -3.70564
5147 1 15.458 111.935 -2.62156
11557 2 17.2828 111.932 -1.17867
11604 2 14.5558 110.359 -1.20255
11619 2 16.3729 110.387 -3.70564
5099 1 20.9142 111.935 -2.62156
5146 1 18.1893 110.362 -2.64538
11576 2 20.0121 110.359 -1.20255
11577 2 19.0992 111.96 -3.68226
5154 1 11.8406 96.1213 2.39322
5166 1 13.6591 96.1436 -0.198414
5182 1 10.9323 94.5623 -0.220031
11621 2 12.7498 94.5564 1.10876
5118 1 17.2968 96.1213 2.39322
5164 1 14.5701 94.5415 2.37108
5165 1 16.3886 94.5623 -0.220031
11585 2 15.4767 96.1368 1.13064
5117 1 20.0263 94.5415 2.37108
5121 1 19.1153 96.1436 -0.198414
11532 2 20.9329 96.1368 1.13064
11593 2 18.206 94.5564 1.10876
5153 1 11.8378 99.2787 2.4401
5158 1 13.6562 99.3035 -0.15258
5178 1 10.9295 97.724 -0.175878
11622 2 12.7473 97.7165 1.15342
5110 1 17.2941 99.2787 2.4401
5152 1 14.5673 97.7004 2.41628
5167 1 16.3858 97.724 -0.175878
11584 2 15.4742 99.2953 1.17697
5119 1 20.0236 97.7004 2.41628
5120 1 19.1125 99.3035 -0.15258
11531 2 20.9305 99.2953 1.17697
11583 2 18.2036 97.7165 1.15342
5140 1 11.835 102.433 2.48937
5157 1 13.6533 102.46 -0.104329
5179 1 10.9267 100.882 -0.128678
11610 2 12.7448 100.873 1.2011
5109 1 17.2912 102.433 2.48937
5155 1 14.5645 100.856 2.46451
5156 1 16.3829 100.882 -0.128678
11571 2 15.4717 102.451 1.22567
5108 1 20.0208 100.856 2.46451
5113 1 19.1096 102.46 -0.104329
11530 2 20.9279 102.451 1.22567
11586 2 18.2011 100.873 1.2011
5139 1 11.832 105.585 2.53975
5144 1 13.6504 105.614 -0.0548944
5174 1 10.9237 104.037 -0.0796847
11611 2 12.7423 104.027 1.25052
5095 1 17.2883 105.585 2.53975
5138 1 14.5616 104.01 2.51449
5159 1 16.38 104.037 -0.0796847
11570 2 15.4691 105.603 1.27551
5111 1 20.0179 104.01 2.51449
5112 1 19.1066 105.614 -0.0548944
11523 2 20.9253 105.603 1.27551
11569 2 18.1985 104.027 1.25052
5143 1 13.6474 108.764 -0.00543356
5175 1 10.9208 107.189 -0.0300994
11602 2 12.7397 107.178 1.30048
5141 1 14.5587 107.161 2.56498
5142 1 16.377 107.189 -0.0300994
11556 2 15.4665 108.753 1.32531
5093 1 20.0149 107.161 2.56498
5098 1 19.1037 108.764 -0.00543356
11522 2 20.9227 108.753 1.32531
11572 2 18.1959 107.178 1.30048
5133 1 13.6445 111.912 0.0430219
5173 1 10.9178 110.338 0.0189785
11603 2 12.7371 110.327 1.34987
5145 1 16.3741 110.338 0.0189785
11555 2 15.4639 111.9 1.37405
5097 1 19.1007 111.912 0.0430219
11507 2 20.9201 111.9 1.37405
11554 2 18.1933 110.327 1.34987
5150 1 12.7527 94.5228 4.94722
11581 2 13.6596 96.1134 3.69327
11620 2 10.9329 94.5344 3.67095
5106 1 15.4794 96.1012 4.96991
11580 2 16.3891 94.5344 3.67095
5052 1 20.9356 96.1012 4.96991
5116 1 18.209 94.5228 4.94722
11529 2 19.1159 96.1134 3.69327
5151 1 12.7498 97.6789 4.99352
11567 2 13.6568 99.2695 3.74048
11608 2 10.9301 97.6918 3.7165
5105 1 15.4761 99.2565 5.01862
11582 2 16.3863 97.6918 3.7165
5051 1 20.9324 99.2565 5.01862
5104 1 18.206 97.6789 4.99352
11528 2 19.113 99.2695 3.74048
5136 1 12.7464 100.833 5.04358
11566 2 13.6538 102.423 3.79002
11609 2 10.9272 100.847 3.76504
5091 1 15.4729 102.409 5.06892
11565 2 16.3834 100.847 3.76504
5050 1 20.9291 102.409 5.06892
5107 1 18.2026 100.833 5.04358
11521 2 19.1101 102.423 3.79002
5137 1 12.7431 103.985 5.0945
11552 2 13.6508 105.574 3.84061
11600 2 10.9242 103.999 3.81526
5090 1 15.4696 105.56 5.12016
11568 2 16.3805 103.999 3.81526
5043 1 20.9259 105.56 5.12016
5089 1 18.1994 103.985 5.0945
11520 2 19.1071 105.574 3.84061
5132 1 11.8291 108.735 2.59006
5128 1 12.7399 107.135 5.14575
11551 2 13.6478 108.724 3.89106
11601 2 10.9212 107.149 3.86592
5094 1 17.2853 108.735 2.59006
5076 1 15.4663 108.709 5.17114
11550 2 16.3774 107.149 3.86592
5042 1 20.9226 108.709 5.17114
5092 1 18.1961 107.135 5.14575
11506 2 19.104 108.724 3.89106
5131 1 11.8261 111.883 2.63925
5129 1 12.7366 110.283 5.1962
11541 2 13.6448 111.871 3.94033
11599 2 10.9181 110.298 3.9159
5077 1 17.2824 111.883 2.63925
5130 1 14.5557 110.309 2.61485
5075 1 15.4631 111.857 5.22082
11553 2 16.3744 110.298 3.9159
5096 1 20.0119 110.309 2.61485
5028 1 20.9193 111.857 5.22082
5074 1 18.1928 110.283 5.1962
11505 2 19.101 111.871 3.94033
5102 1 13.661 96.0831 7.54381
5149 1 10.9346 94.5063 7.52042
11563 2 11.8418 96.0932 6.26192
11560 2 12.7498 97.65 8.85734
5101 1 16.3908 94.5063 7.52042
11514 2 15.4797 96.0743 8.83291
11526 2 17.298 96.0932 6.26192
11579 2 14.5714 94.5156 6.23903
5049 1 19.1173 96.0831 7.54381
11472 2 20.936 96.0743 8.83291
11525 2 20.0277 94.5156 6.23903
11512 2 18.2061 97.65 8.85734
5087 1 13.6576 99.2354 7.59321
5134 1 10.9312 97.6595 7.56812
11562 2 11.8386 99.2467 6.31024
11544 2 12.7461 100.8 8.90801
5103 1 16.3875 97.6595 7.56812
11513 2 15.4761 99.2253 8.88242
11518 2 17.2948 99.2467 6.31024
11561 2 14.5683 97.6702 6.28572
5048 1 19.1138 99.2354 7.59321
11471 2 20.9324 99.2253 8.88242
11527 2 20.0245 97.6702 6.28572
11515 2 18.2024 100.8 8.90801
5086 1 13.654 102.386 7.64468
5135 1 10.9277 100.811 7.61882
11548 2 11.8352 102.398 6.36078
11545 2 12.7424 103.949 8.95989
5085 1 16.384 100.811 7.61882
11499 2 15.4724 102.375 8.93389
11517 2 17.2914 102.398 6.36078
11564 2 14.565 100.823 6.33536
5041 1 19.1103 102.386 7.64468
11470 2 20.9286 102.375 8.93389
11516 2 20.0212 100.823 6.33536
11497 2 18.1986 103.949 8.95989
5072 1 13.6504 105.535 7.69669
5126 1 10.9241 103.961 7.67068
11547 2 11.8318 105.548 6.41207
11536 2 12.7386 107.098 9.01166
5088 1 16.3803 103.961 7.67068
11498 2 15.4686 105.524 8.98586
11503 2 17.288 105.548 6.41207
11546 2 14.5616 103.974 6.3864
5040 1 19.1066 105.535 7.69669
11464 2 20.9248 105.524 8.98586
11519 2 20.0178 103.974 6.3864
11500 2 18.1948 107.098 9.01166
5071 1 13.6468 108.684 7.74817
5127 1 10.9205 107.11 7.72257
11540 2 11.8283 108.697 6.46299
11537 2 12.7349 110.245 9.06227
5070 1 16.3767 107.11 7.72257
11487 2 15.4648 108.671 9.03717
11502 2 17.2846 108.697 6.46299
11549 2 14.5582 107.123 6.43764
5027 1 19.103 108.684 7.74817
11463 2 20.9211 108.671 9.03717
11501 2 20.0144 107.123 6.43764
11485 2 18.1911 110.245 9.06227
5061 1 13.6432 111.831 7.79812
5125 1 10.9169 110.258 7.77339
11539 2 11.825 111.844 6.51253
5533 1 10.9134 113.405 7.82226
11967 2 12.7313 113.393 9.11085
5073 1 16.3731 110.258 7.77339
11486 2 15.4612 111.819 9.08686
11488 2 17.2812 111.844 6.51253
11538 2 14.5548 110.271 6.48799
5485 1 16.3696 113.405 7.82226
5026 1 19.0994 111.831 7.79812
11456 2 20.9174 111.819 9.08686
11504 2 20.011 110.271 6.48799
11932 2 18.1875 113.393 9.11085
5083 1 11.8426 96.0652 10.1169
11510 2 13.6611 96.0557 11.4052
11542 2 10.931 97.6301 11.4303
5046 1 17.2988 96.0652 10.1169
11511 2 16.3872 97.6301 11.4303
5081 1 14.5688 97.6402 10.1419
11469 2 19.1174 96.0557 11.4052
5047 1 20.025 97.6402 10.1419
5082 1 11.8387 99.2149 10.1675
11495 2 13.657 99.2042 11.456
11543 2 10.9268 100.778 11.4822
5038 1 17.295 99.2149 10.1675
11493 2 16.3831 100.778 11.4822
5084 1 14.5649 100.789 10.1936
11468 2 19.1133 99.2042 11.456
5036 1 20.0211 100.789 10.1936
5068 1 11.8347 102.364 10.2199
11494 2 13.6529 102.352 11.5085
11534 2 10.9226 103.925 11.5349
5037 1 17.291 102.364 10.2199
11496 2 16.3789 103.925 11.5349
5066 1 14.5609 103.938 10.2463
11462 2 19.1091 102.352 11.5085
5039 1 20.0171 103.938 10.2463
5067 1 11.8307 105.511 10.2726
11483 2 13.6487 105.499 11.5611
11535 2 10.9185 107.073 11.5871
5024 1 17.287 105.511 10.2726
11481 2 16.3747 107.073 11.5871
5069 1 14.5569 107.085 10.2987
11461 2 19.1049 105.499 11.5611
5022 1 20.0131 107.085 10.2987
5060 1 11.8268 108.659 10.3244
11482 2 13.6446 108.646 11.6127
11533 2 10.9145 110.22 11.6378
5023 1 17.283 108.659 10.3244
11484 2 16.3708 110.22 11.6378
5058 1 14.553 110.233 10.3497
11455 2 19.1009 108.646 11.6127
5025 1 20.0092 110.233 10.3497
5059 1 11.823 111.806 10.3744
11476 2 13.6408 111.794 11.6623
5484 1 14.5493 113.38 10.3985
5013 1 17.2792 111.806 10.3744
11917 2 16.3671 113.368 11.6862
11454 2 19.097 111.794 11.6623
5429 1 20.0055 113.38 10.3985
8702 2 21.8233 113.368 11.6862
5030 1 13.6607 96.0273 15.2643
11491 2 11.8421 96.0364 13.9785
5062 1 10.9301 97.5996 15.291
5080 1 12.7497 97.6205 12.716
5034 1 15.48 96.0469 12.6902
11466 2 17.2984 96.0364 13.9785
5031 1 16.3863 97.5996 15.291
11489 2 14.5679 97.6094 14.0044
5001 1 19.1169 96.0273 15.2643
5004 1 20.9362 96.0469 12.6902
5032 1 18.2059 97.6205 12.716
11467 2 20.0242 97.6094 14.0044
5016 1 13.6557 99.1717 15.318
11490 2 11.8375 99.1823 14.0309
5063 1 10.9251 100.744 15.3453
5064 1 12.7453 100.767 12.7689
5033 1 15.4756 99.194 12.7423
11459 2 17.2937 99.1823 14.0309
5014 1 16.3814 100.744 15.3453
11492 2 14.5632 100.755 14.0576
5000 1 19.112 99.1717 15.318
5003 1 20.9319 99.194 12.7423
5035 1 18.2015 100.767 12.7689
11457 2 20.0195 100.755 14.0576
5015 1 13.6508 102.316 15.3725
11479 2 11.8328 102.328 14.0843
5054 1 10.9202 103.889 15.3995
5065 1 12.7409 103.914 12.8224
5020 1 15.4712 102.34 12.7957
11458 2 17.289 102.328 14.0843
5017 1 16.3765 103.889 15.3995
11477 2 14.5586 103.901 14.111
4997 1 19.107 102.316 15.3725
5002 1 20.9274 102.34 12.7957
11460 2 20.0148 103.901 14.111
5018 1 18.1971 103.914 12.8224
5008 1 13.646 105.461 15.4262
11478 2 11.8282 105.474 14.1375
5055 1 10.9156 107.034 15.4525
5056 1 12.7365 107.06 12.8752
5019 1 15.4668 105.487 12.849
11452 2 17.2845 105.474 14.1375
5006 1 16.3718 107.034 15.4525
11480 2 14.5542 107.047 14.1635
4996 1 19.1022 105.461 15.4262
4999 1 20.923 105.487 12.849
11450 2 20.0104 107.047 14.1635
5021 1 18.1928 107.06 12.8752
5007 1 13.6415 108.608 15.4782
11475 2 11.8239 108.62 14.1891
5057 1 12.7324 110.207 12.9262
5012 1 15.4625 108.634 12.901
11451 2 17.2802 108.62 14.1891
5009 1 16.3676 110.181 15.5033
11473 2 14.55 110.194 14.2142
1981 1 21.8238 110.181 15.5033
5010 1 18.1886 110.207 12.9262
11453 2 20.0063 110.194 14.2142
4994 1 19.0978 108.608 15.4782
4998 1 20.9188 108.634 12.901
11916 2 14.5462 113.342 14.2622
11474 2 11.82 111.768 14.2385
5005 1 13.6375 111.755 15.5277
5463 1 12.7286 113.355 12.9748
5011 1 15.4586 111.781 12.9508
5413 1 16.3638 113.329 15.5513
11449 2 17.2762 111.768 14.2385
5428 1 18.1848 113.355 12.9748
4993 1 19.0938 111.755 15.5277
2390 1 21.82 113.329 15.5513
11873 2 20.0025 113.342 14.2622
4995 1 20.9148 111.781 12.9508
11814 2 13.6586 95.9913 19.1284
5374 1 11.8408 96.0053 17.8395
11832 2 12.7481 97.587 16.5797
11826 2 10.9274 97.5615 19.1563
11818 2 15.4789 96.0154 16.5528
5351 1 17.2971 96.0053 17.8395
11815 2 16.3837 97.5615 19.1563
5372 1 14.5661 97.5762 17.8672
11769 2 19.1149 95.9913 19.1284
11772 2 20.9351 96.0154 16.5528
11816 2 18.2043 97.587 16.5797
5352 1 20.0223 97.5762 17.8672
5373 1 11.8351 99.1471 17.8951
11806 2 13.6525 99.1319 19.1843
11828 2 12.7428 100.73 16.6342
11827 2 10.9215 100.703 19.2121
11817 2 15.4735 99.1586 16.6069
5347 1 17.2914 99.1471 17.8951
5375 1 14.5605 100.718 17.9229
11804 2 16.3777 100.703 19.2121
11768 2 19.1088 99.1319 19.1843
11771 2 20.9297 99.1586 16.6069
11819 2 18.199 100.73 16.6342
5345 1 20.0167 100.718 17.9229
5367 1 11.8296 102.29 17.9505
11805 2 13.6468 102.274 19.2396
11829 2 12.7377 103.875 16.6883
11810 2 15.4683 102.302 16.6614
5346 1 17.2859 102.29 17.9505
5365 1 14.5551 103.861 17.9777
11761 2 19.1031 102.274 19.2396
11770 2 20.9245 102.302 16.6614
5348 1 20.0114 103.861 17.9777
11808 2 18.1939 103.875 16.6883
5366 1 11.8245 105.434 18.0044
11824 2 12.733 107.02 16.7409
11809 2 15.4634 105.447 16.7149
5335 1 17.2808 105.434 18.0044
5368 1 14.5503 107.007 18.0306
11763 2 20.9196 105.447 16.7149
11811 2 18.1892 107.02 16.7409
5333 1 20.0065 107.007 18.0306
5360 1 11.82 108.58 18.056
11825 2 12.7288 110.167 16.7912
5358 1 14.546 110.154 18.0808
5334 1 17.2762 108.58 18.056
11796 2 15.4589 108.594 16.7664
11794 2 18.185 110.167 16.7912
11762 2 20.9152 108.594 16.7664
5336 1 20.0023 110.154 18.0808
5359 1 11.816 111.728 18.1048
12239 2 12.725 113.316 16.8387
5760 1 14.5424 113.303 18.128
5317 1 17.2722 111.728 18.1048
11795 2 15.455 111.742 16.8153
12228 2 18.1813 113.316 16.8387
11747 2 20.9112 111.742 16.8153
5734 1 19.9986 113.303 18.128
11802 2 11.8375 95.9627 21.7056
5371 1 12.745 97.549 20.4449
5343 1 15.4764 95.9797 20.4162
11766 2 17.2937 95.9627 21.7056
11800 2 14.5621 97.5315 21.7345
5292 1 20.9326 95.9797 20.4162
5341 1 18.2012 97.549 20.4449
11767 2 20.0183 97.5315 21.7345
11801 2 11.8306 99.1009 21.7631
5363 1 12.7387 100.689 20.5019
5342 1 15.4699 99.1187 20.4735
11758 2 17.2868 99.1009 21.7631
11803 2 14.5555 100.671 21.7913
5291 1 20.9261 99.1187 20.4735
5344 1 18.1949 100.689 20.5019
11756 2 20.0117 100.671 21.7913
11822 2 10.916 103.846 19.2667
11788 2 11.8244 102.242 21.819
5364 1 12.733 103.831 20.5569
11786 2 14.5498 103.814 21.846
11807 2 16.3723 103.846 19.2667
5331 1 15.4639 102.26 20.5297
11757 2 17.2807 102.242 21.819
5290 1 20.9201 102.26 20.5297
5329 1 18.1893 103.831 20.5569
11759 2 20.006 103.814 21.846
11792 2 13.6416 105.418 19.2932
11787 2 11.8192 105.386 21.8722
5356 1 12.7281 106.976 20.6093
11789 2 14.545 106.959 21.8977
11790 2 16.3674 106.991 19.3191
5330 1 15.4586 105.403 20.5835
11743 2 17.2754 105.386 21.8722
5332 1 18.1844 106.976 20.6093
11760 2 19.0979 105.418 19.2932
5283 1 20.9148 105.403 20.5835
11741 2 20.0013 106.959 21.8977
8559 2 21.8237 106.991 19.3191
11791 2 13.6371 108.565 19.3443
11780 2 11.8148 108.533 21.9224
5357 1 12.724 110.124 20.6587
11778 2 14.5411 110.108 21.9464
11793 2 16.3633 110.139 19.3687
5316 1 15.4541 108.55 20.6344
11742 2 17.2711 108.533 21.9224
5314 1 18.1803 110.124 20.6587
11746 2 19.0934 108.565 19.3443
5282 1 20.9103 108.55 20.6344
11744 2 19.9974 110.108 21.9464
8557 2 21.8195 110.139 19.3687
11781 2 13.6333 111.714 19.3924
11779 2 11.8114 111.684 21.9695
5754 1 12.7207 113.275 20.7048
12220 2 14.538 113.26 21.9918
5315 1 15.4504 111.699 20.6822
11725 2 17.2676 111.684 21.9695
12221 2 16.3598 113.289 19.4153
5733 1 18.1769 113.275 20.7048
11745 2 19.0896 111.714 19.3924
5267 1 20.9066 111.699 20.6822
12173 2 19.9943 113.26 21.9918
8974 2 21.816 113.289 19.4153
5323 1 11.8313 95.9103 25.5754
5339 1 13.6546 95.9487 22.9947
5361 1 10.9227 97.5166 23.0244
11799 2 12.7392 97.4956 24.3143
5286 1 17.2875 95.9103 25.5754
11754 2 15.4712 95.9279 24.2845
5321 1 14.5552 97.4771 25.6058
5340 1 16.3789 97.5166 23.0244
5289 1 19.1108 95.9487 22.9947
11700 2 20.9275 95.9279 24.2845
5287 1 20.0115 97.4771 25.6058
11752 2 18.1954 97.4956 24.3143
5322 1 11.8233 99.0452 25.6352
5327 1 13.6473 99.0853 23.0536
5362 1 10.9159 100.655 23.0822
11784 2 12.7322 100.634 24.3717
5324 1 14.5481 100.615 25.6636
5278 1 17.2796 99.0452 25.6352
11753 2 15.4636 99.0643 24.3434
5325 1 16.3721 100.655 23.0822
5288 1 19.1035 99.0853 23.0536
11699 2 20.9199 99.0643 24.3434
5276 1 20.0043 100.615 25.6636
11755 2 18.1884 100.634 24.3717
5308 1 11.817 102.186 25.691
5326 1 13.6409 102.225 23.11
11785 2 12.7265 103.777 24.4258
5306 1 14.5425 103.758 25.7174
5277 1 17.2732 102.186 25.691
11739 2 15.4573 102.205 24.3992
5328 1 16.3663 103.797 23.137
11737 2 18.1827 103.777 24.4258
5281 1 19.0972 102.225 23.11
11698 2 20.9135 102.205 24.3992
5279 1 19.9987 103.758 25.7174
2282 1 21.8225 103.797 23.137
5307 1 11.8121 105.331 25.7428
5312 1 13.6357 105.369 23.1631
11776 2 12.7221 106.924 24.4765
5309 1 14.5383 106.906 25.7673
5263 1 17.2683 105.331 25.7428
11738 2 15.4523 105.35 24.4516
5310 1 16.3616 106.943 23.1884
11740 2 18.1783 106.924 24.4765
2283 1 21.8178 106.943 23.1884
5280 1 19.0919 105.369 23.1631
11691 2 20.9085 105.35 24.4516
5261 1 19.9945 106.906 25.7673
5300 1 11.8085 108.482 25.791
5311 1 13.6315 108.517 23.2129
11777 2 12.7187 110.075 24.5238
5298 1 14.5353 110.058 25.8138
5262 1 17.2648 108.482 25.791
11724 2 15.4484 108.499 24.5005
5313 1 16.3579 110.092 23.2365
11722 2 18.175 110.075 24.5238
2281 1 21.8141 110.092 23.2365
5266 1 19.0877 108.517 23.2129
11690 2 20.9046 108.499 24.5005
5264 1 19.9915 110.058 25.8138
5299 1 11.806 111.636 25.8358
5301 1 13.6282 111.669 23.2593
12206 2 12.7162 113.23 24.5678
5721 1 14.5331 113.214 25.8571
5246 1 17.2622 111.636 25.8358
11723 2 15.4455 111.652 24.5462
5722 1 16.355 113.245 23.2813
12172 2 18.1725 113.23 24.5678
2681 1 21.8112 113.245 23.2813
5669 1 19.9894 113.214 25.8571
5265 1 19.0845 111.669 23.2593
11676 2 20.9017 111.652 24.5462
11750 2 13.6471 95.8849 26.8654
5320 1 12.7298 97.4287 28.1889
11782 2 10.9147 97.452 26.8956
5274 1 15.4623 95.8622 28.1585
11751 2 16.371 97.452 26.8956
5272 1 18.1861 97.4287 28.1889
5226 1 20.9185 95.8622 28.1585
11697 2 19.1033 95.8849 26.8654
11735 2 13.6391 99.0206 26.9248
5304 1 12.7229 100.568 28.2455
5273 1 15.4542 98.9973 28.2178
11733 2 16.364 100.591 26.9528
5275 1 18.1792 100.568 28.2455
5225 1 20.9105 98.9973 28.2178
11696 2 19.0953 99.0206 26.9248
8519 2 21.8202 100.591 26.9528
11734 2 13.633 102.163 26.9797
5305 1 12.7181 103.714 28.2974
5259 1 15.4484 102.14 28.272
11736 2 16.3588 103.736 27.0057
5257 1 18.1743 103.714 28.2974
8510 2 21.815 103.736 27.0057
5224 1 20.9046 102.14 28.272
11689 2 19.0893 102.163 26.9797
11720 2 13.6286 105.31 27.0306
5296 1 12.7149 106.865 28.3454
5258 1 15.4444 105.289 28.3219
11718 2 16.3551 106.886 27.0547
5260 1 18.1711 106.865 28.3454
8511 2 21.8113 106.886 27.0547
5217 1 20.9007 105.289 28.3219
11688 2 19.0849 105.31 27.0306
11719 2 13.6255 108.462 27.078
5297 1 12.7128 110.021 28.39
5245 1 15.4418 108.443 28.3681
11721 2 16.3525 110.04 27.1004
5243 1 18.169 110.021 28.39
8509 2 21.8088 110.04 27.1004
5216 1 20.8981 108.443 28.3681
11675 2 19.0818 108.462 27.078
11709 2 13.6235 111.618 27.122
5703 1 12.7115 113.181 28.4317
5244 1 15.4402 111.601 28.4112
12157 2 16.3508 113.197 27.1429
5668 1 18.1678 113.181 28.4317
5205 1 20.8964 111.601 28.4112
11674 2 19.0797 111.618 27.122
8941 2 21.807 113.197 27.1429
5270 1 13.6349 95.8019 30.7433
11731 2 11.8209 95.8315 29.4479
11728 2 12.7175 97.336 32.0597
11729 2 14.5449 97.3991 29.4779
11682 2 15.4491 95.766 32.0307
11694 2 17.2771 95.8315 29.4479
5271 1 16.359 97.3699 30.7726
11680 2 18.1738 97.336 32.0597
2230 1 21.8152 97.3699 30.7726
5223 1 19.0911 95.8019 30.7433
11652 2 20.9053 95.766 32.0307
11695 2 20.0011 97.3991 29.4779
5255 1 13.6276 98.9405 30.8003
11730 2 11.8133 98.9689 29.5065
11712 2 12.7129 100.483 32.113
11732 2 14.5386 100.541 29.5337
11681 2 15.443 98.9086 32.087
11686 2 17.2696 98.9689 29.5065
5253 1 16.3532 100.513 30.8267
11683 2 18.1691 100.483 32.113
2231 1 21.8095 100.513 30.8267
5222 1 19.0839 98.9405 30.8003
11651 2 20.8992 98.9086 32.087
11684 2 19.9948 100.541 29.5337
5254 1 13.6231 102.088 30.8519
11716 2 11.8082 102.114 29.5597
11713 2 12.7104 103.638 32.1615
11714 2 14.5345 103.689 29.5846
11668 2 15.4395 102.06 32.1378
11685 2 17.2644 102.114 29.5597
5256 1 16.3498 103.664 30.876
11666 2 18.1666 103.638 32.1615
2222 1 21.806 103.664 30.876
5215 1 19.0794 102.088 30.8519
11650 2 20.8958 102.06 32.1378
11687 2 19.9907 103.689 29.5846
5241 1 13.6206 105.242 30.8993
11715 2 11.8049 105.266 29.6086
11704 2 12.7092 106.798 32.2066
11717 2 14.5319 106.843 29.6317
11667 2 15.4378 105.217 32.1845
11672 2 17.2611 105.266 29.6086
5239 1 16.3479 106.821 30.9218
11669 2 18.1654 106.798 32.2066
2223 1 21.8041 106.821 30.9218
5214 1 19.0768 105.242 30.8993
11647 2 20.894 105.217 32.1845
11670 2 19.9881 106.843 29.6317
5240 1 13.6192 108.401 30.9435
11708 2 11.8029 108.422 29.654
11705 2 12.7088 109.961 32.2488
11706 2 14.5303 110.002 29.6756
11660 2 15.437 108.379 32.228
11671 2 17.2591 108.422 29.654
5242 1 16.347 109.982 30.9645
11658 2 18.1651 109.961 32.2488
2221 1 21.8032 109.982 30.9645
5204 1 19.0755 108.401 30.9435
11646 2 20.8933 108.379 32.228
11673 2 19.9866 110.002 29.6756
5232 1 13.6187 111.564 30.9849
11707 2 11.8018 111.582 29.6964
12135 2 12.709 113.128 32.2884
12156 2 14.5296 113.163 29.7166
11659 2 15.437 111.544 32.2689
11661 2 17.258 111.582 29.6964
5653 1 16.3467 113.146 31.0046
12100 2 18.1653 113.128 32.2884
5203 1 19.0749 111.564 30.9849
11643 2 20.8932 111.544 32.2689
2630 1 21.803 113.146 31.0046
12101 2 19.9858 113.163 29.7166
5251 1 11.8056 95.728 33.3278
11678 2 13.6202 95.688 34.6111
5249 1 14.5308 97.3002 33.355
5220 1 17.2619 95.728 33.3278
11679 2 16.3462 97.263 34.6385
5208 1 15.4321 95.6407 35.9083
8446 2 21.8025 97.263 34.6385
11649 2 19.0764 95.688 34.6111
5221 1 19.9871 97.3002 33.355
5190 1 20.8883 95.6407 35.9083
5252 1 14.5273 100.452 33.4054
5250 1 11.8006 98.875 33.3808
11664 2 13.6168 98.8403 34.6643
11662 2 16.344 100.42 34.6889
5212 1 17.2568 98.875 33.3808
8447 2 21.8003 100.42 34.6889
5210 1 19.9835 100.452 33.4054
11648 2 19.073 98.8403 34.6643
5235 1 14.5258 103.611 33.4519
5237 1 11.7982 102.031 33.4291
11663 2 13.6155 102.001 34.7125
11665 2 16.3435 103.583 34.7352
5211 1 17.2544 102.031 33.4291
8438 2 21.7997 103.583 34.7352
5213 1 19.982 103.611 33.4519
11645 2 19.0717 102.001 34.7125
11656 2 13.6154 105.166 34.7572
5236 1 11.7974 105.192 33.4741
5238 1 14.5254 106.774 33.4955
5201 1 17.2536 105.192 33.4741
11654 2 16.3438 106.75 34.7785
8439 2 21.8 106.75 34.7785
11644 2 19.0717 105.166 34.7572
5199 1 19.9817 106.774 33.4955
5229 1 14.5258 109.941 33.5367
5231 1 11.7974 108.357 33.5164
11655 2 13.616 108.334 34.7992
11657 2 16.3446 109.919 34.8194
5200 1 17.2537 108.357 33.5164
8437 2 21.8008 109.919 34.8194
5202 1 19.982 109.941 33.5367
11642 2 19.0723 108.334 34.7992
11653 2 13.617 111.505 34.8389
5230 1 11.798 111.525 33.5564
5652 1 14.5266 113.11 33.5755
5194 1 17.2543 111.525 33.5564
12085 2 16.3457 113.091 34.858
5603 1 19.9828 113.11 33.5755
8870 2 21.8019 113.091 34.858
11641 2 19.0733 111.505 34.8389
11854 2 11.7927 95.5993 37.1851
17091 1 13.604 95.5423 38.4796
11852 2 14.5204 97.1819 37.2112
5248 1 12.7029 97.2204 35.9329
11843 2 17.2489 95.5993 37.1851
17476 1 16.3336 97.1331 38.5027
5206 1 18.1592 97.2204 35.9329
17061 1 19.0602 95.5423 38.4796
11844 2 19.9767 97.1819 37.2112
14664 1 21.7899 97.1331 38.5027
11853 2 11.7924 98.7661 37.2359
17477 1 13.6069 98.7235 38.5253
5233 1 12.7024 100.385 35.9797
11855 2 14.5208 100.351 37.2595
11840 2 17.2486 98.7661 37.2359
5207 1 15.4306 98.8019 35.9567
17478 1 16.3363 100.314 38.5476
5209 1 18.1587 100.385 35.9797
17442 1 19.0631 98.7235 38.5253
5189 1 20.8868 98.8019 35.9567
11838 2 19.9771 100.351 37.2595
14662 1 21.7925 100.314 38.5476
11850 2 11.7933 101.938 37.2823
17473 1 13.6094 101.904 38.5694
5234 1 12.7031 103.553 36.0239
11848 2 14.5221 103.524 37.3044
11839 2 17.2495 101.938 37.2823
5197 1 15.4308 101.969 36.0021
17471 1 16.3388 103.494 38.5908
5195 1 18.1593 103.553 36.0239
17441 1 19.0657 101.904 38.5694
5188 1 20.887 101.969 36.0021
11841 2 19.9783 103.524 37.3044
14663 1 21.795 103.494 38.5908
11849 2 11.7948 105.112 37.3258
17472 1 13.6119 105.084 38.6117
5227 1 12.7043 106.725 36.0659
11851 2 14.5237 106.7 37.3467
11836 2 17.251 105.112 37.3258
5196 1 15.4318 105.139 36.0451
17474 1 16.3413 106.674 38.6322
5198 1 18.1606 106.725 36.0659
17436 1 19.0682 105.084 38.6117
5187 1 20.888 105.139 36.0451
11834 2 19.98 106.7 37.3467
14660 1 21.7975 106.674 38.6322
11847 2 11.7965 108.288 37.367
17462 1 13.6144 108.264 38.6522
5228 1 12.7059 109.898 36.1059
11845 2 14.5255 109.876 37.3869
11835 2 17.2527 108.288 37.367
17460 1 16.3437 109.854 38.6718
5193 1 15.4332 108.311 36.0861
5191 1 18.1621 109.898 36.1059
17435 1 19.0706 108.264 38.6522
5186 1 20.8894 108.311 36.0861
11837 2 19.9818 109.876 37.3869
14661 1 21.8 109.854 38.6718
12264 2 14.5274 113.054 37.4249
5631 1 12.7075 113.073 36.1439
11846 2 11.7983 111.465 37.4062
17461 1 13.6168 111.444 38.6909
5602 1 18.1637 113.073 36.1439
11833 2 17.2546 111.465 37.4062
17463 1 16.346 113.035 38.7095
5192 1 15.4348 111.485 36.1251
12250 2 19.9836 113.054 37.4249
17422 1 19.073 111.444 38.6909
5185 1 20.891 111.485 36.1251
14659 1 21.8023 113.035 38.7095
23099 2 12.6983 97.0967 39.7749
17089 1 11.7817 95.4425 41.0375
22689 2 13.6071 95.4109 42.3011
17475 1 14.5128 97.0443 41.0616
23081 2 16.3368 97.0124 42.3291
17041 1 17.238 95.4425 41.0375
22703 2 15.4256 95.5044 39.7486
23088 2 18.1546 97.0967 39.7749
17438 1 19.969 97.0443 41.0616
22653 2 19.0634 95.4109 42.3011
22655 2 20.8818 95.5044 39.7486
20278 2 21.793 97.0124 42.3291
23100 2 12.7006 100.281 39.8234
23082 2 13.6102 98.6123 42.3553
17469 1 11.7871 98.6438 41.0851
17467 1 14.5173 100.241 41.108
23086 2 15.4275 98.6888 39.7997
23083 2 16.3399 100.211 42.3801
17439 1 17.2433 98.6438 41.0851
23084 2 18.1568 100.281 39.8234
17440 1 19.9735 100.241 41.108
23037 2 19.0665 98.6123 42.3553
23040 2 20.8838 98.6888 39.7997
20274 2 21.7961 100.211 42.3801
23096 2 12.7031 103.465 39.8683
17468 1 11.7911 101.838 41.1303
23074 2 13.6132 101.809 42.4039
17470 1 14.5209 103.433 41.152
23085 2 15.4299 101.873 39.8462
17433 1 17.2473 101.838 41.1303
23072 2 16.3429 103.406 42.4268
23087 2 18.1593 103.465 39.8683
17431 1 19.9772 103.433 41.152
23036 2 19.0695 101.809 42.4039
23039 2 20.8862 101.873 39.8462
20275 2 21.7991 103.406 42.4268
23097 2 12.7056 106.649 39.9107
17458 1 11.7945 105.028 41.1733
23073 2 13.6162 105.002 42.449
17456 1 14.5241 106.622 41.1941
23078 2 15.4325 105.057 39.8898
17432 1 17.2507 105.028 41.1733
23075 2 16.3458 106.598 42.4705
23076 2 18.1618 106.649 39.9107
17434 1 19.9804 106.622 41.1941
23029 2 19.0725 105.002 42.449
23038 2 20.8887 105.057 39.8898
20270 2 21.802 106.598 42.4705
23092 2 12.7081 109.832 39.951
17457 1 11.7975 108.216 41.2144
23060 2 13.6191 108.193 42.4914
17459 1 14.5271 109.81 41.2342
23077 2 15.435 108.241 39.9311
17419 1 17.2538 108.216 41.2144
23058 2 16.3485 109.788 42.5117
23079 2 18.1643 109.832 39.951
17417 1 19.9833 109.81 41.2342
23028 2 19.0753 108.193 42.4914
23031 2 20.8912 108.241 39.9311
20271 2 21.8048 109.788 42.5117
23093 2 12.7104 113.016 39.9892
17450 1 11.8003 111.403 41.2535
23059 2 13.6217 111.383 42.5314
17448 1 14.5297 112.996 41.2724
17418 1 17.2566 111.403 41.2535
23061 2 16.3511 112.978 42.5506
23064 2 15.4374 111.424 39.9703
23062 2 18.1666 113.016 39.9892
17420 1 19.986 112.996 41.2724
23014 2 19.078 111.383 42.5314
23030 2 20.8936 111.424 39.9703
20269 2 21.8073 112.978 42.5506
17465 1 12.6972 96.9604 43.6105
22687 2 11.7926 95.3244 44.8454
23080 2 14.5225 96.9332 44.8757
17039 1 15.4223 95.3503 43.5832
22634 2 17.2488 95.3244 44.8454
17437 1 18.1534 96.9604 43.6105
23033 2 19.9788 96.9332 44.8757
16991 1 20.8785 95.3503 43.5832
17466 1 12.7019 100.171 43.661
23070 2 11.7961 98.5395 44.904
23068 2 14.5258 100.144 44.9307
17429 1 15.4278 98.5672 43.6363
23034 2 17.2523 98.5395 44.904
17427 1 18.1582 100.171 43.661
17376 1 20.8841 98.5672 43.6363
23035 2 19.982 100.144 44.9307
17454 1 12.7058 103.374 43.7078
23069 2 11.7992 101.747 44.9561
23071 2 14.5288 103.348 44.9804
17428 1 15.432 101.773 43.6848
23026 2 17.2554 101.747 44.9561
17430 1 18.162 103.374 43.7078
17375 1 20.8883 101.773 43.6848
23024 2 19.985 103.348 44.9804
17455 1 12.7091 106.572 43.7517
23056 2 11.8021 104.949 45.0037
23054 2 14.5317 106.548 45.0263
17415 1 15.4356 104.973 43.7301
23025 2 17.2584 104.949 45.0037
17413 1 18.1654 106.572 43.7517
17374 1 20.8918 104.973 43.7301
23027 2 19.9879 106.548 45.0263
17446 1 12.7122 109.766 43.7932
23055 2 11.8049 108.147 45.0481
23057 2 14.5344 109.745 45.0692
17414 1 15.4388 108.169 43.7728
23011 2 17.2612 108.147 45.0481
17416 1 18.1684 109.766 43.7932
17367 1 20.895 108.169 43.7728
23009 2 19.9907 109.745 45.0692
17447 1 12.7149 112.958 43.8324
23048 2 11.8076 111.343 45.0896
23046 2 14.537 112.94 45.1093
17400 1 15.4417 111.362 43.8131
23010 2 17.2638 111.343 45.0896
17398 1 18.1712 112.958 43.8324
17366 1 20.8979 111.362 43.8131
23012 2 19.9932 112.94 45.1093
23066 2 12.7107 96.8616 47.4178
17023 1 11.802 95.2017 48.6577
17025 1 13.6112 95.2699 46.1216
17423 1 14.5321 96.8189 48.6911
17424 1 16.3417 96.8849 46.1524
16972 1 17.2583 95.2017 48.6577
22632 2 15.4368 95.2482 47.3854
23032 2 18.1669 96.8616 47.4178
17369 1 19.9883 96.8189 48.6911
16989 1 19.0674 95.2699 46.1216
22593 2 20.8931 95.2482 47.3854
14644 1 21.7979 96.8849 46.1524
17407 1 11.8056 98.4335 48.7223
17425 1 13.6157 98.4966 46.1811
23067 2 12.7138 100.081 47.4769
17405 1 14.5353 100.045 48.7518
17370 1 17.2619 98.4335 48.7223
17426 1 16.3457 100.106 46.2083
23022 2 15.4405 98.4725 47.4482
23020 2 18.1701 100.081 47.4769
17371 1 19.9915 100.045 48.7518
17373 1 19.0719 98.4966 46.1811
22974 2 20.8967 98.4725 47.4482
14632 1 21.802 100.106 46.2083
17406 1 11.8086 101.655 48.7797
17411 1 13.6194 101.712 46.2341
23052 2 12.7166 103.293 47.53
17408 1 14.5381 103.263 48.8063
17362 1 17.2649 101.655 48.7797
17409 1 16.3492 103.317 46.2588
23021 2 15.4434 101.688 47.5041
23023 2 18.1729 103.293 47.53
17360 1 19.9944 103.263 48.8063
17372 1 19.0756 101.712 46.2341
22973 2 20.8996 101.688 47.5041
14633 1 21.8054 103.317 46.2588
17392 1 11.8113 104.869 48.8318
17410 1 13.6226 104.92 46.2826
23053 2 12.7192 106.5 47.5787
17390 1 14.5407 106.474 48.8562
17361 1 17.2676 104.869 48.8318
17412 1 16.3523 106.522 46.3055
23007 2 15.4461 104.897 47.5548
23005 2 18.1755 106.5 47.5787
17363 1 19.997 106.474 48.8562
17365 1 19.0789 104.92 46.2826
22972 2 20.9023 104.897 47.5548
14624 1 21.8085 106.522 46.3055
17391 1 11.8139 108.078 48.8797
17396 1 13.6256 108.123 46.3277
23044 2 12.7217 109.702 47.6238
17393 1 14.5432 109.68 48.9023
17347 1 17.2701 108.078 48.8797
17394 1 16.3551 109.723 46.3491
23006 2 15.4486 108.102 47.6017
23008 2 18.178 109.702 47.6238
17345 1 19.9994 109.68 48.9023
17364 1 19.0818 108.123 46.3277
22965 2 20.9049 108.102 47.6017
14625 1 21.8114 109.723 46.3491
17384 1 11.8163 111.282 48.924
17395 1 13.6283 111.322 46.3698
23045 2 12.7241 112.902 47.6657
17382 1 14.5455 112.883 48.945
17346 1 17.2725 111.282 48.924
17397 1 16.3577 112.92 46.3898
22993 2 15.4511 111.303 47.6451
22991 2 18.1803 112.902 47.6657
17348 1 20.0018 112.883 48.945
17350 1 19.0846 111.322 46.3698
22964 2 20.9073 111.303 47.6451
14623 1 21.814 112.92 46.3898
17403 1 12.7231 96.7625 51.2295
22620 2 13.6263 95.1832 49.9244
22618 2 11.8164 95.129 52.4647
23016 2 14.5466 96.7452 52.4989
23017 2 16.3564 96.799 49.9582
16970 1 15.4494 95.145 51.195
17368 1 18.1793 96.7625 51.2295
22582 2 17.2727 95.129 52.4647
16940 1 20.9057 95.145 51.195
22591 2 19.0825 95.1832 49.9244
22967 2 20.0029 96.7452 52.4989
20245 2 21.8127 96.799 49.9582
17404 1 12.7259 99.9917 51.2936
23018 2 13.63 98.4125 49.9901
22999 2 11.8202 98.3597 52.5317
22997 2 14.5497 99.9726 52.5632
17358 1 15.4527 98.3781 51.2624
23019 2 16.3595 100.024 50.0205
17356 1 18.1821 99.9917 51.2936
22968 2 17.2765 98.3597 52.5317
20230 2 21.8158 100.024 50.0205
17316 1 20.9089 98.3781 51.2624
22971 2 19.0862 98.4125 49.9901
22969 2 20.006 99.9726 52.5632
17388 1 12.7282 103.213 51.3516
23003 2 13.6327 101.634 50.0494
22998 2 11.8228 101.584 52.5934
17357 1 15.4552 101.603 51.3233
23001 2 16.362 103.242 50.0769
17359 1 18.1844 103.213 51.3516
22960 2 17.2791 101.584 52.5934
20231 2 21.8183 103.242 50.0769
17315 1 20.9114 101.603 51.3233
22970 2 19.0889 101.634 50.0494
17389 1 12.7303 106.429 51.4047
23002 2 13.6351 104.848 50.1033
17343 1 15.4574 104.822 51.3787
23004 2 16.3643 106.453 50.1285
17341 1 18.1866 106.429 51.4047
20222 2 21.8205 106.453 50.1285
17314 1 20.9136 104.822 51.3787
22963 2 19.0913 104.848 50.1033
17380 1 12.7323 109.64 51.4534
22989 2 13.6373 108.058 50.1528
17342 1 15.4595 108.035 51.4295
22987 2 16.3665 109.661 50.1761
20223 2 21.8227 109.661 50.1761
17308 1 20.9157 108.035 51.4295
17344 1 18.1886 109.64 51.4534
22962 2 19.0935 108.058 50.1528
17381 1 12.7343 112.847 51.4983
22988 2 13.6394 111.264 50.1985
17331 1 15.4614 111.244 51.4763
22990 2 16.3685 112.865 50.22
17307 1 20.9177 111.244 51.4763
17329 1 18.1905 112.847 51.4983
22952 2 19.0956 111.264 50.1985
20221 2 21.8248 112.865 50.22
17402 1 10.9141 96.7147 53.7696
22995 2 12.7372 96.6993 55.0411
16960 1 13.6404 95.098 53.735
17353 1 16.3704 96.7147 53.7696
22580 2 15.4632 95.0838 55.0073
22966 2 18.1934 96.6993 55.0411
16938 1 19.0966 95.098 53.735
22573 2 20.9194 95.0838 55.0073
17354 1 13.6438 98.3301 53.8031
17386 1 10.9169 99.9441 53.8354
22996 2 12.7403 99.9269 55.1063
17355 1 16.3731 99.9441 53.8354
22956 2 15.467 98.3137 55.0742
17313 1 19.1 98.3301 53.8031
22938 2 20.9232 98.3137 55.0742
22954 2 18.1965 99.9269 55.1063
17339 1 13.646 101.557 53.8663
17387 1 10.9189 103.168 53.896
22981 2 12.7425 103.15 55.1673
17337 1 16.3751 103.168 53.896
22955 2 15.4696 101.539 55.1373
23000 2 14.552 103.194 52.6223
17312 1 19.1023 101.557 53.8663
22937 2 20.9258 101.539 55.1373
22957 2 18.1988 103.15 55.1673
22958 2 20.0083 103.194 52.6223
17338 1 13.6479 104.778 53.9245
17378 1 10.9206 106.387 53.9518
22982 2 12.7443 106.368 55.2239
22985 2 11.8249 104.802 52.6501
17340 1 16.3769 106.387 53.9518
22945 2 15.4716 104.76 55.1962
22959 2 17.2812 104.802 52.6501
22983 2 14.554 106.41 52.6767
17306 1 19.1041 104.778 53.9245
22936 2 20.9278 104.76 55.1962
22943 2 18.2005 106.368 55.2239
22961 2 20.0103 106.41 52.6767
22984 2 11.8268 108.016 52.7022
22975 2 12.7458 109.583 55.2762
17379 1 10.9222 109.601 54.0031
17327 1 13.6496 107.994 53.978
22986 2 14.5558 109.621 52.7267
22949 2 17.2831 108.016 52.7022
22944 2 15.4732 107.976 55.2506
17325 1 16.3785 109.601 54.0031
22947 2 20.0121 109.621 52.7267
22946 2 18.2021 109.583 55.2762
22935 2 20.9294 107.976 55.2506
17305 1 19.1058 107.994 53.978
22979 2 11.8286 111.226 52.7502
22976 2 12.7473 112.795 55.3242
17377 1 10.9238 112.811 54.0502
17326 1 13.6511 111.206 54.0272
22977 2 14.5576 112.83 52.7727
22948 2 17.2848 111.226 52.7502
22941 2 15.4747 111.189 55.3007
17328 1 16.38 112.811 54.0502
17299 1 19.1074 111.206 54.0272
22950 2 20.0138 112.83 52.7727
22939 2 18.2035 112.795 55.3242
22934 2 20.9309 111.189 55.3007
17651 1 12.7519 96.6383 58.8571
23292 2 10.9278 96.6597 57.5853
16958 1 11.8312 95.0585 56.2781
22899 2 13.6539 95.0455 57.5521
17352 1 14.5613 96.6738 56.3121
23284 2 16.384 96.6597 57.5853
17255 1 15.4781 95.0246 58.8238
16933 1 17.2874 95.0585 56.2781
17309 1 20.0175 96.6738 56.3121
17640 1 18.2082 96.6383 58.8571
17207 1 20.9343 95.0246 58.8238
22869 2 19.1101 95.0455 57.5521
17335 1 11.8347 98.2884 56.3456
17652 1 12.7549 99.8644 58.9228
23290 2 10.931 99.8861 57.6505
23285 2 13.6576 98.2733 57.6182
17333 1 14.5641 99.9021 56.3783
17310 1 17.2909 98.2884 56.3456
17638 1 15.4817 98.2516 58.8902
23286 2 16.3872 99.8861 57.6505
17592 1 20.9379 98.2516 58.8902
17311 1 20.0203 99.9021 56.3783
17636 1 18.2111 99.8644 58.9228
23250 2 19.1139 98.2733 57.6182
17334 1 11.837 101.515 56.41
17648 1 12.7569 103.088 58.986
23291 2 10.9332 103.109 57.7127
23281 2 13.6603 101.498 57.682
17336 1 14.566 103.126 56.4406
17637 1 15.4841 101.477 58.9548
17303 1 17.2932 101.515 56.41
23279 2 16.3894 103.109 57.7127
17591 1 20.9403 101.477 58.9548
17639 1 18.2131 103.088 58.986
17301 1 20.0222 103.126 56.4406
23249 2 19.1165 101.498 57.682
17323 1 11.8387 104.737 56.4701
17649 1 12.7583 106.309 59.0455
23288 2 10.9348 106.329 57.771
23280 2 13.6622 104.72 57.7423
17321 1 14.5675 106.347 56.4985
17630 1 15.4857 104.699 59.0163
17302 1 17.2949 104.737 56.4701
23282 2 16.3911 106.329 57.771
17590 1 20.942 104.699 59.0163
17628 1 18.2145 106.309 59.0455
17304 1 20.0238 106.347 56.4985
23244 2 19.1184 104.72 57.7423
17322 1 11.8401 107.955 56.5259
17644 1 12.7595 109.528 59.1008
23289 2 10.9362 109.546 57.8251
23270 2 13.6637 107.938 57.7986
17324 1 14.5688 109.563 56.552
17629 1 15.487 107.919 59.0737
17296 1 17.2963 107.955 56.5259
23268 2 16.3924 109.546 57.8251
17583 1 20.9433 107.919 59.0737
17631 1 18.2157 109.528 59.1008
17294 1 20.0251 109.563 56.552
23243 2 19.1199 107.938 57.7986
17319 1 11.8414 111.17 56.5771
17645 1 12.7605 112.743 59.1516
23287 2 10.9374 112.761 57.875
23269 2 13.6649 111.154 57.8506
17317 1 14.5701 112.777 56.6011
17616 1 15.4881 111.136 59.1267
17295 1 17.2976 111.17 56.5771
23271 2 16.3937 112.761 57.875
17582 1 20.9443 111.136 59.1267
17614 1 18.2167 112.743 59.1516
17297 1 20.0263 112.777 56.6011
23230 2 19.1212 111.154 57.8506
17650 1 10.9424 96.6064 61.4043
17241 1 13.6686 94.9943 61.3719
22897 2 11.8445 95.012 60.0991
17633 1 16.3987 96.6064 61.4043
23283 2 14.5746 96.6246 60.1315
22849 2 17.3008 95.012 60.0991
23246 2 20.0309 96.6246 60.1315
17205 1 19.1249 94.9943 61.3719
17634 1 13.6722 98.2183 61.4368
17646 1 10.9454 99.83 61.4693
23277 2 11.8482 98.2371 60.1639
17635 1 16.4017 99.83 61.4693
23247 2 17.3045 98.2371 60.1639
23275 2 14.5778 99.8491 60.1961
17589 1 19.1284 98.2183 61.4368
23248 2 20.034 99.8491 60.1961
17626 1 13.6747 101.442 61.5013
17647 1 10.9475 103.053 61.5327
23276 2 11.8509 101.461 60.2278
17624 1 16.4038 103.053 61.5327
23241 2 17.3071 101.461 60.2278
23278 2 14.5801 103.072 60.2589
17588 1 19.1309 101.442 61.5013
23239 2 20.0363 103.072 60.2589
17625 1 13.6765 104.663 61.5634
17642 1 10.949 106.274 61.5932
23266 2 11.8528 104.682 60.2891
17627 1 16.4053 106.274 61.5932
23240 2 17.3091 104.682 60.2891
23264 2 14.5817 106.292 60.3184
17581 1 19.1327 104.663 61.5634
23242 2 20.038 106.292 60.3184
17612 1 13.6777 107.884 61.622
17643 1 10.9501 109.493 61.6498
23265 2 11.8543 107.902 60.3467
17610 1 16.4064 109.493 61.6498
23227 2 17.3105 107.902 60.3467
23267 2 14.583 109.511 60.374
17580 1 19.134 107.884 61.622
23225 2 20.0392 109.511 60.374
17611 1 13.6787 111.102 61.6765
17641 1 10.9511 112.711 61.702
23258 2 11.8554 111.119 60.4002
17613 1 16.4073 112.711 61.702
23226 2 17.3117 111.119 60.4002
23256 2 14.5841 112.727 60.4253
17566 1 19.135 111.102 61.6765
23228 2 20.0403 112.727 60.4253
23272 2 10.9554 96.5618 65.2285
23273 2 12.7651 96.5925 62.6794
17239 1 11.8589 94.9663 63.9221
22833 2 13.6816 94.9524 65.1975
17632 1 14.5889 96.5766 63.9538
23232 2 16.4116 96.5618 65.2285
17186 1 17.3151 94.9663 63.9221
22847 2 15.4913 94.9815 62.6477
17585 1 20.0451 96.5766 63.9538
23245 2 18.2214 96.5925 62.6794
22797 2 19.1378 94.9524 65.1975
22799 2 20.9475 94.9815 62.6477
17622 1 11.8624 98.1871 63.9858
23233 2 13.6852 98.1714 65.2599
23260 2 10.9586 99.7813 65.2915
23274 2 12.7683 99.8146 62.7433
17586 1 17.3187 98.1871 63.9858
17620 1 14.592 99.7977 64.0178
23234 2 16.4148 99.7813 65.2915
23237 2 15.4949 98.2036 62.7113
17587 1 20.0482 99.7977 64.0178
23181 2 19.1414 98.1714 65.2599
23184 2 20.9512 98.2036 62.7113
23235 2 18.2245 99.8146 62.7433
17621 1 11.8651 101.408 64.0497
23219 2 13.688 101.391 65.323
23261 2 10.9611 103.002 65.3542
23262 2 12.7706 103.036 62.8061
17578 1 17.3213 101.408 64.0497
17623 1 14.5942 103.019 64.0812
23217 2 16.4173 103.002 65.3542
23236 2 15.4977 101.426 62.7749
17576 1 20.0505 103.019 64.0812
23180 2 19.1443 101.391 65.323
23183 2 20.9539 101.426 62.7749
23238 2 18.2269 103.036 62.8061
17608 1 11.867 104.629 64.112
23218 2 13.6902 104.612 65.3848
23252 2 10.9629 106.222 65.4148
23263 2 12.7724 106.257 62.8664
17577 1 17.3232 104.629 64.112
17606 1 14.5958 106.239 64.1422
23220 2 16.4192 106.222 65.4148
23223 2 15.4997 104.647 62.8366
17579 1 20.0521 106.239 64.1422
23173 2 19.1464 104.612 65.3848
23182 2 20.9559 104.647 62.8366
23221 2 18.2286 106.257 62.8664
17607 1 11.8684 107.85 64.1714
23204 2 13.6918 107.832 65.444
23253 2 10.9643 109.442 65.4722
23254 2 12.7736 109.476 62.9231
17563 1 17.3246 107.85 64.1714
17609 1 14.597 109.459 64.1996
23202 2 16.4205 109.442 65.4722
23222 2 15.5012 107.867 62.8952
17561 1 20.0532 109.459 64.1996
23172 2 19.148 107.832 65.444
23175 2 20.9574 107.867 62.8952
23224 2 18.2299 109.476 62.9231
17600 1 11.8694 111.069 64.2268
23203 2 13.693 111.052 65.4994
23251 2 10.9654 112.662 65.5255
23255 2 12.7747 112.695 62.9756
17562 1 17.3256 111.069 64.2268
17598 1 14.5979 112.679 64.2529
23205 2 16.4216 112.662 65.5255
23208 2 15.5023 111.086 62.9499
17564 1 20.0542 112.679 64.2529
23158 2 19.1492 111.052 65.4994
23174 2 20.9585 111.086 62.9499
23206 2 18.2309 112.695 62.9756
17618 1 12.7787 96.5479 66.5063
22831 2 11.8715 94.9232 67.7474
17617 1 10.9676 96.5196 69.0652
17172 1 13.6939 94.9127 69.0349
23231 2 14.6015 96.5308 67.7777
17184 1 15.5049 94.9393 66.4754
22780 2 17.3277 94.9232 67.7474
17569 1 16.4239 96.5196 69.0652
17584 1 18.2349 96.5479 66.5063
23177 2 20.0577 96.5308 67.7777
17145 1 20.9612 94.9393 66.4754
17143 1 19.1502 94.9127 69.0349
17619 1 12.7818 99.7663 66.5693
23215 2 11.8751 98.1391 67.8086
17570 1 13.6974 98.1271 69.0959
17602 1 10.9707 99.7352 69.127
17574 1 15.5085 98.1569 66.5377
23178 2 17.3314 98.1391 67.8086
23213 2 14.6048 99.7478 67.8398
17571 1 16.427 99.7352 69.127
17526 1 20.9647 98.1569 66.5377
17572 1 18.2381 99.7663 66.5693
23179 2 20.0611 99.7478 67.8398
17523 1 19.1536 98.1271 69.0959
17604 1 12.7843 102.986 66.6323
23214 2 11.8781 101.357 67.8711
17555 1 13.7002 101.344 69.1583
17603 1 10.9733 102.953 69.1895
17573 1 15.5112 101.376 66.601
23170 2 17.3344 101.357 67.8711
23216 2 14.6075 102.967 67.9021
17553 1 16.4295 102.953 69.1895
17525 1 20.9675 101.376 66.601
17575 1 18.2405 102.986 66.6323
23168 2 20.0638 102.967 67.9021
17522 1 19.1565 101.344 69.1583
17605 1 12.7861 106.206 66.6935
23200 2 11.8805 104.577 67.9328
17554 1 13.7025 104.563 69.2203
17594 1 10.9753 106.173 69.2505
17559 1 15.5134 104.596 66.6632
23169 2 17.3368 104.577 67.9328
23198 2 14.6096 106.187 67.9629
17556 1 16.4315 106.173 69.2505
17524 1 20.9696 104.596 66.6632
17557 1 18.2423 106.206 66.6935
23171 2 20.0658 106.187 67.9629
17515 1 19.1587 104.563 69.2203
17596 1 12.7874 109.426 66.7514
23199 2 11.8823 107.797 67.9922
17558 1 15.5149 107.816 66.7229
23155 2 17.3385 107.797 67.9922
23201 2 14.6111 109.408 68.0206
17517 1 20.9711 107.816 66.7229
17560 1 18.2436 109.426 66.7514
23153 2 20.0674 109.408 68.0206
17597 1 12.7884 112.647 66.8053
23192 2 11.8836 111.018 68.048
17545 1 15.516 111.037 66.7789
23154 2 17.3399 111.018 68.048
23190 2 14.6123 112.629 68.0744
17516 1 20.9723 111.037 66.7789
17543 1 18.2446 112.647 66.8053
23156 2 20.0686 112.629 68.0744
23211 2 12.7914 96.4976 70.326
17170 1 11.879 94.8843 71.6133
17568 1 14.6087 96.4896 71.6429
17134 1 17.3352 94.8843 71.6133
22778 2 15.5176 94.8915 70.2962
17519 1 20.065 96.4896 71.6429
23176 2 18.2476 96.4976 70.326
22748 2 20.9739 94.8915 70.2962
17551 1 11.8821 98.0958 71.673
23212 2 12.7946 99.7122 70.387
17520 1 17.3384 98.0958 71.673
17549 1 14.6116 99.7027 71.7035
23166 2 15.5212 98.1045 70.3564
17521 1 20.0679 99.7027 71.7035
23124 2 20.9774 98.1045 70.3564
23164 2 18.2508 99.7122 70.387
17550 1 11.8848 101.31 71.7339
23196 2 12.7974 102.93 70.4486
17512 1 17.341 101.31 71.7339
17552 1 14.614 102.919 71.7654
23165 2 15.5241 101.321 70.4179
17510 1 20.0702 102.919 71.7654
23123 2 20.9804 101.321 70.4179
23167 2 18.2536 102.93 70.4486
17537 1 11.8868 104.528 71.7962
23197 2 12.7995 106.15 70.5088
17511 1 17.343 104.528 71.7962
17535 1 14.6158 106.138 71.8262
23151 2 15.5266 104.539 70.479
17513 1 20.072 106.138 71.8262
23122 2 20.9829 104.539 70.479
23149 2 18.2558 106.15 70.5088
17536 1 11.8884 107.749 71.8555
17541 1 13.7042 107.783 69.28
17595 1 10.9768 109.394 69.3085
23188 2 12.8012 109.372 70.5663
17501 1 17.3447 107.749 71.8555
17538 1 14.6172 109.36 71.8839
17539 1 16.433 109.394 69.3085
23150 2 15.5285 107.76 70.538
17499 1 20.0735 109.36 71.8839
17514 1 19.1604 107.783 69.28
23116 2 20.9848 107.76 70.538
23152 2 18.2574 109.372 70.5663
17531 1 11.8898 110.971 71.9113
17540 1 13.7055 111.004 69.3361
17593 1 10.9779 112.615 69.3626
23189 2 12.8025 112.595 70.62
17500 1 17.346 110.971 71.9113
17529 1 14.6185 112.583 71.9378
17542 1 16.4342 112.615 69.3626
23139 2 15.53 110.983 70.5937
17502 1 20.0747 112.583 71.9378
17504 1 19.1617 111.004 69.3361
23115 2 20.9863 110.983 70.5937
23137 2 18.2588 112.595 70.62
17547 1 12.7468 96.4691 74.2997
23210 2 10.9795 96.4616 72.8619
22766 2 11.8723 94.832 75.3163
22768 2 13.7059 94.857 72.8326
23160 2 14.6014 96.4356 75.3449
23161 2 16.4358 96.4616 72.8619
17132 1 15.4751 94.8648 74.2703
22741 2 17.3285 94.832 75.3163
17518 1 18.203 96.4691 74.2997
23117 2 20.0577 96.4356 75.3449
17125 1 20.9313 94.8648 74.2703
22746 2 19.1621 94.857 72.8326
17548 1 12.7463 99.6804 74.3602
23143 2 11.8743 98.0405 75.3741
23162 2 13.7093 98.0673 72.8918
23194 2 10.9827 99.6742 72.9221
17508 1 15.4747 98.0742 74.3298
23118 2 17.3305 98.0405 75.3741
23141 2 14.6033 99.6467 75.4037
23163 2 16.4389 99.6742 72.9221
17490 1 20.9309 98.0742 74.3298
17506 1 18.2026 99.6804 74.3602
23119 2 20.0595 99.6467 75.4037
23121 2 19.1656 98.0673 72.8918
17533 1 12.7457 102.895 74.4206
23142 2 11.876 101.254 75.4335
23147 2 13.7121 101.282 72.9524
23195 2 10.9855 102.891 72.9825
17507 1 15.4743 101.287 74.3904
23111 2 17.3322 101.254 75.4335
23144 2 14.6049 102.863 75.4622
23145 2 16.4417 102.891 72.9825
17489 1 20.9306 101.287 74.3904
17509 1 18.202 102.895 74.4206
23109 2 20.0611 102.863 75.4622
23120 2 19.1684 101.282 72.9524
17534 1 12.7452 106.114 74.4797
23131 2 11.8774 104.472 75.4909
23146 2 13.7148 104.5 73.0124
23186 2 10.9877 106.111 73.0418
17497 1 15.4735 104.504 74.4504
23110 2 17.3337 104.472 75.4909
23129 2 14.6062 106.083 75.5195
23148 2 16.4439 106.111 73.0418
17488 1 20.9297 104.504 74.4504
17495 1 18.2014 106.114 74.4797
23112 2 20.0624 106.083 75.5195
23114 2 19.171 104.5 73.0124
17527 1 12.7449 109.336 74.5365
23130 2 11.8786 107.694 75.5475
23135 2 13.7167 107.722 73.0706
23187 2 10.9894 109.334 73.0986
17496 1 15.4731 107.724 74.5085
23104 2 17.3349 107.694 75.5475
23132 2 14.6073 109.307 75.575
23133 2 16.4457 109.334 73.0986
17487 1 20.9293 107.724 74.5085
17498 1 18.2011 109.336 74.5365
23102 2 20.0635 109.307 75.575
23113 2 19.173 107.722 73.0706
17528 1 12.7449 112.559 74.5898
23127 2 11.8797 110.92 75.6017
23134 2 13.7183 110.947 73.1257
23185 2 10.9909 112.559 73.1519
17493 1 15.473 110.947 74.5637
23103 2 17.3359 110.92 75.6017
23125 2 14.6083 112.533 75.6275
23136 2 16.4471 112.559 73.1519
17486 1 20.9292 110.947 74.5637
17491 1 18.2011 112.559 74.5898
23105 2 20.0645 112.533 75.6275
23107 2 19.1745 110.947 73.1257
5567 1 12.7268 113.509 -2.5982
12033 2 11.8244 115.076 -1.13241
12041 2 13.6395 115.104 -3.63688
12048 2 10.9131 113.532 -3.65931
5554 1 15.452 115.081 -2.57539
12003 2 17.2806 115.076 -1.13241
12039 2 14.5536 113.504 -1.15526
12040 2 16.3694 113.532 -3.65931
5556 1 18.1831 113.509 -2.5982
5508 1 20.9083 115.081 -2.57539
12002 2 20.0098 113.504 -1.15526
12006 2 19.0958 115.104 -3.63688
5568 1 12.7211 116.652 -2.55323
12032 2 11.8222 118.218 -1.08869
12037 2 13.6363 118.244 -3.59392
5553 1 15.4466 118.223 -2.53178
11997 2 17.2785 118.218 -1.08869
12031 2 14.5514 116.647 -1.1102
12042 2 16.366 116.674 -3.61506
5552 1 18.1774 116.652 -2.55323
5507 1 20.9029 118.223 -2.53178
12004 2 20.0077 116.647 -1.1102
12005 2 19.0925 118.244 -3.59392
8782 2 21.8222 116.674 -3.61506
5564 1 12.716 119.794 -2.5111
12022 2 11.8201 121.358 -1.04807
12036 2 13.6333 121.383 -3.55392
12034 2 14.5493 119.788 -1.06797
5546 1 15.4418 121.364 -2.49125
11996 2 17.2764 121.358 -1.04807
12035 2 16.3629 119.814 -3.57352
5555 1 18.1723 119.794 -2.5111
5506 1 20.8981 121.364 -2.49125
11995 2 20.0055 119.788 -1.06797
12000 2 19.0895 121.383 -3.55392
8783 2 21.8191 119.814 -3.57352
5565 1 12.7116 122.933 -2.47228
12021 2 11.8181 124.497 -1.01095
12026 2 13.6306 124.519 -3.51731
12020 2 14.5472 122.928 -1.02905
5545 1 15.4377 124.502 -2.45422
11983 2 17.2744 124.497 -1.01095
12038 2 16.36 122.951 -3.53517
5544 1 18.1678 122.933 -2.47228
5499 1 20.8939 124.502 -2.45422
11998 2 20.0035 122.928 -1.02905
11999 2 19.0868 124.519 -3.51731
8780 2 21.8163 122.951 -3.53517
5560 1 12.7077 126.071 -2.43711
12014 2 11.8163 127.634 -0.977614
12025 2 13.6282 127.655 -3.48438
12023 2 14.5453 126.066 -0.993795
5532 1 15.4341 127.639 -2.42097
11982 2 17.2725 127.634 -0.977614
12024 2 16.3575 126.087 -3.50037
5547 1 18.164 126.071 -2.43711
5498 1 20.8904 127.639 -2.42097
11981 2 20.0015 126.066 -0.993795
11986 2 19.0844 127.655 -3.48438
8781 2 21.8137 126.087 -3.50037
5561 1 12.7045 129.207 -2.40582
12013 2 11.8146 130.771 -0.948254
12015 2 13.6261 130.788 -3.45534
12012 2 14.5435 129.203 -0.962428
5531 1 15.4312 130.775 -2.39168
11965 2 17.2708 130.771 -0.948254
12027 2 16.3552 129.222 -3.46936
5530 1 18.1607 129.207 -2.40582
5483 1 20.8874 130.775 -2.39168
11984 2 19.9997 129.203 -0.962428
11985 2 19.0823 130.788 -3.45534
8779 2 21.8114 129.222 -3.46936
5550 1 13.6416 115.057 0.0895948
5566 1 10.9149 113.485 0.066592
12029 2 12.7344 113.473 1.39775
5549 1 16.3712 113.485 0.066592
11993 2 15.4613 115.046 1.42086
5505 1 19.0979 115.057 0.0895948
11940 2 20.9175 115.046 1.42086
12001 2 18.1907 113.473 1.39775
5542 1 13.6389 118.2 0.133575
12030 2 12.7319 116.618 1.44331
5551 1 16.3684 116.629 0.111947
11992 2 15.4587 118.189 1.46503
5504 1 19.0951 118.2 0.133575
11939 2 20.915 118.189 1.46503
11991 2 18.1881 116.618 1.44331
2490 1 21.8246 116.629 0.111947
5541 1 13.6363 121.342 0.174414
12018 2 12.7294 119.76 1.48595
5540 1 16.3657 119.771 0.154415
11979 2 15.4563 121.331 1.50602
11994 2 18.1856 119.76 1.48595
5497 1 19.0926 121.342 0.174414
11938 2 20.9126 121.331 1.50602
2491 1 21.8219 119.771 0.154415
5528 1 13.6339 124.482 0.211709
12019 2 12.7271 122.902 1.5252
5543 1 16.3632 122.912 0.193524
11978 2 15.4541 124.472 1.54344
11977 2 18.1833 122.902 1.5252
5496 1 19.0902 124.482 0.211709
11931 2 20.9103 124.472 1.54344
2486 1 21.8194 122.912 0.193524
5527 1 13.6317 127.621 0.24518
12010 2 12.7249 126.043 1.56072
5526 1 16.3609 126.052 0.228936
11964 2 15.452 127.613 1.57701
11980 2 18.1811 126.043 1.56072
5482 1 19.088 127.621 0.24518
11930 2 20.9082 127.613 1.57701
2487 1 21.8172 126.052 0.228936
5517 1 13.6298 130.759 0.274644
12011 2 12.7229 129.182 1.5923
5529 1 16.3589 129.19 0.260421
11963 2 15.4502 130.752 1.60655
11962 2 18.1792 129.182 1.5923
5481 1 19.0861 130.759 0.274644
11915 2 20.9064 130.752 1.60655
2485 1 21.8151 129.19 0.260421
5538 1 11.8232 115.029 2.68643
5534 1 12.7333 113.43 5.24489
11989 2 13.6418 115.017 3.98755
12028 2 10.9151 113.444 3.96424
5502 1 17.2794 115.029 2.68643
5548 1 14.5528 113.456 2.66314
5490 1 15.4599 115.003 5.26834
11988 2 16.3714 113.444 3.96424
5501 1 20.009 113.456 2.66314
5436 1 20.9161 115.003 5.26834
5500 1 18.1896 113.43 5.24489
11937 2 19.098 115.017 3.98755
5537 1 11.8204 118.174 2.73091
5536 1 14.5499 116.601 2.70905
5535 1 12.7302 116.576 5.29108
11975 2 13.6389 118.162 4.03203
5494 1 17.2767 118.174 2.73091
5489 1 15.4569 118.149 5.31304
11990 2 16.3685 116.59 4.01017
5488 1 18.1865 116.576 5.29108
5503 1 20.0062 116.601 2.70905
5435 1 20.9131 118.149 5.31304
11936 2 19.0952 118.162 4.03203
8752 2 21.8247 116.59 4.01017
5524 1 11.8178 121.317 2.77215
5539 1 14.5472 119.745 2.75196
5520 1 12.7273 119.722 5.33416
11974 2 13.6362 121.306 4.07326
5493 1 17.274 121.317 2.77215
5475 1 15.4541 121.294 5.3544
11973 2 16.3657 119.734 4.05308
5491 1 18.1836 119.722 5.33416
5492 1 20.0034 119.745 2.75196
5434 1 20.9103 121.294 5.3544
11929 2 19.0925 121.306 4.07326
8753 2 21.8219 119.734 4.05308
5523 1 11.8153 124.459 2.80976
5522 1 14.5447 122.888 2.79143
5521 1 12.7246 122.866 5.37372
11960 2 13.6338 124.45 4.11085
5479 1 17.2716 124.459 2.80976
5474 1 15.4515 124.438 5.39208
11976 2 16.3631 122.878 4.09253
5473 1 18.1809 122.866 5.37372
5495 1 20.0009 122.888 2.79143
5427 1 20.9077 124.438 5.39208
11928 2 19.09 124.45 4.11085
8744 2 21.8193 122.878 4.09253
5516 1 11.8131 127.601 2.84346
5525 1 14.5423 126.03 2.82711
5512 1 12.7222 126.01 5.40945
11959 2 13.6315 127.592 4.14454
5513 1 12.72 129.154 5.44116
5478 1 17.2694 127.601 2.84346
5460 1 15.4492 127.582 5.42582
11958 2 16.3607 126.021 4.12819
5476 1 18.1784 126.01 5.40945
5458 1 18.1763 129.154 5.44116
5477 1 19.9986 126.03 2.82711
5426 1 20.9054 127.582 5.42582
11914 2 19.0878 127.592 4.14454
8745 2 21.817 126.021 4.12819
5515 1 11.8112 130.742 2.8731
5514 1 14.5402 129.171 2.8588
11949 2 13.6296 130.735 4.17415
5918 1 12.7182 132.298 5.46871
5461 1 17.2674 130.742 2.8731
5459 1 15.4472 130.726 5.45546
11961 2 16.3586 129.164 4.15986
12396 2 16.3568 132.306 4.18739
5884 1 18.1744 132.298 5.46871
5412 1 20.9034 130.726 5.45546
5480 1 19.9965 129.171 2.8588
8743 2 21.8149 129.164 4.15986
11913 2 19.0858 130.735 4.17415
9172 2 21.8131 132.306 4.18739
5486 1 13.6398 114.978 7.84573
11971 2 11.8217 114.991 6.55987
11968 2 12.728 116.54 9.15673
11922 2 15.4577 114.966 9.13416
11934 2 17.278 114.991 6.55987
11987 2 14.5515 113.418 6.53652
11920 2 18.1842 116.54 9.15673
5487 1 16.3663 116.552 7.86846
5433 1 19.0961 114.978 7.84573
11880 2 20.914 114.966 9.13416
11933 2 20.0077 113.418 6.53652
2446 1 21.8226 116.552 7.86846
5471 1 13.6366 118.125 7.89039
11970 2 11.8187 118.137 6.60437
11969 2 14.5483 116.564 6.58251
11952 2 12.7249 119.687 9.19942
11921 2 15.4546 118.113 9.1785
11926 2 17.2749 118.137 6.60437
11923 2 18.1812 119.687 9.19942
5469 1 16.3633 119.698 7.91147
5432 1 19.0929 118.125 7.89039
11879 2 20.9108 118.113 9.1785
11935 2 20.0045 116.564 6.58251
2447 1 21.8195 119.698 7.91147
5470 1 13.6337 121.272 7.93166
11956 2 11.8159 121.283 6.64554
11972 2 14.5454 119.71 6.6254
11953 2 12.7222 122.834 9.23855
11954 2 14.5427 122.856 6.66477
11907 2 15.4517 121.261 9.21945
11925 2 17.2721 121.283 6.64554
11905 2 18.1784 122.834 9.23855
5472 1 16.3605 122.845 7.95091
5425 1 19.09 121.272 7.93166
11878 2 20.9079 121.261 9.21945
11924 2 20.0016 119.71 6.6254
2438 1 21.8167 122.845 7.95091
11927 2 19.9989 122.856 6.66477
5456 1 13.6311 124.418 7.96919
11955 2 11.8133 124.429 6.68304
11957 2 14.5402 126.001 6.70033
11911 2 17.2695 124.429 6.68304
5454 1 16.358 125.991 7.98649
5424 1 19.0873 124.418 7.96919
2439 1 21.8143 125.991 7.98649
11909 2 19.9965 126.001 6.70033
5455 1 13.6288 127.564 8.00279
11948 2 11.811 127.574 6.71662
11946 2 14.5381 129.146 6.7319
11910 2 17.2672 127.574 6.71662
5457 1 16.3558 129.138 8.01806
5411 1 19.085 127.564 8.00279
2437 1 21.8121 129.138 8.01806
11912 2 19.9943 129.146 6.7319
5445 1 13.6268 130.711 8.03229
11947 2 11.809 130.719 6.74614
12395 2 14.5362 132.291 6.75933
11896 2 17.2652 130.719 6.74614
5869 1 16.354 132.284 8.04548
5410 1 19.083 130.711 8.03229
12341 2 19.9925 132.291 6.75933
2845 1 21.8102 132.284 8.04548
5467 1 11.8194 114.954 10.4219
11918 2 13.6372 114.942 11.7094
5465 1 14.5459 116.528 10.4445
5430 1 17.2757 114.954 10.4219
11919 2 16.3637 116.516 11.7318
11877 2 19.0935 114.942 11.7094
5431 1 20.0021 116.528 10.4445
8686 2 21.8199 116.516 11.7318
5466 1 11.8162 118.102 10.4663
11903 2 13.634 118.09 11.7534
5468 1 14.5428 119.676 10.4872
5422 1 17.2724 118.102 10.4663
11901 2 16.3606 119.664 11.7741
11876 2 19.0902 118.09 11.7534
5420 1 19.999 119.676 10.4872
8687 2 21.8169 119.664 11.7741
5452 1 11.8132 121.25 10.5073
11902 2 13.6311 121.239 11.7939
5450 1 14.54 122.824 10.5263
5421 1 17.2695 121.25 10.5073
11904 2 16.3579 122.814 11.8128
11870 2 19.0874 121.239 11.7939
5423 1 19.9962 122.824 10.5263
8678 2 21.8142 122.814 11.8128
5451 1 11.8106 124.398 10.5445
11891 2 13.6286 124.388 11.8308
5453 1 14.5376 125.972 10.5616
11944 2 12.7198 125.982 9.27387
11906 2 15.4491 124.408 9.2567
5408 1 17.2669 124.398 10.5445
11889 2 16.3556 125.963 11.8477
11908 2 18.176 125.982 9.27387
11872 2 20.9053 124.408 9.2567
11869 2 19.0848 124.388 11.8308
5406 1 19.9938 125.972 10.5616
8679 2 21.8118 125.963 11.8477
5444 1 11.8084 127.547 10.5777
11890 2 13.6264 127.538 11.8637
11945 2 12.7177 129.129 9.30521
5442 1 14.5355 129.121 10.5929
11895 2 15.4468 127.556 9.29005
5407 1 17.2646 127.547 10.5777
11893 2 18.1739 129.129 9.30521
11892 2 16.3536 129.113 11.8787
11871 2 20.903 127.556 9.29005
11863 2 19.0827 127.538 11.8637
5409 1 19.9917 129.121 10.5929
8677 2 21.8098 129.113 11.8787
5443 1 11.8064 130.696 10.607
11884 2 13.6246 130.688 11.8927
12375 2 12.7159 132.277 9.33246
5868 1 14.5337 132.27 10.62
11894 2 15.4448 130.703 9.31935
5397 1 17.2627 130.696 10.607
12340 2 18.1721 132.277 9.33246
12325 2 16.3519 132.263 11.9057
11864 2 20.9011 130.703 9.31935
11862 2 19.0808 130.688 11.8927
5813 1 19.9899 132.27 10.62
9110 2 21.8081 132.263 11.9057
5414 1 13.6339 114.904 15.5742
11899 2 11.8164 114.917 14.2852
5464 1 12.7252 116.504 13.0203
11897 2 14.5429 116.491 14.3073
5418 1 15.455 114.929 12.998
11874 2 17.2726 114.917 14.2852
5415 1 16.3604 116.479 15.5962
5416 1 18.1814 116.504 13.0203
5385 1 19.0902 114.904 15.5742
5388 1 20.9112 114.929 12.998
2374 1 21.8167 116.479 15.5962
11875 2 19.9991 116.491 14.3073
5400 1 13.6308 118.055 15.6174
11898 2 11.8132 118.066 14.3286
5448 1 12.7221 119.653 13.0625
11900 2 14.5399 119.642 14.349
5417 1 15.4517 118.078 13.0419
11867 2 17.2695 118.066 14.3286
5398 1 16.3576 119.63 15.6377
5419 1 18.1784 119.653 13.0625
2375 1 21.8138 119.63 15.6377
5384 1 19.0871 118.055 15.6174
5387 1 20.908 118.078 13.0419
11865 2 19.9962 119.642 14.349
11885 2 14.5374 122.793 14.3871
5399 1 13.6282 121.206 15.6571
11887 2 11.8105 121.217 14.3685
5449 1 12.7195 122.803 13.1011
5402 1 18.1757 122.803 13.1011
5404 1 15.4489 121.228 13.0823
11866 2 17.2667 121.217 14.3685
5401 1 16.3551 122.782 15.6755
11868 2 19.9936 122.793 14.3871
2366 1 21.8113 122.782 15.6755
5381 1 19.0844 121.206 15.6571
5386 1 20.9051 121.228 13.0823
11888 2 14.5352 125.945 14.4215
5440 1 12.7172 125.954 13.1359
5392 1 13.6259 124.359 15.6931
11886 2 11.8081 124.369 14.4048
5405 1 18.1734 125.954 13.1359
5390 1 16.353 125.935 15.7097
11860 2 17.2644 124.369 14.4048
5403 1 15.4464 124.378 13.119
11858 2 19.9915 125.945 14.4215
5383 1 20.9026 124.378 13.119
5380 1 19.0821 124.359 15.6931
2367 1 21.8092 125.935 15.7097
11881 2 14.5334 129.097 14.452
5441 1 12.7152 129.105 13.1667
11883 2 11.8061 127.521 14.4372
5391 1 13.624 127.512 15.7253
5394 1 18.1714 129.105 13.1667
5393 1 16.3513 129.089 15.74
11859 2 17.2624 127.521 14.4372
5396 1 15.4442 127.529 13.1518
11861 2 19.9896 129.097 14.452
5382 1 20.9005 127.529 13.1518
5378 1 19.0802 127.512 15.7253
2365 1 21.8075 129.089 15.74
11882 2 11.8044 130.673 14.4658
5389 1 13.6224 130.666 15.7537
5847 1 12.7135 132.257 13.1936
12324 2 14.5318 132.25 14.4785
5797 1 16.3498 132.243 15.7663
5812 1 18.1698 132.257 13.1936
11857 2 17.2607 130.673 14.4658
5395 1 15.4424 130.681 13.1806
12281 2 19.9881 132.25 14.4785
2774 1 21.806 132.243 15.7663
5377 1 19.0786 130.666 15.7537
5379 1 20.8987 130.681 13.1806
5758 1 11.8126 114.878 18.1505
12240 2 12.7219 116.467 16.883
5756 1 14.5393 116.454 18.172
12226 2 15.4515 114.891 16.8612
5735 1 17.2689 114.878 18.1505
12224 2 18.1781 116.467 16.883
12180 2 20.9077 114.891 16.8612
5736 1 19.9955 116.454 18.172
5757 1 11.8098 118.03 18.1928
12236 2 12.7191 119.619 16.9239
5759 1 14.5367 119.607 18.2126
12225 2 15.4486 118.042 16.9039
5731 1 17.266 118.03 18.1928
12227 2 18.1754 119.619 16.9239
12179 2 20.9048 118.042 16.9039
5729 1 19.9929 119.607 18.2126
5751 1 11.8074 121.184 18.2316
12237 2 12.7168 122.772 16.9613
5749 1 14.5345 122.761 18.2496
12218 2 15.446 121.195 16.943
5730 1 17.2637 121.184 18.2316
12216 2 18.1731 122.772 16.9613
12178 2 20.9023 121.195 16.943
5732 1 19.9907 122.761 18.2496
5750 1 11.8055 124.339 18.2668
12232 2 12.7149 125.926 16.995
5752 1 14.5327 125.917 18.283
12217 2 15.4439 124.349 16.9786
5719 1 17.2617 124.339 18.2668
12219 2 18.1711 125.926 16.995
12171 2 20.9002 124.349 16.9786
5717 1 19.989 125.917 18.283
5744 1 11.8038 127.495 18.2983
12233 2 12.7133 129.081 17.0249
5742 1 14.5313 129.073 18.3127
5718 1 17.2601 127.495 18.2983
12204 2 15.4422 127.503 17.0104
12202 2 18.1695 129.081 17.0249
12170 2 20.8984 127.503 17.0104
5720 1 19.9875 129.073 18.3127
5743 1 11.8025 130.651 18.3261
12647 2 12.712 132.237 17.051
6144 1 14.5301 132.23 18.3385
5701 1 17.2587 130.651 18.3261
12203 2 15.4407 130.659 17.0384
12636 2 18.1682 132.237 17.051
12155 2 20.897 130.659 17.0384
6118 1 19.9863 132.23 18.3385
12222 2 13.6301 114.865 19.4374
12210 2 11.8086 114.837 22.0133
5755 1 12.7179 116.428 20.7477
12208 2 14.5356 116.415 22.034
12223 2 16.3569 116.441 19.4586
5727 1 15.4473 114.851 20.7267
12174 2 17.2649 114.837 22.0133
5725 1 18.1742 116.428 20.7477
12177 2 19.0864 114.865 19.4374
5676 1 20.9036 114.851 20.7267
12175 2 19.9918 116.415 22.034
8970 2 21.8131 116.441 19.4586
12214 2 13.6275 118.018 19.479
12209 2 11.8065 117.993 22.0538
5747 1 12.7158 119.583 20.7872
12211 2 14.5337 119.571 22.0728
12212 2 16.3545 119.595 19.4986
5726 1 15.4449 118.005 20.7679
12166 2 17.2627 117.993 22.0538
5728 1 18.172 119.583 20.7872
12176 2 19.0837 118.018 19.479
5675 1 20.9011 118.005 20.7679
12164 2 19.9899 119.571 22.0728
8971 2 21.8107 119.595 19.4986
12213 2 13.6254 121.173 19.5173
12196 2 11.8048 121.15 22.091
5748 1 12.714 122.74 20.8232
12194 2 14.5322 122.729 22.1083
12215 2 16.3525 122.751 19.5351
5715 1 15.4429 121.161 20.8056
12165 2 17.261 121.15 22.091
5713 1 18.1702 122.74 20.8232
12169 2 19.0816 121.173 19.5173
5674 1 20.8992 121.161 20.8056
12167 2 19.9884 122.729 22.1083
8966 2 21.8088 122.751 19.5351
12200 2 13.6236 124.329 19.552
12195 2 11.8034 124.309 22.1248
5740 1 12.7126 125.898 20.8558
12197 2 14.531 125.889 22.1404
12198 2 16.351 125.907 19.568
5714 1 15.4414 124.319 20.84
12151 2 17.2597 124.309 22.1248
5716 1 18.1688 125.898 20.8558
12168 2 19.0798 124.329 19.552
5667 1 20.8976 124.319 20.84
12149 2 19.9872 125.889 22.1404
8967 2 21.8072 125.907 19.568
12199 2 13.6222 127.486 19.5831
12188 2 11.8024 127.469 22.1551
5741 1 12.7115 129.057 20.8847
12186 2 14.53 129.049 22.169
12201 2 16.3497 129.065 19.5972
5700 1 15.4401 127.477 20.8707
12150 2 17.2586 127.469 22.1551
5698 1 18.1677 129.057 20.8847
12154 2 19.0784 127.486 19.5831
5666 1 20.8964 127.477 20.8707
12152 2 19.9863 129.049 22.169
8965 2 21.8059 129.065 19.5972
12189 2 13.621 130.644 19.6105
12187 2 11.8015 130.63 22.1819
6138 1 12.7106 132.217 20.91
12628 2 14.5293 132.21 22.1939
5699 1 15.4391 130.637 20.8978
12133 2 17.2578 130.63 22.1819
12629 2 16.3486 132.224 19.6228
6117 1 18.1668 132.217 20.91
12153 2 19.0772 130.644 19.6105
5651 1 20.8953 130.637 20.8978
12581 2 19.9855 132.21 22.1939
9382 2 21.8048 132.224 19.6228
5707 1 11.8042 114.793 25.8775
5723 1 13.6257 114.823 23.3025
12207 2 12.7144 116.387 24.6087
5705 1 14.5317 116.373 25.8972
5670 1 17.2604 114.793 25.8775
12162 2 15.4434 114.808 24.5886
5724 1 16.3528 116.401 23.3229
12160 2 18.1706 116.387 24.6087
5673 1 19.082 114.823 23.3025
12108 2 20.8996 114.808 24.5886
5671 1 19.9879 116.373 25.8972
2673 1 21.8091 116.401 23.3229
5706 1 11.803 117.953 25.9162
5711 1 13.6238 117.98 23.3424
12192 2 12.713 119.546 24.6464
5662 1 17.2592 117.953 25.9162
12161 2 15.4418 117.966 24.6279
5709 1 16.3512 119.559 23.3612
12163 2 18.1693 119.546 24.6464
5672 1 19.0801 117.98 23.3424
12107 2 20.898 117.966 24.6279
2674 1 21.8074 119.559 23.3612
5710 1 13.6224 121.138 23.3791
12193 2 12.712 122.707 24.6809
12147 2 15.4406 121.126 24.664
5712 1 16.3499 122.718 23.3962
12145 2 18.1683 122.707 24.6809
5665 1 19.0786 121.138 23.3791
12106 2 20.8969 121.126 24.664
2666 1 21.8062 122.718 23.3962
5696 1 13.6213 124.298 23.4125
12184 2 12.7113 125.87 24.7121
12146 2 15.4398 124.288 24.6969
5694 1 16.349 125.879 23.4279
12148 2 18.1675 125.87 24.7121
5664 1 19.0775 124.298 23.4125
12099 2 20.896 124.288 24.6969
2667 1 21.8052 125.879 23.4279
5695 1 13.6204 127.46 23.4424
12185 2 12.7108 129.033 24.7399
12132 2 15.4391 127.451 24.7264
5697 1 16.3482 129.041 23.4561
12130 2 18.167 129.033 24.7399
5650 1 19.0767 127.46 23.4424
12098 2 20.8954 127.451 24.7264
2665 1 21.8045 129.041 23.4561
5685 1 13.6198 130.622 23.4689
12614 2 12.7103 132.197 24.7643
12131 2 15.4387 130.615 24.7526
6106 1 16.3476 132.204 23.4808
12580 2 18.1666 132.197 24.7643
5649 1 19.076 130.622 23.4689
12084 2 20.8949 130.615 24.7526
3065 1 21.8039 132.204 23.4808
12158 2 13.6221 114.777 27.163
5704 1 12.7108 116.343 28.4705
5658 1 15.4393 114.762 28.4514
12159 2 16.3497 116.358 27.1824
5656 1 18.1671 116.343 28.4705
8926 2 21.8059 116.358 27.1824
5610 1 20.8955 114.762 28.4514
12105 2 19.0783 114.777 27.163
5708 1 14.5306 119.533 25.9343
12143 2 13.6212 117.939 27.201
5688 1 12.7105 119.507 28.5064
5657 1 15.4388 117.925 28.4888
12141 2 16.349 119.52 27.2189
5659 1 18.1667 119.507 28.5064
8927 2 21.8052 119.52 27.2189
5660 1 19.9869 119.533 25.9343
5609 1 20.895 117.925 28.4888
12104 2 19.0774 117.939 27.201
5692 1 11.8021 121.114 25.9517
5690 1 14.5299 122.696 25.9683
12142 2 13.6206 121.102 27.2361
5689 1 12.7104 122.673 28.5394
5661 1 17.2584 121.114 25.9517
5643 1 15.4385 121.09 28.5233
12144 2 16.3485 122.685 27.2524
5641 1 18.1666 122.673 28.5394
8918 2 21.8048 122.685 27.2524
5663 1 19.9862 122.696 25.9683
5608 1 20.8948 121.09 28.5233
12097 2 19.0769 121.102 27.2361
5691 1 11.8015 124.278 25.9841
5693 1 14.5294 125.86 25.9991
12128 2 13.6203 124.267 27.268
5680 1 12.7104 125.84 28.5694
5647 1 17.2578 124.278 25.9841
5642 1 15.4385 124.257 28.5548
12126 2 16.3483 125.85 27.2828
5644 1 18.1666 125.84 28.5694
8919 2 21.8045 125.85 27.2828
5645 1 19.9857 125.86 25.9991
5601 1 20.8947 124.257 28.5548
12096 2 19.0765 124.267 27.268
5684 1 11.8011 127.442 26.0133
5682 1 14.5291 129.025 26.0267
12127 2 13.6201 127.433 27.2968
5681 1 12.7105 129.008 28.5963
5646 1 17.2574 127.442 26.0133
5629 1 15.4385 127.424 28.5832
12129 2 16.3481 129.017 27.31
5627 1 18.1667 129.008 28.5963
8917 2 21.8044 129.017 27.31
5648 1 19.9853 129.025 26.0267
5600 1 20.8948 127.424 28.5832
12083 2 19.0763 127.433 27.2968
5683 1 11.8008 130.608 26.0391
12117 2 13.62 130.6 27.3224
6105 1 14.5289 132.191 26.0508
6087 1 12.7105 132.177 28.6198
5630 1 17.2571 130.608 26.0391
5628 1 15.4386 130.593 28.6085
12565 2 16.3481 132.184 27.3339
6052 1 18.1668 132.177 28.6198
5589 1 20.8949 130.593 28.6085
12082 2 19.0762 130.6 27.3224
6053 1 19.9851 132.191 26.0508
9349 2 21.8043 132.184 27.3339
5654 1 13.6186 114.729 31.0237
12139 2 11.8012 114.745 29.736
12136 2 12.7095 116.297 32.3255
12137 2 14.5292 116.328 29.7548
12090 2 15.4373 114.712 32.3073
12102 2 17.2575 114.745 29.736
5655 1 16.3469 116.312 31.0421
12088 2 18.1657 116.297 32.3255
2614 1 21.8031 116.312 31.0421
5607 1 19.0749 114.729 31.0237
12060 2 20.8936 114.712 32.3073
12103 2 19.9855 116.328 29.7548
5639 1 13.6189 117.896 31.0599
12138 2 11.8011 117.911 29.7729
12120 2 12.7101 119.467 32.3601
12140 2 14.5292 119.494 29.7903
12089 2 15.4379 117.881 32.3431
12094 2 17.2573 117.911 29.7729
5637 1 16.3472 119.48 31.077
12091 2 18.1663 119.467 32.3601
2615 1 21.8035 119.48 31.077
5606 1 19.0751 117.896 31.0599
12059 2 20.8941 117.881 32.3431
12092 2 19.9854 119.494 29.7903
5638 1 13.6193 121.065 31.0935
12124 2 11.8011 121.078 29.8069
12121 2 12.7108 122.638 32.392
12122 2 14.5293 122.662 29.8229
12076 2 15.4386 121.052 32.3764
12093 2 17.2574 121.078 29.8069
5640 1 16.3477 122.65 31.1092
12074 2 18.167 122.638 32.392
2606 1 21.8039 122.65 31.1092
5599 1 19.0756 121.065 31.0935
12058 2 20.8948 121.052 32.3764
12095 2 19.9856 122.662 29.8229
5625 1 13.6198 124.235 31.1242
12123 2 11.8013 124.246 29.8381
12112 2 12.7114 125.81 32.421
12125 2 14.5295 125.83 29.8525
12075 2 15.4392 124.224 32.4069
12080 2 17.2576 124.246 29.8381
5623 1 16.3481 125.82 31.1385
12077 2 18.1677 125.81 32.421
2607 1 21.8044 125.82 31.1385
5598 1 19.076 124.235 31.1242
12055 2 20.8955 124.224 32.4069
12078 2 19.9858 125.83 29.8525
5624 1 13.6203 127.406 31.1521
12116 2 11.8015 127.415 29.8662
12113 2 12.712 128.984 32.4471
12114 2 14.5298 129 29.8791
12068 2 15.4399 127.397 32.4344
12079 2 17.2578 127.415 29.8662
5626 1 16.3486 128.992 31.1648
12066 2 18.1683 128.984 32.4471
2605 1 21.8048 128.992 31.1648
5588 1 19.0765 127.406 31.1521
12054 2 20.8961 127.397 32.4344
12081 2 19.986 129 29.8791
5616 1 13.6207 130.578 31.1768
12115 2 11.8018 130.585 29.8912
12543 2 12.7126 132.157 32.4701
12564 2 14.53 132.171 29.9025
12067 2 15.4404 130.57 32.459
12069 2 17.258 130.585 29.8912
6037 1 16.349 132.164 31.188
12508 2 18.1688 132.157 32.4701
5587 1 19.0769 130.578 31.1768
12051 2 20.8967 130.57 32.459
3014 1 21.8052 132.164 31.188
12509 2 19.9863 132.171 29.9025
5635 1 11.7989 114.695 33.594
12086 2 13.6182 114.678 34.8764
5633 1 14.5275 116.281 33.612
5604 1 17.2551 114.695 33.594
12087 2 16.3469 116.265 34.8943
8854 2 21.8031 116.265 34.8943
12057 2 19.0744 114.678 34.8764
5605 1 19.9837 116.281 33.612
5636 1 14.5285 119.453 33.6461
5634 1 11.7999 117.867 33.6294
12072 2 13.6194 117.852 34.9115
12070 2 16.3481 119.439 34.9282
5596 1 17.2561 117.867 33.6294
8855 2 21.8043 119.439 34.9282
5594 1 19.9847 119.453 33.6461
12056 2 19.0756 117.852 34.9115
5619 1 14.5294 122.626 33.6776
5621 1 11.8008 121.039 33.6622
12071 2 13.6205 121.027 34.9442
12073 2 16.3492 122.614 34.9596
5595 1 17.2571 121.039 33.6622
8846 2 21.8055 122.614 34.9596
5597 1 19.9857 122.626 33.6776
12053 2 19.0768 121.027 34.9442
5622 1 14.5303 125.8 33.7064
12064 2 13.6216 124.202 34.9742
5620 1 11.8018 124.213 33.6924
12062 2 16.3503 125.79 34.9882
5585 1 17.258 124.213 33.6924
8847 2 21.8065 125.79 34.9882
5583 1 19.9866 125.8 33.7064
12052 2 19.0779 124.202 34.9742
5613 1 14.5311 128.975 33.7323
12063 2 13.6226 127.378 35.0014
5615 1 11.8026 127.388 33.7197
12065 2 16.3512 128.967 35.0139
5584 1 17.2589 127.388 33.7197
5586 1 19.9874 128.975 33.7323
12050 2 19.0789 127.378 35.0014
8845 2 21.8074 128.967 35.0139
12061 2 13.6235 130.555 35.0257
5614 1 11.8034 130.563 33.744
6036 1 14.5318 132.151 33.755
5578 1 17.2596 130.563 33.744
12493 2 16.352 132.144 35.0366
12049 2 19.0797 130.555 35.0257
9278 2 21.8082 132.144 35.0366
5987 1 19.9881 132.151 33.755
12262 2 11.8001 114.643 37.4432
17451 1 13.619 114.625 38.7276
5632 1 12.7091 116.248 36.1797
12260 2 14.5291 116.232 37.4609
12251 2 17.2564 114.643 37.4432
5592 1 15.4364 114.66 36.1621
17836 1 16.3481 116.216 38.7452
5590 1 18.1654 116.248 36.1797
5574 1 20.8927 114.66 36.1621
17421 1 19.0752 114.625 38.7276
12252 2 19.9854 116.232 37.4609
15024 1 21.8044 116.216 38.7452
12261 2 11.8019 117.821 37.478
17837 1 13.621 117.806 38.7622
5617 1 12.7106 119.425 36.2133
12263 2 14.5308 119.411 37.4945
12248 2 17.2581 117.821 37.478
5591 1 15.438 117.837 36.1968
17838 1 16.3501 119.397 38.7787
5593 1 18.1669 119.425 36.2133
17802 1 19.0772 117.806 38.7622
5573 1 20.8942 117.837 36.1968
12246 2 19.987 119.411 37.4945
15022 1 21.8063 119.397 38.7787
12258 2 11.8034 121 37.5103
17833 1 13.6228 120.987 38.7945
5618 1 12.712 122.602 36.2444
12256 2 14.5323 122.59 37.5256
12247 2 17.2597 121 37.5103
5581 1 15.4395 121.014 36.2292
17831 1 16.3518 122.578 38.8096
5579 1 18.1683 122.602 36.2444
17801 1 19.0791 120.987 38.7945
5572 1 20.8957 121.014 36.2292
12249 2 19.9885 122.59 37.5256
15023 1 21.808 122.578 38.8096
12257 2 11.8049 124.18 37.5401
17832 1 13.6245 124.169 38.8242
5611 1 12.7133 125.78 36.2729
12259 2 14.5336 125.77 37.554
12244 2 17.2611 124.18 37.5401
5580 1 15.4408 124.191 36.259
17834 1 16.3533 125.76 38.838
5582 1 18.1695 125.78 36.2729
17796 1 19.0807 124.169 38.8242
5571 1 20.897 124.191 36.259
12242 2 19.9899 125.77 37.554
15020 1 21.8095 125.76 38.838
12255 2 11.8061 127.36 37.5671
17822 1 13.6259 127.35 38.8511
5612 1 12.7144 128.958 36.2985
12253 2 14.5348 128.95 37.5795
12243 2 17.2624 127.36 37.5671
17820 1 16.3546 128.941 38.8634
5577 1 15.442 127.369 36.2861
5575 1 18.1706 128.958 36.2985
17795 1 19.0821 127.35 38.8511
5570 1 20.8982 127.369 36.2861
12245 2 19.991 128.95 37.5795
15021 1 21.8108 128.941 38.8634
12254 2 11.8072 130.54 37.5912
17821 1 13.627 130.532 38.875
6015 1 12.7153 132.137 36.321
12672 2 14.5358 132.13 37.602
12241 2 17.2634 130.54 37.5912
17823 1 16.3557 132.123 38.8859
5576 1 15.443 130.548 36.3101
5986 1 18.1715 132.137 36.321
17782 1 19.0833 130.532 38.875
5569 1 20.8992 130.548 36.3101
15019 1 21.8119 132.123 38.8859
12658 2 19.992 132.13 37.602
23459 2 12.7126 116.199 40.0251
17449 1 11.8029 114.59 41.2906
23049 2 13.6242 114.572 42.5692
17835 1 14.5322 116.182 41.3084
23441 2 16.3535 116.166 42.5871
17401 1 17.2591 114.59 41.2906
23063 2 15.4396 114.607 40.0074
23448 2 18.1688 116.199 40.0251
17798 1 19.9884 116.182 41.3084
23013 2 19.0804 114.572 42.5692
23015 2 20.8959 114.607 40.0074
20638 2 21.8097 116.166 42.5871
23460 2 12.7145 119.382 40.0588
17829 1 11.8052 117.775 41.3255
17827 1 14.5343 119.368 41.342
23446 2 15.4417 117.791 40.0423
17799 1 17.2614 117.775 41.3255
23444 2 18.1708 119.382 40.0588
17800 1 19.9906 119.368 41.342
23400 2 20.8979 117.791 40.0423
23456 2 12.7163 122.566 40.0899
17828 1 11.8072 120.961 41.3579
17830 1 14.5362 122.553 41.3732
23445 2 15.4436 120.974 40.0747
17793 1 17.2634 120.961 41.3579
23447 2 18.1725 122.566 40.0899
17791 1 19.9925 122.553 41.3732
23399 2 20.8998 120.974 40.0747
23457 2 12.7178 125.749 40.1183
17818 1 11.809 124.146 41.3877
17816 1 14.5379 125.739 41.4016
23438 2 15.4452 124.157 40.1045
17792 1 17.2652 124.146 41.3877
23436 2 18.1741 125.749 40.1183
17794 1 19.9941 125.739 41.4016
23398 2 20.9015 124.157 40.1045
23452 2 12.7192 128.933 40.1438
17817 1 11.8105 127.332 41.4147
17819 1 14.5393 128.924 41.4271
23437 2 15.4466 127.341 40.1314
17779 1 17.2668 127.332 41.4147
23439 2 18.1754 128.933 40.1438
17777 1 19.9956 128.924 41.4271
23391 2 20.9029 127.341 40.1314
23453 2 12.7203 132.116 40.1663
17810 1 11.8118 130.517 41.4387
17808 1 14.5405 132.11 41.4496
17778 1 17.2681 130.517 41.4387
23424 2 15.4479 130.525 40.1554
23422 2 18.1765 132.116 40.1663
17780 1 19.9968 132.11 41.4496
23390 2 20.9041 130.525 40.1554
17825 1 12.7174 116.149 43.8692
23047 2 11.8101 114.536 45.1284
23440 2 14.5393 116.133 45.1469
17399 1 15.4443 114.554 43.8511
22994 2 17.2663 114.536 45.1284
17797 1 18.1737 116.149 43.8692
23393 2 19.9956 116.133 45.1469
17351 1 20.9006 114.554 43.8511
23442 2 13.6264 117.76 42.6045
17826 1 12.7197 119.339 43.9035
23430 2 11.8123 117.729 45.1646
23428 2 14.5415 119.325 45.1817
23443 2 16.3556 119.354 42.6212
17789 1 15.4467 117.744 43.8866
23394 2 17.2685 117.729 45.1646
17787 1 18.1759 119.339 43.9035
23397 2 19.0827 117.76 42.6045
17736 1 20.903 117.744 43.8866
23395 2 19.9977 119.325 45.1817
20634 2 21.8118 119.354 42.6212
23434 2 13.6284 120.947 42.6372
17814 1 12.7217 122.529 43.935
23429 2 11.8143 120.921 45.198
23431 2 14.5434 122.516 45.2137
23432 2 16.3575 122.541 42.6526
17788 1 15.4488 120.934 43.9196
23386 2 17.2705 120.921 45.198
17790 1 18.1779 122.529 43.935
23396 2 19.0847 120.947 42.6372
17735 1 20.9051 120.934 43.9196
23384 2 19.9996 122.516 45.2137
20635 2 21.8137 122.541 42.6526
23433 2 13.6302 124.135 42.6673
17815 1 12.7234 125.718 43.9638
23416 2 11.8161 124.112 45.2285
23414 2 14.545 125.707 45.2427
23435 2 16.3591 125.728 42.6812
17775 1 15.4507 124.123 43.9498
23385 2 17.2723 124.112 45.2285
17773 1 18.1796 125.718 43.9638
23389 2 19.0865 124.135 42.6673
17734 1 20.9069 124.123 43.9498
23387 2 20.0013 125.707 45.2427
20630 2 21.8154 125.728 42.6812
23420 2 13.6317 127.322 42.6944
17806 1 12.7249 128.907 43.9895
23415 2 11.8176 127.303 45.256
23417 2 14.5465 128.898 45.2686
23418 2 16.3605 128.915 42.7069
17774 1 15.4523 127.312 43.977
23371 2 17.2739 127.303 45.256
17776 1 18.1811 128.907 43.9895
23388 2 19.088 127.322 42.6944
17727 1 20.9085 127.312 43.977
23369 2 20.0027 128.898 45.2686
20631 2 21.8168 128.915 42.7069
23419 2 13.6331 130.509 42.7185
17807 1 12.7261 132.096 44.0121
23408 2 11.819 130.493 45.2804
23406 2 14.5477 132.089 45.2913
23421 2 16.3617 132.103 42.7294
17760 1 15.4536 130.501 44.0012
23370 2 17.2752 130.493 45.2804
17758 1 18.1823 132.096 44.0121
23374 2 19.0893 130.509 42.7185
17726 1 20.9099 130.501 44.0012
23372 2 20.0039 132.089 45.2913
20629 2 21.818 132.103 42.7294
23426 2 12.7263 116.1 47.7046
17383 1 11.8185 114.484 48.9652
17385 1 13.6309 114.519 46.4092
17783 1 14.5477 116.083 48.9845
17784 1 16.3601 116.116 46.4278
17332 1 17.2747 114.484 48.9652
22992 2 15.4533 114.501 47.6855
23392 2 18.1825 116.1 47.7046
17729 1 20.0039 116.083 48.9845
17349 1 19.0871 114.519 46.4092
22953 2 20.9096 114.501 47.6855
15004 1 21.8164 116.116 46.4278
17767 1 11.8206 117.683 49.0031
17785 1 13.6331 117.714 46.4458
23427 2 12.7283 119.296 47.7404
17765 1 14.5497 119.282 49.0209
17730 1 17.2768 117.683 49.0031
17786 1 16.3623 119.311 46.463
23382 2 15.4554 117.698 47.7229
23380 2 18.1845 119.296 47.7404
17731 1 20.0059 119.282 49.0209
17733 1 19.0894 117.714 46.4458
23334 2 20.9117 117.698 47.7229
14992 1 21.8185 119.311 46.463
17766 1 11.8224 120.881 49.0379
17771 1 13.6352 120.907 46.4795
23412 2 12.7301 122.492 47.7732
17722 1 17.2787 120.881 49.0379
17768 1 14.5514 122.479 49.0541
17769 1 16.3642 122.504 46.4953
23381 2 15.4574 120.894 47.7572
23383 2 18.1864 122.492 47.7732
14993 1 21.8205 122.504 46.4953
17720 1 20.0077 122.479 49.0541
17732 1 19.0914 120.907 46.4795
23333 2 20.9136 120.894 47.7572
17752 1 11.8241 124.078 49.0695
17770 1 13.637 124.101 46.5103
23413 2 12.7317 125.686 47.8028
17721 1 17.2804 124.078 49.0695
17750 1 14.553 125.676 49.084
17772 1 16.3659 125.697 46.5246
23367 2 15.4591 124.089 47.7884
14984 1 21.8222 125.697 46.5246
17723 1 20.0093 125.676 49.084
17725 1 19.0932 124.101 46.5103
23332 2 20.9153 124.089 47.7884
23365 2 18.188 125.686 47.8028
17751 1 11.8256 127.274 49.0977
17756 1 13.6386 127.293 46.538
23404 2 12.7331 128.88 47.8291
17707 1 17.2819 127.274 49.0977
17753 1 14.5544 128.872 49.1106
17754 1 16.3674 128.889 46.5507
23366 2 15.4606 127.283 47.8164
14985 1 21.8236 128.889 46.5507
17705 1 20.0107 128.872 49.1106
17724 1 19.0948 127.293 46.538
23325 2 20.9168 127.283 47.8164
23368 2 18.1894 128.88 47.8291
17744 1 11.8269 130.47 49.1226
17755 1 13.6399 130.486 46.5625
23405 2 12.7343 132.074 47.8521
17706 1 17.2832 130.47 49.1226
17742 1 14.5556 132.067 49.1338
17757 1 16.3686 132.082 46.5735
23353 2 15.4619 130.477 47.8411
14983 1 21.8249 132.082 46.5735
17708 1 20.0119 132.067 49.1338
17710 1 19.0962 130.486 46.5625
23324 2 20.9181 130.477 47.8411
23351 2 18.1906 132.074 47.8521
17763 1 12.7361 116.051 51.5396
23425 2 10.9142 116.067 50.2604
22980 2 13.6414 114.467 50.2406
23377 2 16.3705 116.067 50.2604
17330 1 15.4633 114.449 51.5194
17728 1 18.1924 116.051 51.5396
17300 1 20.9196 114.449 51.5194
22951 2 19.0976 114.467 50.2406
17764 1 12.7378 119.253 51.5773
23378 2 13.6433 117.668 50.2794
23410 2 10.916 119.268 50.2975
17718 1 15.4651 117.652 51.5589
23379 2 16.3723 119.268 50.2975
17676 1 20.9214 117.652 51.5589
17716 1 18.1941 119.253 51.5773
23331 2 19.0995 117.668 50.2794
17748 1 12.7394 122.454 51.6115
23363 2 13.645 120.867 50.3148
23411 2 10.9177 122.467 50.3313
17717 1 15.4668 120.854 51.5948
23361 2 16.3739 122.467 50.3313
17675 1 20.923 120.854 51.5948
17719 1 18.1957 122.454 51.6115
23330 2 19.1013 120.867 50.3148
17749 1 12.7409 125.655 51.6422
23362 2 13.6466 124.066 50.3468
23402 2 10.9192 125.665 50.3616
17703 1 15.4683 124.055 51.6273
23364 2 16.3754 125.665 50.3616
17674 1 20.9245 124.055 51.6273
17701 1 18.1971 125.655 51.6422
23323 2 19.1028 124.066 50.3468
17740 1 12.7422 128.854 51.6693
23349 2 13.648 127.264 50.3754
23403 2 10.9205 128.863 50.3885
17702 1 15.4697 127.254 51.6562
23347 2 16.3767 128.863 50.3885
17668 1 20.9259 127.254 51.6562
17704 1 18.1984 128.854 51.6693
23322 2 19.1042 127.264 50.3754
17741 1 12.7433 132.053 51.6929
23348 2 13.6492 130.461 50.4006
23401 2 10.9217 132.06 50.4118
17691 1 15.4709 130.453 51.6816
23350 2 16.3779 132.06 50.4118
17667 1 20.9271 130.453 51.6816
17689 1 18.1995 132.053 51.6929
23312 2 19.1055 130.461 50.4006
17762 1 10.9253 116.019 54.0932
23355 2 12.7487 116.004 55.3681
17320 1 13.6527 114.416 54.0722
22978 2 11.8303 114.433 52.7942
17713 1 16.3815 116.019 54.0932
23376 2 14.5592 116.035 52.8148
22940 2 15.4761 114.399 55.3466
22942 2 17.2865 114.433 52.7942
23326 2 18.2049 116.004 55.3681
23327 2 20.0155 116.035 52.8148
17298 1 19.1089 114.416 54.0722
22933 2 20.9323 114.399 55.3466
17714 1 13.6542 117.622 54.1133
17746 1 10.9268 119.225 54.1324
23356 2 12.75 119.211 55.4079
23359 2 11.8319 117.638 52.8345
17715 1 16.383 119.225 54.1324
23316 2 15.4774 117.608 55.3885
23328 2 17.2882 117.638 52.8345
23357 2 14.5608 119.239 52.8533
17673 1 19.1104 117.622 54.1133
23298 2 20.9337 117.608 55.3885
23314 2 18.2062 119.211 55.4079
23329 2 20.017 119.239 52.8533
17699 1 13.6556 120.828 54.1505
17747 1 10.9281 122.43 54.1677
23341 2 12.7512 122.417 55.4438
23358 2 11.8334 120.841 52.8711
17697 1 16.3844 122.43 54.1677
23315 2 15.4787 120.814 55.4263
23320 2 17.2897 120.841 52.8711
23360 2 14.5623 122.442 52.8881
17672 1 19.1118 120.828 54.1505
23297 2 20.935 120.814 55.4263
23317 2 18.2075 122.417 55.4438
23318 2 20.0185 122.442 52.8881
17698 1 13.6569 124.032 54.184
17738 1 10.9294 125.633 54.1992
23342 2 12.7524 125.622 55.4757
23345 2 11.8348 124.043 52.9041
17700 1 16.3856 125.633 54.1992
23305 2 15.48 124.02 55.4602
23319 2 17.2911 124.043 52.9041
23343 2 14.5636 125.644 52.9192
17666 1 19.1131 124.032 54.184
23296 2 20.9362 124.02 55.4602
23303 2 18.2087 125.622 55.4757
23321 2 20.0198 125.644 52.9192
17687 1 13.6581 127.235 54.2136
17739 1 10.9305 128.836 54.227
23335 2 12.7535 128.827 55.5038
23344 2 11.8361 127.244 52.9334
23346 2 14.5648 128.845 52.9467
23309 2 17.2923 127.244 52.9334
17685 1 16.3868 128.836 54.227
23304 2 15.4811 127.225 55.4902
23307 2 20.021 128.845 52.9467
23306 2 18.2097 128.827 55.5038
23295 2 20.9373 127.225 55.4902
17665 1 19.1143 127.235 54.2136
23339 2 11.8372 130.445 52.959
23336 2 12.7545 132.031 55.5281
17737 1 10.9316 132.038 54.251
17686 1 13.6592 130.437 54.2395
23337 2 14.5659 132.046 52.9705
23308 2 17.2935 130.445 52.959
23301 2 15.4821 130.429 55.5164
17688 1 16.3878 132.038 54.251
23310 2 20.0221 132.046 52.9705
23299 2 18.2107 132.031 55.5281
23294 2 20.9384 130.429 55.5164
17659 1 19.1154 130.437 54.2395
18011 1 12.7615 115.957 59.1979
23652 2 10.9386 115.973 57.9204
17318 1 11.8426 114.383 56.6241
23259 2 13.6661 114.367 57.8982
17712 1 14.5713 115.988 56.6459
23644 2 16.3948 115.973 57.9204
17615 1 15.4891 114.35 59.1753
17293 1 17.2988 114.383 56.6241
17669 1 20.0275 115.988 56.6459
18000 1 18.2177 115.957 59.1979
17567 1 20.9453 114.35 59.1753
23229 2 19.1224 114.367 57.8982
17695 1 11.8438 117.593 56.6667
18012 1 12.7625 119.169 59.2398
23650 2 10.9397 119.183 57.9616
23645 2 13.6672 117.578 57.9415
17693 1 14.5725 119.197 56.6865
17670 1 17.3 117.593 56.6667
17998 1 15.4901 117.563 59.2194
23646 2 16.3959 119.183 57.9616
17952 1 20.9463 117.563 59.2194
17671 1 20.0287 119.197 56.6865
17996 1 18.2187 119.169 59.2398
23610 2 19.1235 117.578 57.9415
17694 1 11.845 120.801 56.7052
23651 2 10.9407 122.393 57.9985
23641 2 13.6683 120.788 57.9806
17696 1 14.5736 122.405 56.7229
17997 1 15.4911 120.775 59.2591
17663 1 17.3012 120.801 56.7052
23639 2 16.397 122.393 57.9985
17951 1 20.9473 120.775 59.2591
17661 1 20.0299 122.405 56.7229
23609 2 19.1246 120.788 57.9806
17683 1 11.8461 124.009 56.7396
23648 2 10.9418 125.601 58.0313
23640 2 13.6694 123.997 58.0154
17681 1 14.5747 125.612 56.7553
17662 1 17.3023 124.009 56.7396
23642 2 16.398 125.601 58.0313
17664 1 20.031 125.612 56.7553
23604 2 19.1256 123.997 58.0154
17682 1 11.8471 127.215 56.77
23649 2 10.9428 128.809 58.0599
23630 2 13.6704 127.205 58.0461
17684 1 14.5758 128.818 56.7837
17656 1 17.3034 127.215 56.77
23628 2 16.399 128.809 58.0599
17654 1 20.032 128.818 56.7837
23603 2 19.1266 127.205 58.0461
17679 1 11.8481 130.421 56.7964
23647 2 10.9437 132.016 58.0847
23629 2 13.6713 130.413 58.0728
17677 1 14.5767 132.024 56.8081
17655 1 17.3044 130.421 56.7964
23631 2 16.3999 132.016 58.0847
17657 1 20.0329 132.024 56.8081
23590 2 19.1276 130.413 58.0728
18010 1 10.9519 115.927 61.7496
17601 1 13.6796 114.319 61.7264
23257 2 11.8565 114.335 60.4493
17993 1 16.4082 115.927 61.7496
23643 2 14.5851 115.942 60.4722
23209 2 17.3127 114.335 60.4493
23606 2 20.0413 115.942 60.4722
17565 1 19.1359 114.319 61.7264
17994 1 13.6805 117.534 61.7717
18006 1 10.9528 119.142 61.7926
23637 2 11.8574 117.549 60.4939
17995 1 16.409 119.142 61.7926
23607 2 17.3137 117.549 60.4939
23635 2 14.586 119.156 60.5145
17949 1 19.1367 117.534 61.7717
23608 2 20.0423 119.156 60.5145
18008 1 12.7634 122.38 59.2772
17986 1 13.6813 120.749 61.8123
18007 1 10.9536 122.356 61.8309
23636 2 11.8584 120.762 60.534
17984 1 16.4099 122.356 61.8309
23601 2 17.3146 120.762 60.534
23638 2 14.587 122.368 60.5524
17999 1 18.2197 122.38 59.2772
17948 1 19.1375 120.749 61.8123
23599 2 20.0432 122.368 60.5524
18009 1 12.7644 125.591 59.3104
17985 1 13.6822 123.963 61.8485
18002 1 10.9545 125.569 61.8648
23626 2 11.8593 123.974 60.5697
17990 1 15.492 123.986 59.2944
17987 1 16.4107 125.569 61.8648
23600 2 17.3156 123.974 60.5697
23624 2 14.5879 125.58 60.5859
17950 1 20.9483 123.986 59.2944
17988 1 18.2206 125.591 59.3104
17941 1 19.1384 123.963 61.8485
23602 2 20.0441 125.58 60.5859
18004 1 12.7653 128.8 59.3394
17972 1 13.683 127.176 61.8802
18003 1 10.9553 128.782 61.8944
23625 2 11.8602 127.185 60.6011
17989 1 15.493 127.195 59.3254
17970 1 16.4116 128.782 61.8944
23587 2 17.3165 127.185 60.6011
23627 2 14.5888 128.791 60.6152
17943 1 20.9492 127.195 59.3254
17991 1 18.2216 128.8 59.3394
17940 1 19.1393 127.176 61.8802
23585 2 20.045 128.791 60.6152
18005 1 12.7662 132.009 59.3643
17971 1 13.6839 130.388 61.9076
18001 1 10.9562 131.994 61.9197
23618 2 11.8611 130.396 60.6282
17976 1 15.4939 130.405 59.3524
17973 1 16.4124 131.994 61.9197
23586 2 17.3174 130.396 60.6282
23616 2 14.5896 132.002 60.6403
17942 1 20.9501 130.405 59.3524
17974 1 18.2224 132.009 59.3643
17926 1 19.1401 130.388 61.9076
23588 2 20.0459 132.002 60.6403
23632 2 10.9663 115.881 65.5743
23633 2 12.7756 115.912 63.0235
17599 1 11.8702 114.288 64.2778
23193 2 13.694 114.272 65.5505
17992 1 14.5988 115.897 64.3015
23592 2 16.4225 115.881 65.5743
17546 1 17.3265 114.288 64.2778
23207 2 15.5033 114.303 63.0001
17945 1 20.055 115.897 64.3015
23605 2 18.2318 115.912 63.0235
23157 2 19.1502 114.272 65.5505
23159 2 20.9595 114.303 63.0001
17982 1 11.871 117.506 64.3239
23593 2 13.6949 117.491 65.5969
23620 2 10.9672 119.1 65.6183
23634 2 12.7765 119.128 63.0668
17946 1 17.3273 117.506 64.3239
17980 1 14.5996 119.115 64.3452
23594 2 16.4234 119.1 65.6183
23597 2 15.5042 117.52 63.0457
17947 1 20.0558 119.115 64.3452
23541 2 19.1511 117.491 65.5969
23544 2 20.9604 117.52 63.0457
23595 2 18.2327 119.128 63.0668
17981 1 11.8718 120.723 64.3654
23579 2 13.6957 120.71 65.6386
23621 2 10.9681 122.319 65.6577
23622 2 12.7774 122.343 63.1055
17938 1 17.3281 120.723 64.3654
17983 1 14.6004 122.332 64.3844
23577 2 16.4243 122.319 65.6577
23596 2 15.505 120.736 63.0867
17936 1 20.0566 122.332 64.3844
23540 2 19.152 120.71 65.6386
23543 2 20.9613 120.736 63.0867
23598 2 18.2336 122.343 63.1055
17968 1 11.8727 123.94 64.4022
23578 2 13.6966 123.928 65.6756
23612 2 10.9689 125.537 65.6924
23623 2 12.7782 125.558 63.1397
17937 1 17.3289 123.94 64.4022
17966 1 14.6012 125.548 64.4189
23580 2 16.4252 125.537 65.6924
23583 2 15.5059 123.951 63.1231
17939 1 20.0574 125.548 64.4189
23533 2 19.1529 123.928 65.6756
23542 2 20.9621 123.951 63.1231
23581 2 18.2345 125.558 63.1397
17967 1 11.8735 127.156 64.4345
23564 2 13.6975 127.146 65.708
23613 2 10.9698 128.755 65.7226
23614 2 12.7791 128.773 63.1694
17923 1 17.3297 127.156 64.4345
17969 1 14.602 128.764 64.4489
23562 2 16.426 128.755 65.7226
23582 2 15.5068 127.166 63.1551
17921 1 20.0583 128.764 64.4489
23532 2 19.1537 127.146 65.708
23535 2 20.963 127.166 63.1551
23584 2 18.2353 128.773 63.1694
17960 1 11.8743 130.372 64.4623
23563 2 13.6983 130.363 65.736
23611 2 10.9706 131.972 65.7484
23615 2 12.7799 131.987 63.1949
17922 1 17.3306 130.372 64.4623
17958 1 14.6028 131.98 64.4746
23565 2 16.4269 131.972 65.7484
23568 2 15.5076 130.38 63.1827
17924 1 20.0591 131.98 64.4746
23518 2 19.1546 130.363 65.736
23534 2 20.9639 130.38 63.1827
23566 2 18.2361 131.987 63.1949
17978 1 12.7894 115.868 66.8542
23191 2 11.8847 114.24 68.0997
23591 2 14.6133 115.851 68.1237
17544 1 15.517 114.257 66.8305
23140 2 17.341 114.24 68.0997
17944 1 18.2456 115.868 66.8542
23537 2 20.0696 115.851 68.1237
17505 1 20.9732 114.257 66.8305
17979 1 12.7902 119.088 66.8988
23575 2 11.8857 117.462 68.1466
17934 1 15.5179 117.478 66.8771
23538 2 17.3419 117.462 68.1466
23573 2 14.6143 119.072 68.1683
17886 1 20.9742 117.478 66.8771
17932 1 18.2464 119.088 66.8988
23539 2 20.0705 119.072 68.1683
17964 1 12.791 122.308 66.9386
23574 2 11.8866 120.683 68.1888
17933 1 15.5187 120.698 66.9193
23530 2 17.3429 120.683 68.1888
23576 2 14.6152 122.294 68.2082
17885 1 20.975 120.698 66.9193
17935 1 18.2473 122.308 66.9386
23528 2 20.0714 122.294 68.2082
17965 1 12.7919 125.528 66.9736
23560 2 11.8876 123.905 68.2263
17919 1 15.5196 123.918 66.9567
23529 2 17.3438 123.905 68.2263
23558 2 14.6161 125.515 68.2432
17884 1 20.9758 123.918 66.9567
17917 1 18.2481 125.528 66.9736
23531 2 20.0724 125.515 68.2432
17956 1 12.7927 128.747 67.004
23559 2 11.8885 127.126 68.2591
17918 1 15.5204 127.137 66.9893
23515 2 17.3447 127.126 68.2591
23561 2 14.6171 128.736 68.2737
17877 1 20.9767 127.137 66.9893
17920 1 18.249 128.747 67.004
23513 2 20.0733 128.736 68.2737
17957 1 12.7936 131.966 67.0299
23552 2 11.8894 130.347 68.2873
17905 1 15.5213 130.356 67.0175
23514 2 17.3456 130.347 68.2873
23550 2 14.618 131.957 68.2998
17876 1 20.9775 130.356 67.0175
17903 1 18.2498 131.966 67.0299
23516 2 20.0742 131.957 68.2998
17977 1 10.9789 115.838 69.4121
23571 2 12.8037 115.819 70.6694
17530 1 11.8909 114.195 71.9631
17532 1 13.7065 114.227 69.3879
17928 1 14.6196 115.808 71.9873
17929 1 16.4352 115.838 69.4121
17494 1 17.3472 114.195 71.9631
23138 2 15.5313 114.207 70.6453
17879 1 20.0759 115.808 71.9873
23536 2 18.2599 115.819 70.6694
17503 1 19.1628 114.227 69.3879
23108 2 20.9875 114.207 70.6453
17911 1 11.8921 117.42 72.0103
17930 1 13.7075 117.449 69.4351
17962 1 10.9799 119.06 69.457
23572 2 12.8048 119.043 70.7141
17880 1 17.3483 117.42 72.0103
17909 1 14.6208 119.033 72.0322
17931 1 16.4361 119.06 69.457
23526 2 15.5324 117.431 70.6924
17881 1 20.077 119.033 72.0322
17883 1 19.1638 117.449 69.4351
23484 2 20.9886 117.431 70.6924
23524 2 18.261 119.043 70.7141
17910 1 11.8932 120.645 72.0528
17915 1 13.7085 120.672 69.4776
17963 1 10.9809 122.283 69.497
23556 2 12.8059 122.268 70.7541
17872 1 17.3495 120.645 72.0528
17912 1 14.622 122.258 72.0723
17913 1 16.4371 122.283 69.497
23525 2 15.5335 120.656 70.7347
17870 1 20.0782 122.258 72.0723
17882 1 19.1647 120.672 69.4776
23483 2 20.9897 120.656 70.7347
23527 2 18.2621 122.268 70.7541
17897 1 11.8945 123.871 72.0906
17914 1 13.7095 123.895 69.5152
17954 1 10.9819 125.506 69.5322
23557 2 12.807 125.493 70.7894
17871 1 17.3507 123.871 72.0906
17895 1 14.6232 125.484 72.1077
17916 1 16.4381 125.506 69.5322
23511 2 15.5345 123.88 70.7723
17873 1 20.0794 125.484 72.1077
17875 1 19.1657 123.895 69.5152
23482 2 20.9908 123.88 70.7723
23509 2 18.2632 125.493 70.7894
17896 1 11.8957 127.097 72.1236
17901 1 13.7105 127.117 69.5481
17955 1 10.9829 128.728 69.5629
23548 2 12.808 128.717 70.82
17861 1 17.3519 127.097 72.1236
17898 1 14.6244 128.71 72.1384
17899 1 16.4391 128.728 69.5629
23510 2 15.5356 127.105 70.8053
17859 1 20.0806 128.71 72.1384
17874 1 19.1667 127.117 69.5481
23476 2 20.9919 127.105 70.8053
23512 2 18.2643 128.717 70.82
17891 1 11.8968 130.323 72.1521
17900 1 13.7115 130.34 69.5765
17953 1 10.9838 131.951 69.589
23549 2 12.809 131.941 70.8463
17860 1 17.3531 130.323 72.1521
17889 1 14.6255 131.935 72.1647
17902 1 16.44 131.951 69.589
23499 2 15.5366 130.329 70.8337
17862 1 20.0818 131.935 72.1647
17864 1 19.1677 130.34 69.5765
23475 2 20.9929 130.329 70.8337
23497 2 18.2653 131.941 70.8463
17907 1 12.7454 115.785 74.639
23570 2 10.9922 115.786 73.2011
23126 2 11.8807 114.147 75.6524
23128 2 13.7196 114.173 73.1771
23520 2 14.6094 115.761 75.6761
23521 2 16.4484 115.786 73.2011
17492 1 15.4732 114.172 74.615
23101 2 17.3369 114.147 75.6524
17878 1 18.2016 115.785 74.639
23477 2 20.0656 115.761 75.6761
17485 1 20.9294 114.172 74.615
23106 2 19.1759 114.173 73.1771
17908 1 12.7463 119.011 74.6836
23503 2 11.8819 117.376 75.6989
23522 2 13.7209 117.4 73.224
23554 2 10.9934 119.014 73.2458
17868 1 15.4739 117.398 74.6619
23478 2 17.3382 117.376 75.6989
23501 2 14.6107 118.991 75.7204
23523 2 16.4497 119.014 73.2458
17850 1 20.9301 117.398 74.6619
17866 1 18.2025 119.011 74.6836
23479 2 20.0669 118.991 75.7204
23481 2 19.1772 117.4 73.224
17893 1 12.7475 122.238 74.7236
23502 2 11.8833 120.605 75.7409
23507 2 13.7222 120.628 73.2663
23555 2 10.9947 122.242 73.2857
17867 1 15.475 120.624 74.7042
23471 2 17.3395 120.605 75.7409
23504 2 14.6121 122.221 75.7602
23505 2 16.451 122.242 73.2857
17849 1 20.9312 120.624 74.7042
17869 1 18.2038 122.238 74.7236
23469 2 20.0684 122.221 75.7602
23480 2 19.1784 120.628 73.2663
17894 1 12.749 125.466 74.7589
23491 2 11.8848 123.836 75.7784
23506 2 13.7235 123.855 73.304
23546 2 10.996 125.469 73.3211
17857 1 15.4763 123.852 74.7418
23470 2 17.341 123.836 75.7784
23489 2 14.6137 125.451 75.7954
23508 2 16.4522 125.469 73.3211
17848 1 20.9326 123.852 74.7418
17855 1 18.2052 125.466 74.7589
23472 2 20.0699 125.451 75.7954
23474 2 19.1797 123.855 73.304
17887 1 12.7505 128.695 74.7896
23490 2 11.8863 127.066 75.8113
23495 2 13.7247 127.083 73.337
23547 2 10.9972 128.697 73.3518
17856 1 15.4778 127.08 74.7748
23464 2 17.3425 127.066 75.8113
23492 2 14.6152 128.681 75.8261
23493 2 16.4535 128.697 73.3518
17847 1 20.9341 127.08 74.7748
17858 1 18.2067 128.695 74.7896
23462 2 20.0714 128.681 75.8261
23473 2 19.181 127.083 73.337
17888 1 12.7519 131.924 74.8159
23487 2 11.8878 130.297 75.8398
23494 2 13.7259 130.311 73.3655
23545 2 10.9984 131.924 73.3781
17853 1 15.4793 130.309 74.8033
23463 2 17.344 130.297 75.8398
23485 2 14.6166 131.912 75.8524
23496 2 16.4546 131.924 73.3781
17846 1 20.9356 130.309 74.8033
17851 1 18.2082 131.924 74.8159
23465 2 20.0728 131.912 75.8524
23467 2 19.1822 130.311 73.3655
5951 1 12.7017 132.343 -2.37854
12441 2 11.8131 133.907 -0.923009
12449 2 13.6243 133.921 -3.43033
12447 2 14.5419 132.339 -0.935108
5938 1 15.4287 133.91 -2.36644
12411 2 17.2693 133.907 -0.923009
12448 2 16.3533 132.355 -3.44232
5940 1 18.158 132.343 -2.37854
5892 1 20.885 133.91 -2.36644
12410 2 19.9982 132.339 -0.935108
12414 2 19.0805 133.921 -3.43033
9192 2 21.8095 132.355 -3.44232
5952 1 12.6997 135.477 -2.35548
12440 2 11.8118 137.042 -0.901999
12445 2 13.6229 137.054 -3.40947
12439 2 14.5405 135.475 -0.911974
5937 1 15.4271 137.044 -2.34559
12405 2 17.2681 137.042 -0.901999
12450 2 16.3517 135.487 -3.41938
5936 1 18.1559 135.477 -2.35548
5891 1 20.8833 137.044 -2.34559
12412 2 19.9968 135.475 -0.911974
12413 2 19.0791 137.054 -3.40947
9190 2 21.8079 135.487 -3.41938
5948 1 12.6983 138.611 -2.33672
12430 2 11.8108 140.177 -0.885202
12444 2 13.6218 140.185 -3.39276
12442 2 14.5394 138.61 -0.893077
5949 1 12.6973 141.744 -2.3221
12428 2 14.5385 141.745 -0.878376
5930 1 15.4259 140.178 -2.32889
12404 2 17.267 140.177 -0.885202
12443 2 16.3504 138.62 -3.40059
5939 1 18.1546 138.611 -2.33672
5928 1 18.1535 141.744 -2.3221
12446 2 16.3495 141.751 -3.38597
5890 1 20.8821 140.178 -2.32889
12403 2 19.9956 138.61 -0.893077
12408 2 19.078 140.185 -3.39276
9191 2 21.8067 138.62 -3.40059
12406 2 19.9947 141.745 -0.878376
9188 2 21.8057 141.751 -3.38597
12429 2 11.81 143.312 -0.8726
12434 2 13.621 143.317 -3.38022
5944 1 12.6966 144.878 -2.31165
12431 2 14.5378 144.879 -0.867873
5929 1 15.425 143.311 -2.31636
12391 2 17.2662 143.312 -0.8726
5931 1 18.1528 144.878 -2.31165
12432 2 16.3488 144.883 -3.37551
5883 1 20.8812 143.311 -2.31636
12407 2 19.0772 143.317 -3.38022
12389 2 19.994 144.879 -0.867873
9189 2 21.805 144.883 -3.37551
12422 2 11.8095 146.447 -0.864196
12433 2 13.6204 146.449 -3.37185
5945 1 12.6961 148.011 -2.30538
12420 2 14.5374 148.014 -0.86157
5916 1 15.4244 146.444 -2.30799
12390 2 17.2657 146.447 -0.864196
12435 2 16.3484 148.014 -3.36924
5914 1 18.1524 148.011 -2.30538
5882 1 20.8807 146.444 -2.30799
12394 2 19.0767 146.449 -3.37185
12392 2 19.9936 148.014 -0.86157
9187 2 21.8046 148.014 -3.36924
12421 2 11.8092 149.581 -0.859994
12423 2 13.6201 149.58 -3.36767
3263 1 12.696 151.144 -2.30329
9591 2 14.5373 151.148 -0.859469
5915 1 15.4241 149.577 -2.30381
12373 2 17.2654 149.581 -0.859994
9592 2 16.3482 151.146 -3.36715
3252 1 18.1522 151.144 -2.30329
5867 1 20.8804 149.577 -2.30381
12393 2 19.0764 149.58 -3.36767
9554 2 19.9935 151.148 -0.859469
6336 2 21.8045 151.146 -3.36715
5934 1 13.6282 133.897 0.299961
12437 2 12.7212 132.322 1.61976
5933 1 16.3571 132.328 0.287831
12401 2 15.4486 133.891 1.63192
12409 2 18.1775 132.322 1.61976
5889 1 19.0844 133.897 0.299961
12348 2 20.9048 133.891 1.63192
2878 1 21.8133 132.328 0.287831
5926 1 13.6268 137.034 0.321006
12438 2 12.7197 135.46 1.64301
12426 2 12.7185 138.599 1.66201
5935 1 16.3556 135.466 0.311018
12400 2 15.4472 137.03 1.65304
12399 2 18.176 135.46 1.64301
12402 2 18.1748 138.599 1.66201
5924 1 16.3543 138.603 0.329937
5888 1 19.083 137.034 0.321006
12347 2 20.9035 137.03 1.65304
2874 1 21.8118 135.466 0.311018
2875 1 21.8106 138.603 0.329937
5925 1 13.6257 140.171 0.337818
12427 2 12.7176 141.737 1.67677
12387 2 15.4461 140.168 1.66992
12385 2 18.1738 141.737 1.67677
5927 1 16.3534 141.739 0.344648
5881 1 19.0819 140.171 0.337818
12346 2 20.9024 140.168 1.66992
2870 1 21.8096 141.739 0.344648
5912 1 13.6249 143.307 0.350429
12418 2 12.7169 144.875 1.68731
12386 2 15.4453 143.306 1.68257
12388 2 18.1731 144.875 1.68731
5910 1 16.3527 144.876 0.355159
5880 1 19.0811 143.307 0.350429
12339 2 20.9016 143.306 1.68257
2871 1 21.8089 144.876 0.355159
5911 1 13.6243 146.444 0.358838
12419 2 12.7165 148.013 1.69364
12372 2 15.4448 146.444 1.691
5913 1 16.3523 148.012 0.361465
12370 2 18.1727 148.013 1.69364
5866 1 19.0806 146.444 0.358838
12338 2 20.901 146.444 1.691
2869 1 21.8085 148.012 0.361465
5901 1 13.624 149.58 0.363042
9581 2 12.7163 151.151 1.69574
12371 2 15.4445 149.582 1.69522
3245 1 16.3521 151.148 0.363568
9553 2 18.1726 151.151 1.69574
5865 1 19.0803 149.58 0.363042
12323 2 20.9007 149.582 1.69522
190 1 21.8084 151.148 0.363568
5922 1 11.8095 133.883 2.89853
5932 1 14.5384 132.312 2.88635
12397 2 13.6279 133.877 4.19957
5919 1 12.7166 135.441 5.49202
5920 1 14.5369 135.453 2.90965
5886 1 17.2657 133.883 2.89853
5874 1 15.4455 133.87 5.4809
5872 1 18.1728 135.441 5.49202
12398 2 16.3553 135.448 4.21069
5885 1 19.9947 132.312 2.88635
5820 1 20.9017 133.87 5.4809
12345 2 19.0841 133.877 4.19957
9160 2 21.8115 135.448 4.21069
5887 1 19.9931 135.453 2.90965
5921 1 11.8081 137.023 2.9197
12383 2 13.6265 137.018 4.22074
5904 1 12.7153 138.584 5.51108
5923 1 14.5356 138.593 2.92869
5878 1 17.2643 137.023 2.9197
5873 1 15.444 137.013 5.50208
5875 1 18.1716 138.584 5.51108
12381 2 16.354 138.589 4.22974
5819 1 20.9003 137.013 5.50208
12344 2 19.0827 137.018 4.22074
5876 1 19.9919 138.593 2.92869
9161 2 21.8102 138.589 4.22974
5908 1 11.807 140.163 2.93661
12382 2 13.6253 140.16 4.23766
5905 1 12.7143 141.728 5.52588
5906 1 14.5346 141.733 2.94347
5877 1 17.2632 140.163 2.93661
5859 1 15.4429 140.156 5.51901
5857 1 18.1706 141.728 5.52588
12384 2 16.353 141.731 4.24453
5818 1 20.8991 140.156 5.51901
12337 2 19.0816 140.16 4.23766
9152 2 21.8092 141.731 4.24453
5879 1 19.9909 141.733 2.94347
5907 1 11.8061 143.302 2.94927
12368 2 13.6245 143.301 4.25034
5909 1 14.5339 144.872 2.95402
5896 1 12.7136 144.87 5.53644
5863 1 17.2624 143.302 2.94927
5858 1 15.4421 143.299 5.53169
12366 2 16.3523 144.872 4.25509
5860 1 18.1699 144.87 5.53644
5811 1 20.8983 143.299 5.53169
12336 2 19.0807 143.301 4.25034
5861 1 19.9902 144.872 2.95402
9153 2 21.8085 144.872 4.25509
5900 1 11.8056 146.442 2.95771
12367 2 13.6239 146.442 4.25878
5898 1 14.5335 148.012 2.96035
5897 1 12.7132 148.013 5.54278
5862 1 17.2618 146.442 2.95771
5844 1 15.4415 146.442 5.54014
12369 2 16.3519 148.013 4.26142
5842 1 18.1694 148.013 5.54278
9151 2 21.8081 148.013 4.26142
5864 1 19.9898 148.012 2.96035
5810 1 20.8977 146.442 5.54014
12322 2 19.0802 146.442 4.25878
5899 1 11.8053 149.581 2.96193
12357 2 13.6237 149.583 4.263
3244 1 14.5334 151.151 2.96246
3230 1 12.7131 151.156 5.54489
5845 1 17.2615 149.581 2.96193
5843 1 15.4412 149.585 5.54436
9540 2 16.3518 151.154 4.26353
3196 1 18.1693 151.156 5.54489
12321 2 19.0799 149.583 4.263
5796 1 20.8975 149.585 5.54436
3197 1 19.9896 151.151 2.96246
6316 2 21.808 151.154 4.26353
5870 1 13.6251 133.857 8.05762
12379 2 11.8073 133.864 6.77148
12377 2 14.5347 135.436 6.78257
12342 2 17.2636 133.864 6.77148
5871 1 16.3524 135.43 8.0687
5817 1 19.0813 133.857 8.05762
2830 1 21.8087 135.43 8.0687
12343 2 19.9909 135.436 6.78257
5855 1 13.6237 137.003 8.07873
12378 2 11.8059 137.008 6.7926
12380 2 14.5334 138.581 6.80158
12334 2 17.2621 137.008 6.7926
5853 1 16.3512 138.576 8.08769
5816 1 19.0799 137.003 8.07873
2831 1 21.8074 138.576 8.08769
12332 2 19.9897 138.581 6.80158
5854 1 13.6225 140.149 8.0956
12364 2 11.8048 140.153 6.80949
12362 2 14.5325 141.725 6.81635
12333 2 17.261 140.153 6.80949
5856 1 16.3502 141.722 8.10246
5809 1 19.0788 140.149 8.0956
12335 2 19.9887 141.725 6.81635
2822 1 21.8065 141.722 8.10246
5840 1 13.6217 143.295 8.10825
12363 2 11.804 143.297 6.82215
12365 2 14.5318 144.87 6.8269
12319 2 17.2602 143.297 6.82215
5838 1 16.3495 144.868 8.113
5808 1 19.078 143.295 8.10825
12317 2 19.988 144.87 6.8269
2823 1 21.8058 144.868 8.113
5839 1 13.6212 146.441 8.11669
12356 2 11.8034 146.442 6.83059
12354 2 14.5314 148.014 6.83323
12318 2 17.2597 146.442 6.83059
5841 1 16.3491 148.014 8.11933
5795 1 19.0774 146.441 8.11669
12320 2 19.9876 148.014 6.83323
2821 1 21.8054 148.014 8.11933
5829 1 13.6209 149.587 8.12091
12355 2 11.8031 149.586 6.83481
9539 2 14.5312 151.158 6.83534
12304 2 17.2594 149.586 6.83481
3181 1 16.349 151.16 8.12145
5794 1 19.0772 149.587 8.12091
9485 2 19.9875 151.158 6.83534
157 1 21.8053 151.16 8.12145
5851 1 11.8048 133.845 10.6321
12326 2 13.623 133.839 11.9176
12376 2 12.7144 135.425 9.35555
5849 1 14.5322 135.419 10.6431
12330 2 15.4432 133.851 9.34452
5814 1 17.261 133.845 10.6321
12328 2 18.1706 135.425 9.35555
12327 2 16.3505 135.414 11.9285
12288 2 20.8994 133.851 9.34452
12285 2 19.0793 133.839 11.9176
5815 1 19.9884 135.419 10.6431
9094 2 21.8067 135.414 11.9285
5850 1 11.8035 136.994 10.653
12311 2 13.6217 136.989 11.9384
12360 2 12.7131 138.572 9.37444
5852 1 14.531 138.568 10.6619
12329 2 15.4418 136.999 9.36552
5806 1 17.2597 136.994 10.653
12331 2 18.1694 138.572 9.37444
12309 2 16.3493 138.564 11.9472
12287 2 20.8981 136.999 9.36552
12284 2 19.078 136.989 11.9384
5804 1 19.9873 138.568 10.6619
9095 2 21.8056 138.564 11.9472
5836 1 11.8024 140.143 10.6698
12310 2 13.6208 140.14 11.955
12361 2 12.7122 141.72 9.38914
5834 1 14.5301 141.718 10.6766
12315 2 15.4408 140.146 9.38232
5805 1 17.2586 140.143 10.6698
12313 2 18.1684 141.72 9.38914
12312 2 16.3485 141.715 11.9618
12286 2 20.897 140.146 9.38232
12278 2 19.077 140.14 11.955
5807 1 19.9863 141.718 10.6766
9086 2 21.8047 141.715 11.9618
5835 1 11.8016 143.292 10.6824
12299 2 13.62 143.291 11.9675
12352 2 12.7116 144.868 9.39965
5837 1 14.5295 144.867 10.6871
12314 2 15.44 143.294 9.39492
5792 1 17.2579 143.292 10.6824
12316 2 18.1678 144.868 9.39965
12297 2 16.3479 144.866 11.9722
12280 2 20.8962 143.294 9.39492
12277 2 19.0763 143.291 11.9675
5790 1 19.9857 144.867 10.6871
9087 2 21.8041 144.866 11.9722
5828 1 11.8011 146.441 10.6908
12298 2 13.6195 146.441 11.9759
12353 2 12.7112 148.015 9.40596
5826 1 14.5291 148.016 10.6934
12303 2 15.4394 146.441 9.40333
5791 1 17.2574 146.441 10.6908
12301 2 18.1674 148.015 9.40596
12300 2 16.3475 148.017 11.9785
12279 2 20.8957 146.441 9.40333
12271 2 19.0758 146.441 11.9759
5793 1 19.9853 148.016 10.6934
9085 2 21.8038 148.017 11.9785
5827 1 11.8009 149.59 10.695
12292 2 13.6193 149.592 11.9801
9519 2 12.711 151.163 9.40808
3180 1 14.529 151.165 10.6955
12302 2 15.4392 149.589 9.40754
5781 1 17.2571 149.59 10.695
9484 2 18.1673 151.163 9.40808
9469 2 16.3474 151.167 11.9806
12272 2 20.8954 149.589 9.40754
12270 2 19.0756 149.592 11.9801
3125 1 19.9852 151.165 10.6955
6254 2 21.8037 151.167 11.9806
5798 1 13.6211 133.821 15.778
12307 2 11.803 133.827 14.4903
5848 1 12.7122 135.408 13.2163
12305 2 14.5306 135.403 14.5011
5802 1 15.4409 133.832 13.2054
12282 2 17.2593 133.827 14.4903
5799 1 16.3486 135.398 15.7887
5800 1 18.1684 135.408 13.2163
2758 1 21.8049 135.398 15.7887
5769 1 19.0773 133.821 15.778
5772 1 20.8972 133.832 13.2054
12283 2 19.9868 135.403 14.5011
5784 1 13.62 136.975 15.7984
12306 2 11.8019 136.98 14.5108
5832 1 12.7111 138.561 13.2349
12308 2 14.5296 138.557 14.5196
5801 1 15.4397 136.984 13.2261
12275 2 17.2582 136.98 14.5108
5782 1 16.3477 138.553 15.8071
5803 1 18.1673 138.561 13.2349
2759 1 21.8039 138.553 15.8071
5768 1 19.0762 136.975 15.7984
5771 1 20.896 136.984 13.2261
12273 2 19.9858 138.557 14.5196
12293 2 14.5288 141.71 14.534
5783 1 13.6192 140.131 15.8148
12295 2 11.801 140.134 14.5273
5833 1 12.7103 141.713 13.2495
5785 1 16.347 141.708 15.8214
5788 1 15.4388 140.137 13.2427
12274 2 17.2573 140.134 14.5273
5786 1 18.1665 141.713 13.2495
12276 2 19.985 141.71 14.534
2750 1 21.8032 141.708 15.8214
5765 1 19.0754 140.131 15.8148
5770 1 20.895 140.137 13.2427
12296 2 14.5283 144.864 14.5443
12294 2 11.8004 143.287 14.5396
5776 1 13.6186 143.286 15.8271
5824 1 12.7097 144.865 13.2599
5774 1 16.3465 144.864 15.8317
12268 2 17.2566 143.287 14.5396
5787 1 15.4381 143.289 13.2552
5789 1 18.1659 144.865 13.2599
12266 2 19.9845 144.864 14.5443
5767 1 20.8943 143.289 13.2552
5764 1 19.0748 143.286 15.8271
2751 1 21.8027 144.864 15.8317
12289 2 14.528 148.018 14.5505
5825 1 12.7094 148.017 13.2661
12291 2 11.8 146.441 14.5479
5775 1 13.6182 146.441 15.8353
5777 1 16.3462 148.019 15.8379
5778 1 18.1656 148.017 13.2661
12267 2 17.2562 146.441 14.5479
5780 1 15.4376 146.441 13.2635
2749 1 21.8024 148.019 15.8379
12269 2 19.9842 148.018 14.5505
5766 1 20.8939 146.441 13.2635
5762 1 19.0744 146.441 15.8353
12290 2 11.7998 149.595 14.5521
5773 1 13.618 149.597 15.8395
3159 1 12.7093 151.17 13.2682
9468 2 14.5279 151.172 14.5526
5779 1 15.4374 149.593 13.2677
12265 2 17.256 149.595 14.5521
3109 1 16.3461 151.174 15.84
3124 1 18.1655 151.17 13.2682
5761 1 19.0742 149.597 15.8395
5763 1 20.8936 149.593 13.2677
9425 2 19.9841 151.172 14.5526
86 1 21.8023 151.174 15.84
6142 1 11.8014 133.809 18.35
12648 2 12.7109 135.393 17.0731
6140 1 14.5291 135.388 18.3605
12634 2 15.4395 133.815 17.0625
6119 1 17.2577 133.809 18.35
12632 2 18.1671 135.393 17.0731
12588 2 20.8958 133.815 17.0625
6120 1 19.9853 135.388 18.3605
6141 1 11.8006 136.967 18.37
12644 2 12.7101 138.549 17.0913
6143 1 14.5283 138.546 18.3785
12633 2 15.4386 136.971 17.0827
6115 1 17.2568 136.967 18.37
12635 2 18.1663 138.549 17.0913
12587 2 20.8948 136.971 17.0827
6113 1 19.9846 138.546 18.3785
6135 1 11.7999 140.125 18.3861
12645 2 12.7094 141.706 17.1055
6133 1 14.5277 141.704 18.3926
12626 2 15.4378 140.128 17.0989
6114 1 17.2561 140.125 18.3861
12624 2 18.1657 141.706 17.1055
12586 2 20.8941 140.128 17.0989
6116 1 19.984 141.704 18.3926
6134 1 11.7994 143.283 18.3982
12640 2 12.709 144.863 17.1157
6136 1 14.5273 144.862 18.4028
12625 2 15.4373 143.284 17.1111
6103 1 17.2556 143.283 18.3982
12627 2 18.1652 144.863 17.1157
12579 2 20.8935 143.284 17.1111
6101 1 19.9836 144.862 18.4028
6128 1 11.7991 146.441 18.4063
12641 2 12.7087 148.02 17.1218
6126 1 14.5271 148.021 18.4089
6102 1 17.2553 146.441 18.4063
12612 2 15.4369 146.441 17.1193
12610 2 18.165 148.02 17.1218
12578 2 20.8932 146.441 17.1193
6104 1 19.9833 148.021 18.4089
6127 1 11.7989 149.6 18.4104
9791 2 12.7086 151.177 17.1239
3456 1 14.527 151.179 18.411
6085 1 17.2552 149.6 18.4104
12611 2 15.4368 149.598 17.1234
9780 2 18.1649 151.177 17.1239
12563 2 20.893 149.598 17.1234
3430 1 19.9833 151.179 18.411
12630 2 13.62 133.803 19.6341
12618 2 11.8009 133.791 22.205
6139 1 12.7098 135.377 20.9315
12616 2 14.5287 135.372 22.2152
12631 2 16.3478 135.383 19.6445
6111 1 15.4383 133.797 20.9212
12582 2 17.2571 133.791 22.205
6109 1 18.1661 135.377 20.9315
12585 2 19.0763 133.803 19.6341
6060 1 20.8945 133.797 20.9212
12583 2 19.9849 135.372 22.2152
9378 2 21.804 135.383 19.6445
12622 2 13.6193 136.962 19.6539
12617 2 11.8003 136.953 22.2244
6131 1 12.7093 138.538 20.9492
12619 2 14.5282 138.535 22.2327
12620 2 16.3471 138.542 19.6624
6110 1 15.4377 136.958 20.9409
12574 2 17.2566 136.953 22.2244
6112 1 18.1655 138.538 20.9492
12584 2 19.0755 136.962 19.6539
6059 1 20.8939 136.958 20.9409
12572 2 19.9845 138.535 22.2327
9379 2 21.8033 138.542 19.6624
12621 2 13.6187 140.122 19.6698
12604 2 11.7999 140.116 22.2401
6132 1 12.7088 141.699 20.9631
12602 2 14.5279 141.697 22.2464
12623 2 16.3466 141.702 19.6763
6099 1 15.4372 140.119 20.9567
12573 2 17.2562 140.116 22.2401
6097 1 18.1651 141.699 20.9631
12577 2 19.075 140.122 19.6698
6058 1 20.8934 140.119 20.9567
12575 2 19.9841 141.697 22.2464
9374 2 21.8028 141.702 19.6763
12608 2 13.6183 143.282 19.6818
12603 2 11.7997 143.279 22.2518
6124 1 12.7086 144.861 20.9731
12605 2 14.5277 144.86 22.2563
12606 2 16.3463 144.861 19.6864
6098 1 15.4368 143.28 20.9686
12559 2 17.2559 143.279 22.2518
6100 1 18.1648 144.861 20.9731
12576 2 19.0745 143.282 19.6818
6051 1 20.893 143.28 20.9686
12557 2 19.9839 144.86 22.2563
9375 2 21.8025 144.861 19.6864
12607 2 13.618 146.441 19.6899
12596 2 11.7995 146.442 22.2598
6125 1 12.7084 148.022 20.9791
12594 2 14.5275 148.023 22.2623
12609 2 16.3461 148.021 19.6924
6084 1 15.4366 146.442 20.9766
12558 2 17.2557 146.442 22.2598
6082 1 18.1646 148.022 20.9791
12562 2 19.0743 146.441 19.6899
6050 1 20.8928 146.442 20.9766
12560 2 19.9838 148.023 22.2623
9373 2 21.8023 148.021 19.6924
12597 2 13.6179 149.601 19.694
12595 2 11.7994 149.605 22.2638
3450 1 12.7083 151.184 20.9812
9772 2 14.5275 151.186 22.2644
6083 1 15.4365 149.603 20.9806
12541 2 17.2556 149.605 22.2638
9773 2 16.346 151.181 19.6945
3429 1 18.1646 151.184 20.9812
12561 2 19.0741 149.601 19.694
6035 1 20.8927 149.603 20.9806
9725 2 19.9837 151.186 22.2644
6526 2 21.8022 151.181 19.6945
6107 1 13.6193 133.785 23.4918
12615 2 12.71 135.362 24.7851
12570 2 15.4383 133.78 24.7752
6108 1 16.3472 135.367 23.5018
12568 2 18.1663 135.362 24.7851
6057 1 19.0755 133.785 23.4918
12516 2 20.8945 133.78 24.7752
3057 1 21.8034 135.367 23.5018
6095 1 13.6189 136.949 23.511
12600 2 12.7098 138.528 24.8023
12569 2 15.438 136.945 24.7942
6093 1 16.3468 138.531 23.5192
12571 2 18.166 138.528 24.8023
6056 1 19.0751 136.949 23.511
12515 2 20.8942 136.945 24.7942
3058 1 21.8031 138.531 23.5192
6094 1 13.6186 140.113 23.5265
12601 2 12.7096 141.693 24.8158
12555 2 15.4378 140.11 24.8095
6096 1 16.3466 141.695 23.5328
12553 2 18.1658 141.693 24.8158
6049 1 19.0748 140.113 23.5265
12514 2 20.894 140.11 24.8095
3050 1 21.8028 141.695 23.5328
6080 1 13.6183 143.277 23.5382
12592 2 12.7095 144.859 24.8255
12554 2 15.4376 143.276 24.8211
6078 1 16.3464 144.86 23.5426
12556 2 18.1657 144.859 24.8255
6048 1 19.0746 143.277 23.5382
12507 2 20.8939 143.276 24.8211
3051 1 21.8026 144.86 23.5426
6079 1 13.6182 146.442 23.5461
12593 2 12.7094 148.025 24.8314
12540 2 15.4375 146.442 24.8289
6081 1 16.3463 148.024 23.5486
12538 2 18.1656 148.025 24.8314
6034 1 19.0744 146.442 23.5461
12506 2 20.8938 146.442 24.8289
3049 1 21.8025 148.024 23.5486
6069 1 13.6181 149.606 23.5501
9758 2 12.7094 151.191 24.8334
12539 2 15.4375 149.608 24.8329
3418 1 16.3463 151.189 23.5506
9724 2 18.1656 151.191 24.8334
6033 1 19.0744 149.606 23.5501
12492 2 20.8937 149.608 24.8329
377 1 21.8025 151.189 23.5506
6091 1 11.8006 133.774 26.0615
6089 1 14.5287 135.357 26.0714
12566 2 13.6199 133.768 27.3445
6088 1 12.7106 135.347 28.64
6054 1 17.2569 133.774 26.0615
6042 1 15.4387 133.762 28.6304
12567 2 16.348 135.352 27.3542
6040 1 18.1669 135.347 28.64
9334 2 21.8042 135.352 27.3542
6055 1 19.9849 135.357 26.0714
5994 1 20.895 133.762 28.6304
12513 2 19.0761 133.768 27.3445
6090 1 11.8005 136.94 26.0803
6092 1 14.5285 138.524 26.0884
12551 2 13.6199 136.936 27.3631
6072 1 12.7107 138.517 28.6567
6046 1 17.2567 136.94 26.0803
6041 1 15.4388 136.932 28.6488
12549 2 16.348 138.52 27.3711
6043 1 18.167 138.517 28.6567
9335 2 21.8042 138.52 27.3711
6044 1 19.9848 138.524 26.0884
5993 1 20.895 136.932 28.6488
12512 2 19.0761 136.936 27.3631
6076 1 11.8004 140.108 26.0955
6074 1 14.5285 141.691 26.1017
12550 2 13.6198 140.105 27.3782
6073 1 12.7108 141.687 28.6699
6045 1 17.2566 140.108 26.0955
6027 1 15.4389 140.102 28.6638
12552 2 16.348 141.689 27.3843
6025 1 18.167 141.687 28.6699
9326 2 21.8042 141.689 27.3843
6047 1 19.9847 141.691 26.1017
5992 1 20.8951 140.102 28.6638
12505 2 19.0761 140.105 27.3782
6075 1 11.8003 143.275 26.107
6077 1 14.5284 144.859 26.1114
12536 2 13.6198 143.274 27.3896
6064 1 12.7108 144.858 28.6793
6031 1 17.2565 143.275 26.107
6026 1 15.4389 143.272 28.6751
12534 2 16.3479 144.858 27.3939
6028 1 18.1671 144.858 28.6793
9327 2 21.8042 144.858 27.3939
6029 1 19.9846 144.859 26.1114
5985 1 20.8952 143.272 28.6751
12504 2 19.0761 143.274 27.3896
6068 1 11.8002 146.442 26.1148
6066 1 14.5283 148.026 26.1172
12535 2 13.6198 146.443 27.3972
6065 1 12.7109 148.028 28.6851
6030 1 17.2565 146.442 26.1148
6013 1 15.439 146.443 28.6827
12537 2 16.3479 148.027 27.3997
6011 1 18.1671 148.028 28.6851
9325 2 21.8042 148.027 27.3997
6032 1 19.9846 148.026 26.1172
5984 1 20.8952 146.443 28.6827
12491 2 19.0761 146.443 27.3972
6067 1 11.8002 149.61 26.1187
12525 2 13.6198 149.612 27.4012
3417 1 14.5283 151.194 26.1193
3399 1 12.7109 151.199 28.6872
6014 1 17.2565 149.61 26.1187
6012 1 15.439 149.613 28.6866
9709 2 16.3479 151.196 27.4017
3364 1 18.1671 151.199 28.6872
5973 1 20.8952 149.613 28.6866
12490 2 19.0761 149.612 27.4012
3365 1 19.9846 151.194 26.1193
6493 2 21.8042 151.196 27.4017
6038 1 13.6211 133.75 31.1983
12547 2 11.802 133.756 29.9129
12544 2 12.713 135.332 32.4898
12545 2 14.5302 135.342 29.9225
12498 2 15.4409 133.744 32.4803
12510 2 17.2583 133.756 29.9129
6039 1 16.3494 135.337 31.2078
12496 2 18.1692 135.332 32.4898
2998 1 21.8056 135.337 31.2078
5991 1 19.0773 133.75 31.1983
12468 2 20.8972 133.744 32.4803
12511 2 19.9865 135.342 29.9225
6023 1 13.6214 136.923 31.2164
12546 2 11.8022 136.927 29.9312
12528 2 12.7134 138.506 32.5061
12548 2 14.5304 138.513 29.939
12497 2 15.4413 136.919 32.4983
12502 2 17.2584 136.927 29.9312
6021 1 16.3496 138.51 31.2242
12499 2 18.1696 138.506 32.5061
2999 1 21.8059 138.51 31.2242
5990 1 19.0776 136.923 31.2164
12467 2 20.8976 136.919 32.4983
12500 2 19.9866 138.513 29.939
6022 1 13.6216 140.096 31.2311
12532 2 11.8024 140.099 29.946
12529 2 12.7136 141.681 32.5189
12530 2 14.5305 141.685 29.952
12484 2 15.4416 140.094 32.5129
12501 2 17.2586 140.099 29.946
6024 1 16.3498 141.683 31.2372
12482 2 18.1699 141.681 32.5189
2990 1 21.8061 141.683 31.2372
5983 1 19.0779 140.096 31.2311
12466 2 20.8979 140.094 32.5129
12503 2 19.9868 141.685 29.952
6009 1 13.6218 143.27 31.2423
12531 2 11.8025 143.271 29.9572
12520 2 12.7138 144.856 32.5282
12533 2 14.5306 144.857 29.9614
12483 2 15.4419 143.268 32.524
12488 2 17.2587 143.271 29.9572
6007 1 16.35 144.857 31.2465
12485 2 18.1701 144.856 32.5282
2991 1 21.8062 144.857 31.2465
5982 1 19.078 143.27 31.2423
12463 2 20.8981 143.268 32.524
12486 2 19.9869 144.857 29.9614
6008 1 13.6219 146.443 31.2498
12524 2 11.8025 146.443 29.9648
12521 2 12.7139 148.031 32.5338
12522 2 14.5307 148.029 29.9672
12476 2 15.442 146.444 32.5315
12487 2 17.2588 146.443 29.9648
6010 1 16.3501 148.03 31.2522
12474 2 18.1702 148.031 32.5338
2989 1 21.8063 148.03 31.2522
5972 1 19.0782 146.443 31.2498
12462 2 20.8982 146.444 32.5315
12489 2 19.9869 148.029 29.9672
6000 1 13.622 149.617 31.2537
12523 2 11.8026 149.615 29.9687
9687 2 12.714 151.206 32.5359
9708 2 14.5307 151.201 29.9692
12475 2 15.4421 149.619 32.5353
12477 2 17.2588 149.615 29.9687
9652 2 18.1702 151.206 32.5359
3349 1 16.3501 151.204 31.2542
5971 1 19.0782 149.617 31.2537
12459 2 20.8983 149.619 32.5353
326 1 21.8063 151.204 31.2542
9653 2 19.9869 151.201 29.9692
6019 1 11.804 133.739 33.7652
12494 2 13.6242 133.733 35.0467
6017 1 14.5324 135.326 33.7746
5988 1 17.2602 133.739 33.7652
12495 2 16.3526 135.321 35.0561
9262 2 21.8088 135.321 35.0561
12465 2 19.0804 133.733 35.0467
5989 1 19.9886 135.326 33.7746
6020 1 14.5328 138.503 33.7908
6018 1 11.8045 136.914 33.7831
12480 2 13.6248 136.91 35.0645
12478 2 16.3531 138.499 35.0722
5980 1 17.2608 136.914 33.7831
9263 2 21.8094 138.499 35.0722
5978 1 19.9891 138.503 33.7908
12464 2 19.081 136.91 35.0645
6003 1 14.5332 141.679 33.8036
6005 1 11.8049 140.091 33.7976
12479 2 13.6252 140.088 35.079
12481 2 16.3535 141.677 35.0849
5979 1 17.2612 140.091 33.7976
9254 2 21.8097 141.677 35.0849
5981 1 19.9894 141.679 33.8036
12461 2 19.0814 140.088 35.079
6006 1 14.5334 144.856 33.8128
12472 2 13.6255 143.266 35.0899
6004 1 11.8052 143.267 33.8086
12470 2 16.3538 144.855 35.094
5969 1 17.2614 143.267 33.8086
9255 2 21.81 144.855 35.094
5967 1 19.9897 144.856 33.8128
12460 2 19.0818 143.266 35.0899
5997 1 14.5336 148.032 33.8184
12471 2 13.6257 146.444 35.0973
5999 1 11.8054 146.444 33.8161
12473 2 16.3539 148.033 35.0997
5968 1 17.2616 146.444 33.8161
5970 1 19.9898 148.032 33.8184
12458 2 19.082 146.444 35.0973
9253 2 21.8102 148.033 35.0997
12469 2 13.6258 149.622 35.1011
5998 1 11.8055 149.621 33.8199
5962 1 17.2617 149.621 33.8199
12457 2 19.0821 149.622 35.1011
12670 2 11.8081 133.721 37.6121
17811 1 13.628 133.715 38.8959
6016 1 12.716 135.316 36.3404
12668 2 14.5366 135.311 37.6213
12659 2 17.2643 133.721 37.6121
18165 1 16.3566 135.306 38.9051
5976 1 15.4438 133.727 36.3311
5974 1 18.1723 135.316 36.3404
5958 1 20.9 133.727 36.3311
17781 1 19.0843 133.715 38.8959
12660 2 19.9928 135.311 37.6213
15352 1 21.8128 135.306 38.9051
12669 2 11.8088 136.901 37.6297
18166 1 13.6288 136.897 38.9135
6001 1 12.7166 138.495 36.3564
12671 2 14.5372 138.492 37.6373
12656 2 17.265 136.901 37.6297
18167 1 16.3573 138.488 38.9211
5975 1 15.4445 136.906 36.3488
5977 1 18.1729 138.495 36.3564
18137 1 19.0851 136.897 38.9135
5957 1 20.9007 136.906 36.3488
12654 2 19.9935 138.492 37.6373
15350 1 21.8135 138.488 38.9211
12666 2 11.8094 140.082 37.6441
18162 1 13.6294 140.079 38.9278
6002 1 12.7171 141.675 36.3691
12664 2 14.5377 141.673 37.6499
12655 2 17.2656 140.082 37.6441
18160 1 16.3578 141.671 38.9337
5965 1 15.445 140.085 36.3632
5963 1 18.1733 141.675 36.3691
18136 1 19.0857 140.079 38.9278
5956 1 20.9012 140.085 36.3632
12657 2 19.9939 141.673 37.6499
15351 1 21.814 141.671 38.9337
12665 2 11.8098 143.263 37.6549
18161 1 13.6299 143.262 38.9386
5995 1 12.7174 144.855 36.3782
12667 2 14.538 144.854 37.659
12652 2 17.266 143.263 37.6549
18163 1 16.3582 144.854 38.9427
5964 1 15.4454 143.265 36.3741
5966 1 18.1736 144.855 36.3782
18131 1 19.0861 143.262 38.9386
5955 1 20.9016 143.265 36.3741
12650 2 19.9943 144.854 37.659
15348 1 21.8144 144.854 38.9427
12663 2 11.81 146.445 37.6623
18152 1 13.6302 146.445 38.946
5996 1 12.7176 148.034 36.3838
12661 2 14.5382 148.035 37.6646
12651 2 17.2663 146.445 37.6623
18150 1 16.3584 148.036 38.9483
5961 1 15.4456 146.444 36.3815
5959 1 18.1738 148.034 36.3838
18130 1 19.0864 146.445 38.946
5954 1 20.9019 146.444 36.3815
12653 2 19.9945 148.035 37.6646
15349 1 21.8146 148.036 38.9483
12662 2 11.8101 149.626 37.6661
18151 1 13.6303 149.628 38.9498
12649 2 17.2664 149.626 37.6661
5960 1 15.4457 149.624 36.3853
18117 1 19.0865 149.628 38.9498
5953 1 20.902 149.624 36.3853
23791 2 12.7212 135.3 40.1855
17809 1 11.8129 133.702 41.4596
18164 1 14.5415 135.295 41.4688
17761 1 17.2692 133.702 41.4596
23423 2 15.4489 133.708 40.1763
23782 2 18.1774 135.3 40.1855
18133 1 19.9977 135.295 41.4688
23375 2 20.9051 133.708 40.1763
23792 2 12.7219 138.484 40.2015
18158 1 11.8138 136.888 41.4772
18156 1 14.5423 138.481 41.4848
23780 2 15.4497 136.892 40.1939
18134 1 17.27 136.888 41.4772
23778 2 18.1782 138.484 40.2015
18135 1 19.9985 138.481 41.4848
23742 2 20.9059 136.892 40.1939
23788 2 12.7225 141.669 40.214
18157 1 11.8145 140.074 41.4915
18159 1 14.5429 141.667 41.4973
23779 2 15.4503 140.077 40.2082
18128 1 17.2707 140.074 41.4915
23781 2 18.1787 141.669 40.214
18126 1 19.9991 141.667 41.4973
23741 2 20.9066 140.077 40.2082
23789 2 12.7229 144.853 40.2231
18148 1 11.815 143.26 41.5023
18146 1 14.5433 144.853 41.5064
18127 1 17.2712 143.26 41.5023
23772 2 15.4508 143.261 40.219
23770 2 18.1791 144.853 40.2231
18129 1 19.9995 144.853 41.5064
23740 2 20.907 143.261 40.219
23785 2 12.7231 148.037 40.2286
18147 1 11.8153 146.445 41.5096
18149 1 14.5435 148.038 41.5119
18116 1 17.2715 146.445 41.5096
23771 2 15.4511 146.445 40.2263
23773 2 18.1793 148.037 40.2286
18114 1 19.9997 148.038 41.5119
23733 2 20.9073 146.445 40.2263
18141 1 11.8154 149.631 41.5133
18115 1 17.2717 149.631 41.5133
23758 2 15.4512 149.63 40.2301
23732 2 20.9075 149.63 40.2301
23409 2 13.6341 133.696 42.7394
18154 1 12.7271 135.285 44.0314
23407 2 11.8201 133.684 45.3015
23774 2 14.5487 135.279 45.3108
23775 2 16.3627 135.29 42.7487
17759 1 15.4548 133.69 44.0222
23354 2 17.2763 133.684 45.3015
18132 1 18.1834 135.285 44.0314
23373 2 19.0904 133.696 42.7394
23735 2 20.0049 135.279 45.3108
17711 1 20.911 133.69 44.0222
20970 2 21.819 135.29 42.7487
23776 2 13.635 136.883 42.7571
18155 1 12.7279 138.473 44.0474
23764 2 11.821 136.874 45.3192
23762 2 14.5495 138.47 45.3268
23777 2 16.3635 138.477 42.7646
18124 1 15.4557 136.879 44.0399
23736 2 17.2772 136.874 45.3192
18122 1 18.1842 138.473 44.0474
20966 2 21.8198 138.477 42.7646
23739 2 19.0913 136.883 42.7571
18082 1 20.9119 136.879 44.0399
23737 2 20.0057 138.47 45.3268
23768 2 13.6357 140.071 42.7713
18144 1 12.7286 141.662 44.06
23763 2 11.8217 140.065 45.3335
23766 2 16.3641 141.664 42.7772
18123 1 15.4564 140.068 44.0541
23728 2 17.278 140.065 45.3335
23765 2 14.5501 141.66 45.3394
18125 1 18.1848 141.662 44.06
20967 2 21.8204 141.664 42.7772
23738 2 19.092 140.071 42.7713
18081 1 20.9126 140.068 44.0541
23726 2 20.0064 141.66 45.3394
23767 2 13.6362 143.258 42.7822
18145 1 12.729 144.851 44.069
23753 2 11.8222 143.255 45.3443
23769 2 16.3645 144.852 42.7862
18112 1 15.4569 143.257 44.0649
23727 2 17.2785 143.255 45.3443
23751 2 14.5506 144.851 45.3484
18110 1 18.1852 144.851 44.069
20963 2 21.8208 144.852 42.7862
23731 2 19.0925 143.258 42.7822
18080 1 20.9132 143.257 44.0649
23729 2 20.0068 144.851 45.3484
23757 2 13.6365 146.446 42.7895
18140 1 12.7292 148.041 44.0746
23752 2 11.8226 146.446 45.3517
23755 2 16.3648 148.039 42.7918
18111 1 15.4573 146.446 44.0722
23716 2 17.2788 146.446 45.3517
23754 2 14.5508 148.041 45.354
18113 1 18.1855 148.041 44.0746
20964 2 21.821 148.039 42.7918
23730 2 19.0928 146.446 42.7895
18073 1 20.9135 146.446 44.0722
23714 2 20.007 148.041 45.354
23756 2 13.6367 149.633 42.7932
23746 2 11.8227 149.637 45.3554
18098 1 15.4574 149.635 44.076
23715 2 17.279 149.637 45.3554
23717 2 19.0929 149.633 42.7932
18072 1 20.9136 149.635 44.076
18153 1 10.9134 135.274 46.593
23760 2 12.7353 135.268 47.8718
17743 1 11.828 133.665 49.144
17745 1 13.6411 133.678 46.5837
18118 1 14.5566 135.263 49.1535
18119 1 16.3697 135.274 46.593
17692 1 17.2843 133.665 49.144
23352 2 15.463 133.671 47.8624
18075 1 20.0129 135.263 49.1535
23734 2 18.1916 135.268 47.8718
17709 1 19.0973 133.678 46.5837
23313 2 20.9192 133.671 47.8624
18104 1 11.8289 136.861 49.162
18120 1 13.642 136.87 46.6015
18142 1 10.9142 138.466 46.6091
23761 2 12.7361 138.462 47.8879
18076 1 17.2852 136.861 49.162
18102 1 14.5574 138.458 49.1697
18121 1 16.3705 138.466 46.6091
23724 2 15.4639 136.865 47.8803
18077 1 20.0137 138.458 49.1697
18079 1 19.0982 136.87 46.6015
23687 2 20.9201 136.865 47.8803
23722 2 18.1924 138.462 47.8879
18103 1 11.8296 140.056 49.1765
18108 1 13.6427 140.062 46.6158
18143 1 10.9149 141.658 46.6217
23749 2 12.7368 141.656 47.9006
18068 1 17.2859 140.056 49.1765
18105 1 14.558 141.654 49.1824
18106 1 16.3711 141.658 46.6217
23723 2 15.4646 140.059 47.8947
18066 1 20.0143 141.654 49.1824
18078 1 19.0989 140.062 46.6158
23686 2 20.9208 140.059 47.8947
23725 2 18.193 141.656 47.9006
18093 1 11.8302 143.251 49.1874
18107 1 13.6432 143.254 46.6267
18138 1 10.9153 144.85 46.6308
23750 2 12.7372 144.85 47.9097
18067 1 17.2864 143.251 49.1874
18091 1 14.5585 144.849 49.1915
18109 1 16.3715 144.85 46.6308
23712 2 15.4651 143.253 47.9056
18069 1 20.0147 144.849 49.1915
18071 1 19.0995 143.254 46.6267
23685 2 20.9214 143.253 47.9056
23710 2 18.1934 144.85 47.9097
18092 1 11.8305 146.447 49.1948
18097 1 13.6436 146.446 46.634
18139 1 10.9156 148.043 46.6363
23745 2 12.7374 148.043 47.9152
18056 1 17.2867 146.447 49.1948
18094 1 14.5587 148.045 49.1971
18095 1 16.3718 148.043 46.6363
23711 2 15.4655 146.447 47.9129
18054 1 20.015 148.045 49.1971
18070 1 19.0998 146.446 46.634
23678 2 20.9217 146.447 47.9129
23713 2 18.1937 148.043 47.9152
18086 1 11.8307 149.642 49.1985
18096 1 13.6437 149.639 46.6377
18055 1 17.2869 149.642 49.1985
23699 2 15.4656 149.64 47.9167
18057 1 19.1 149.639 46.6377
23677 2 20.9219 149.64 47.9167
18100 1 12.7442 135.252 51.7129
23759 2 10.9226 135.257 50.4317
23340 2 13.6503 133.659 50.4222
23719 2 16.3789 135.257 50.4317
17690 1 15.4719 133.652 51.7034
18074 1 18.2005 135.252 51.7129
17660 1 20.9281 133.652 51.7034
23311 2 19.1065 133.659 50.4222
18101 1 12.745 138.451 51.7293
23720 2 13.6512 136.856 50.4403
23747 2 10.9234 138.454 50.448
18064 1 15.4727 136.851 51.7216
23721 2 16.3796 138.454 50.448
18032 1 20.929 136.851 51.7216
18062 1 18.2012 138.451 51.7293
23684 2 19.1074 136.856 50.4403
18089 1 12.7456 141.649 51.7421
23708 2 13.6518 140.053 50.4548
23748 2 10.924 141.651 50.4608
18063 1 15.4734 140.05 51.7362
23706 2 16.3802 141.651 50.4608
18031 1 20.9297 140.05 51.7362
18065 1 18.2018 141.649 51.7421
23683 2 19.1081 140.053 50.4548
18090 1 12.746 144.848 51.7513
23707 2 13.6524 143.25 50.4658
23743 2 10.9244 144.848 50.4699
18052 1 15.474 143.249 51.7472
23709 2 16.3807 144.848 50.4699
18030 1 20.9302 143.249 51.7472
18050 1 18.2023 144.848 51.7513
23676 2 19.1086 143.25 50.4658
18085 1 12.7463 148.047 51.7569
23698 2 13.6527 146.447 50.4732
23744 2 10.9247 148.045 50.4755
18051 1 15.4743 146.447 51.7546
23696 2 16.3809 148.045 50.4755
18024 1 20.9305 146.447 51.7546
18053 1 18.2025 148.047 51.7569
23675 2 19.1089 146.447 50.4732
23697 2 13.6529 149.644 50.477
18041 1 15.4744 149.646 51.7583
18023 1 20.9307 149.646 51.7583
23666 2 19.1091 149.644 50.477
18099 1 10.9325 135.241 54.2713
23700 2 12.7553 135.235 55.5485
17680 1 13.6601 133.64 54.2616
23338 2 11.8382 133.646 52.981
18059 1 16.3887 135.241 54.2713
23718 2 14.5668 135.246 52.9906
23300 2 15.483 133.633 55.5388
23302 2 17.2945 133.646 52.981
23679 2 18.2116 135.235 55.5485
23680 2 20.023 135.246 52.9906
17658 1 19.1164 133.64 54.2616
23293 2 20.9393 133.633 55.5388
18060 1 13.661 136.842 54.2801
18087 1 10.9332 138.443 54.2879
23701 2 12.756 138.439 55.5652
23704 2 11.8391 136.846 52.9993
18061 1 16.3894 138.443 54.2879
23669 2 15.4838 136.837 55.5574
23681 2 17.2953 136.846 52.9993
23702 2 14.5675 138.446 53.0071
18029 1 19.1172 136.842 54.2801
23657 2 20.9401 136.837 55.5574
23667 2 18.2123 138.439 55.5652
23682 2 20.0238 138.446 53.0071
18048 1 13.6616 140.044 54.2949
18088 1 10.9338 141.645 54.3009
23690 2 12.7566 141.642 55.5782
23703 2 11.8397 140.047 53.014
18046 1 16.39 141.645 54.3009
23668 2 15.4845 140.04 55.5722
23673 2 17.296 140.047 53.014
23705 2 14.5681 141.647 53.02
18028 1 19.1179 140.044 54.2949
23656 2 20.9407 140.04 55.5722
23670 2 18.2128 141.642 55.5782
23671 2 20.0244 141.647 53.02
18047 1 13.6621 143.246 54.306
18083 1 10.9342 144.846 54.3101
23691 2 12.757 144.846 55.5876
23694 2 11.8402 143.247 53.0251
18049 1 16.3904 144.846 54.3101
23661 2 15.4849 143.244 55.5834
23672 2 17.2965 143.247 53.0251
23692 2 14.5685 144.847 53.0292
18022 1 19.1184 143.246 54.306
23655 2 20.9412 143.244 55.5834
23659 2 18.2132 144.846 55.5876
23674 2 20.0248 144.847 53.0292
18040 1 13.6624 146.447 54.3134
18084 1 10.9344 148.048 54.3157
23688 2 12.7573 148.049 55.5932
23693 2 11.8406 146.447 53.0325
18038 1 16.3907 148.048 54.3157
23660 2 15.4853 146.447 55.5908
23665 2 17.2968 146.447 53.0325
23695 2 14.5688 148.047 53.0348
23663 2 20.025 148.047 53.0348
23662 2 18.2135 148.049 55.5932
23654 2 20.9415 146.447 55.5908
18021 1 19.1187 146.447 54.3134
23689 2 11.8407 149.648 53.0363
18039 1 13.6626 149.649 54.3172
23664 2 17.297 149.648 53.0363
23658 2 15.4854 149.651 55.5946
23653 2 20.9417 149.651 55.5946
18016 1 19.1188 149.649 54.3172
23952 2 10.9445 135.224 58.1054
17678 1 11.849 133.627 56.8189
23619 2 13.6722 133.62 58.0955
23945 2 16.4007 135.224 58.1054
18058 1 14.5775 135.229 56.8288
17653 1 17.3053 133.627 56.8189
18025 1 20.0338 135.229 56.8288
23589 2 19.1284 133.62 58.0955
23946 2 13.6729 136.827 58.1144
23950 2 10.9451 138.43 58.1224
18044 1 11.8498 136.832 56.8376
23947 2 16.4014 138.43 58.1224
18026 1 17.306 136.832 56.8376
18042 1 14.5782 138.435 56.8456
23917 2 19.1292 136.827 58.1144
18027 1 20.0345 138.435 56.8456
23942 2 13.6736 140.034 58.1294
23951 2 10.9457 141.637 58.1355
18043 1 11.8504 140.037 56.8526
23940 2 16.4019 141.637 58.1355
18019 1 17.3066 140.037 56.8526
18045 1 14.5788 141.64 56.8586
23916 2 19.1298 140.034 58.1294
18017 1 20.035 141.64 56.8586
23941 2 13.674 143.241 58.1407
23948 2 10.9461 144.844 58.1449
18036 1 11.8509 143.242 56.8638
23943 2 16.4023 144.844 58.1449
18018 1 17.3071 143.242 56.8638
18034 1 14.5792 144.845 56.868
23911 2 19.1303 143.241 58.1407
18020 1 20.0354 144.845 56.868
23932 2 13.6743 146.448 58.1482
23949 2 10.9463 148.051 58.1506
18035 1 11.8512 146.448 56.8713
23930 2 16.4026 148.051 58.1506
18015 1 17.3074 146.448 56.8713
18037 1 14.5794 148.05 56.8736
23910 2 19.1306 146.448 58.1482
18013 1 20.0357 148.05 56.8736
23931 2 13.6745 149.655 58.152
18033 1 11.8514 149.653 56.8751
18014 1 17.3076 149.653 56.8751
23897 2 19.1307 149.655 58.152
18311 1 12.7669 135.218 59.3853
18310 1 10.9569 135.207 61.9409
17961 1 13.6847 133.6 61.9308
23617 2 11.8619 133.607 60.6513
17975 1 15.4947 133.614 59.3753
18295 1 16.4131 135.207 61.9409
23944 2 14.5904 135.212 60.6614
23569 2 17.3182 133.607 60.6513
18302 1 18.2232 135.218 59.3853
17927 1 20.9509 133.614 59.3753
23913 2 20.0466 135.212 60.6614
17925 1 19.1409 133.6 61.9308
18312 1 12.7676 138.427 59.4023
18296 1 13.6854 136.813 61.95
18306 1 10.9576 138.419 61.9582
23938 2 11.8626 136.817 60.6704
18300 1 15.4954 136.822 59.3943
18297 1 16.4138 138.419 61.9582
23914 2 17.3189 136.817 60.6704
23936 2 14.5911 138.422 60.6785
18262 1 20.9517 136.822 59.3943
18298 1 18.2239 138.427 59.4023
18259 1 19.1416 136.813 61.95
23915 2 20.0473 138.422 60.6785
18308 1 12.7681 141.635 59.4155
18288 1 13.686 140.024 61.9653
18307 1 10.9581 141.63 61.9715
23937 2 11.8632 140.028 60.6856
18299 1 15.496 140.031 59.4094
18286 1 16.4143 141.63 61.9715
23908 2 17.3195 140.028 60.6856
23939 2 14.5916 141.633 60.6918
18261 1 20.9523 140.031 59.4094
18301 1 18.2244 141.635 59.4155
18258 1 19.1422 140.024 61.9653
23906 2 20.0478 141.633 60.6918
18309 1 12.7685 144.844 59.4249
18287 1 13.6864 143.236 61.9767
18303 1 10.9585 144.842 61.981
23928 2 11.8637 143.238 60.697
18292 1 15.4965 143.239 59.4207
18289 1 16.4147 144.842 61.981
23907 2 17.3199 143.238 60.697
23926 2 14.592 144.843 60.7012
18260 1 20.9527 143.239 59.4207
18290 1 18.2248 144.844 59.4249
18251 1 19.1427 143.236 61.9767
23909 2 20.0482 144.843 60.7012
18305 1 12.7688 148.052 59.4306
18277 1 13.6867 146.448 61.9843
18304 1 10.9587 148.054 61.9866
23927 2 11.864 146.448 60.7045
18291 1 15.4968 146.448 59.4282
18275 1 16.415 148.054 61.9866
23896 2 17.3202 146.448 60.7045
23929 2 14.5922 148.053 60.7069
18253 1 20.953 146.448 59.4282
18293 1 18.225 148.052 59.4306
18250 1 19.143 146.448 61.9843
23894 2 20.0485 148.053 60.7069
18276 1 13.6869 149.66 61.9881
23921 2 11.8642 149.658 60.7084
18278 1 15.497 149.656 59.432
23895 2 17.3204 149.658 60.7084
18252 1 20.9532 149.656 59.432
18237 1 19.1431 149.66 61.9881
23933 2 10.9714 135.189 65.77
23934 2 12.7807 135.201 63.2163
17959 1 11.8751 133.588 64.4858
23553 2 13.6991 133.581 65.7597
18294 1 14.6036 135.195 64.4961
23899 2 16.4276 135.189 65.77
17906 1 17.3314 133.588 64.4858
23567 2 15.5084 133.594 63.2061
18255 1 20.0598 135.195 64.4961
23912 2 18.2369 135.201 63.2163
23517 2 19.1554 133.581 65.7597
23519 2 20.9646 133.594 63.2061
18284 1 11.8758 136.803 64.5053
23900 2 13.6999 136.798 65.7792
23922 2 10.9721 138.406 65.7874
23935 2 12.7813 138.414 63.2336
18256 1 17.3321 136.803 64.5053
18282 1 14.6043 138.411 64.5135
23901 2 16.4283 138.406 65.7874
23904 2 15.5091 136.807 63.2254
18257 1 20.0605 138.411 64.5135
23859 2 19.1561 136.798 65.7792
23862 2 20.9654 136.807 63.2254
23902 2 18.2375 138.414 63.2336
18283 1 11.8764 140.018 64.5207
23888 2 13.7005 140.015 65.7947
23923 2 10.9726 141.623 65.8009
23924 2 12.7818 141.628 63.247
18248 1 17.3327 140.018 64.5207
18285 1 14.6048 141.626 64.5269
23886 2 16.4288 141.623 65.8009
23903 2 15.5097 140.021 63.2408
18246 1 20.061 141.626 64.5269
23858 2 19.1567 140.015 65.7947
23861 2 20.9659 140.021 63.2408
23905 2 18.2381 141.628 63.247
18273 1 11.8769 143.233 64.5321
23887 2 13.7009 143.231 65.8062
23918 2 10.973 144.84 65.8105
23925 2 12.7822 144.841 63.2565
18247 1 17.3331 143.233 64.5321
18271 1 14.6052 144.841 64.5364
23889 2 16.4293 144.84 65.8105
23892 2 15.5102 143.235 63.2522
18249 1 20.0614 144.841 64.5364
23851 2 19.1572 143.231 65.8062
23860 2 20.9664 143.235 63.2522
23890 2 18.2385 144.841 63.2565
18272 1 11.8772 146.448 64.5398
23877 2 13.7013 146.448 65.8139
23919 2 10.9733 148.056 65.8162
23920 2 12.7825 148.055 63.2622
18236 1 17.3334 146.448 64.5398
18274 1 14.6054 148.056 64.5421
23875 2 16.4295 148.056 65.8162
23891 2 15.5105 146.448 63.2598
18234 1 20.0617 148.056 64.5421
23850 2 19.1575 146.448 65.8139
23853 2 20.9667 146.448 63.2598
23893 2 18.2387 148.055 63.2622
18266 1 11.8774 149.664 64.5436
23876 2 13.7014 149.665 65.8177
18235 1 17.3336 149.664 64.5436
23878 2 15.5106 149.661 63.2637
23837 2 19.1577 149.665 65.8177
23852 2 20.9669 149.661 63.2637
18280 1 12.7944 135.185 67.0516
23551 2 11.8902 133.567 68.3112
23898 2 14.6188 135.177 68.3216
17904 1 15.5221 133.575 67.0413
23500 2 17.3465 133.567 68.3112
18254 1 18.2506 135.185 67.0516
23855 2 20.075 135.177 68.3216
17865 1 20.9783 133.575 67.0413
18281 1 12.795 138.403 67.0692
23884 2 11.891 136.788 68.3309
18244 1 15.5228 136.794 67.0609
23856 2 17.3472 136.788 68.3309
23882 2 14.6195 138.398 68.3392
18207 1 20.9791 136.794 67.0609
18242 1 18.2513 138.403 67.0692
23857 2 20.0757 138.398 68.3392
18269 1 12.7956 141.622 67.0827
23883 2 11.8917 140.008 68.3465
18243 1 15.5235 140.013 67.0764
23848 2 17.3479 140.008 68.3465
23885 2 14.62 141.618 68.3528
18206 1 20.9797 140.013 67.0764
18245 1 18.2518 141.622 67.0827
23846 2 20.0763 141.618 68.3528
18270 1 12.796 144.84 67.0923
23873 2 11.8922 143.228 68.3581
18232 1 15.5239 143.231 67.088
23847 2 17.3484 143.228 68.3581
23871 2 14.6205 144.838 68.3624
18205 1 20.9802 143.231 67.088
18230 1 18.2523 144.84 67.0923
23849 2 20.0767 144.838 68.3624
23872 2 11.8925 146.448 68.3658
18231 1 15.5243 146.45 67.0956
23836 2 17.3487 146.448 68.3658
18198 1 20.9805 146.45 67.0956
18265 1 12.7963 148.059 67.098
23866 2 11.8927 149.668 68.3696
23874 2 14.6207 148.058 68.3682
18219 1 15.5245 149.668 67.0995
23835 2 17.3489 149.668 68.3696
18233 1 18.2525 148.059 67.098
23834 2 20.077 148.058 68.3682
18197 1 20.9807 149.668 67.0995
18279 1 10.9847 135.173 69.6109
23880 2 12.8099 135.165 70.8682
17890 1 11.8979 133.548 72.1763
17892 1 13.7124 133.562 69.6005
18238 1 14.6265 135.161 72.1867
18239 1 16.4409 135.173 69.6109
17854 1 17.3542 133.548 72.1763
23498 2 15.5376 133.553 70.8577
18200 1 20.0828 135.161 72.1867
23854 2 18.2662 135.165 70.8682
17863 1 19.1686 133.562 69.6005
23468 2 20.9938 133.553 70.8577
18224 1 11.8989 136.774 72.1961
18240 1 13.7132 136.784 69.6202
18267 1 10.9854 138.395 69.6286
23881 2 12.8107 138.388 70.8859
18201 1 17.3551 136.774 72.1961
18222 1 14.6274 138.386 72.2045
18241 1 16.4417 138.395 69.6286
23844 2 15.5384 136.777 70.8775
18202 1 20.0836 138.386 72.2045
18204 1 19.1694 136.784 69.6202
23812 2 20.9947 136.777 70.8775
23842 2 18.2669 138.388 70.8859
18223 1 11.8996 139.999 72.2119
18228 1 13.7139 140.006 69.6359
18268 1 10.986 141.617 69.6422
23869 2 12.8113 141.612 70.8996
18193 1 17.3559 139.999 72.2119
18225 1 14.6281 141.612 72.2182
18226 1 16.4423 141.617 69.6422
23843 2 15.5391 140 70.8932
18191 1 20.0843 141.612 72.2182
18203 1 19.1701 140.006 69.6359
23811 2 20.9954 140 70.8932
23845 2 18.2675 141.612 70.8996
18214 1 11.9002 143.224 72.2236
18227 1 13.7144 143.228 69.6475
18263 1 10.9865 144.839 69.6519
23870 2 12.8118 144.835 70.9093
18192 1 17.3565 143.224 72.2236
18212 1 14.6286 144.837 72.2279
18229 1 16.4427 144.839 69.6519
23832 2 15.5397 143.223 70.9049
18194 1 20.0848 144.837 72.2279
18196 1 19.1706 143.228 69.6475
23810 2 20.9959 143.223 70.9049
23830 2 18.268 144.835 70.9093
18213 1 11.9006 146.449 72.2313
18218 1 13.7148 146.449 69.6552
18185 1 17.3569 146.449 72.2313
23831 2 15.54 146.447 70.9126
18195 1 19.171 146.449 69.6552
23804 2 20.9963 146.447 70.9126
18264 1 10.9867 148.06 69.6576
23865 2 12.812 148.058 70.9151
18209 1 11.9009 149.674 72.2352
18217 1 13.7149 149.671 69.6591
18216 1 16.443 148.06 69.6576
18215 1 14.6289 148.062 72.2338
18184 1 17.3571 149.674 72.2352
23821 2 15.5402 149.67 70.9165
23833 2 18.2683 148.058 70.9151
18183 1 20.0851 148.062 72.2338
18186 1 19.1712 149.671 69.6591
23803 2 20.9965 149.67 70.9165
18220 1 12.7532 135.153 74.8379
23879 2 10.9994 135.152 73.4001
23486 2 11.8891 133.527 75.864
23488 2 13.727 133.538 73.3896
23838 2 14.6178 135.142 75.8745
23839 2 16.4556 135.152 73.4001
17852 1 15.4807 133.538 74.8274
23461 2 17.3453 133.527 75.864
18199 1 18.2095 135.153 74.8379
23805 2 20.0741 135.142 75.8745
17845 1 20.937 133.538 74.8274
23466 2 19.1832 133.538 73.3896
18221 1 12.7544 138.382 74.8558
23824 2 11.8902 136.757 75.8839
23840 2 13.728 136.765 73.4095
23867 2 11.0002 138.378 73.4179
18189 1 15.4819 136.767 74.8474
23806 2 17.3465 136.757 75.8839
23822 2 14.6189 138.372 75.8924
23841 2 16.4565 138.378 73.4179
18177 1 20.9382 136.767 74.8474
18187 1 18.2106 138.382 74.8558
23807 2 20.0751 138.372 75.8924
23809 2 19.1842 136.765 73.4095
18210 1 12.7553 141.611 74.8695
23823 2 11.8912 139.988 75.8998
23828 2 13.7287 139.992 73.4253
23868 2 11.0009 141.605 73.4317
18188 1 15.483 139.997 74.8631
23799 2 17.3474 139.988 75.8998
23825 2 14.6197 141.603 75.9062
23826 2 16.4572 141.605 73.4317
18176 1 20.9392 139.997 74.8631
18190 1 18.2115 141.611 74.8695
23797 2 20.0759 141.603 75.9062
23808 2 19.185 139.992 73.4253
18211 1 12.7559 144.841 74.8793
23816 2 11.8919 143.218 75.9116
23827 2 13.7293 143.218 73.437
23863 2 11.0014 144.831 73.4414
18181 1 15.4837 143.226 74.8749
23798 2 17.3481 143.218 75.9116
23814 2 14.6203 144.833 75.916
23829 2 16.4577 144.831 73.4414
18175 1 20.94 143.226 74.8749
18179 1 18.2121 144.841 74.8793
23800 2 20.0765 144.833 75.916
23802 2 19.1856 143.218 73.437
23815 2 11.8924 146.448 75.9194
23820 2 13.7297 146.444 73.4448
23864 2 11.0017 148.058 73.4473
18180 1 15.4843 146.455 74.8827
23795 2 17.3486 146.448 75.9194
23818 2 16.458 148.058 73.4473
18174 1 20.9405 146.455 74.8827
23801 2 19.186 146.444 73.4448
18208 1 12.7563 148.07 74.8851
23813 2 11.8926 149.677 75.9233
23819 2 13.7299 149.671 73.4487
23817 2 14.6206 148.063 75.9219
18178 1 15.4845 149.685 74.8866
23794 2 17.3489 149.677 75.9233
23793 2 20.0769 148.063 75.9219
18182 1 18.2125 148.07 74.8851
18173 1 20.9408 149.685 74.8866
23796 2 19.1862 149.671 73.4487
