ITEM: TIMESTEP
0
ITEM: NUMBER OF ATOMS
23952
ITEM: BOX BOUNDS pp pp ss
0.0000000000000000e+00 2.1824953608198122e+01
0.0000000000000000e+00 1.5120771408893131e+02
-4.0801162962028874e+00 7.5931819214235091e+01
ITEM: ATOMS id type x y z
6321 2 0.896713 1.49491 -0.859994
6329 2 2.70766 1.49031 -3.36767
192 1 1.78364 3.05565 -2.30538
6319 2 3.62493 3.06211 -0.86157
178 1 4.51165 1.48916 -2.30381
6291 2 6.35295 1.49491 -0.859994
6330 2 5.43589 3.05595 -3.36924
176 1 7.23988 3.05565 -2.30538
132 1 9.96789 1.48916 -2.30381
6294 2 8.1639 1.49031 -3.36767
6292 2 9.08117 3.06211 -0.86157
9598 2 10.8921 3.05595 -3.36924
6320 2 0.896977 4.62929 -0.864196
6325 2 2.70794 4.62158 -3.37185
188 1 1.78408 6.18862 -2.31165
6322 2 3.62533 6.19648 -0.867873
177 1 4.51194 4.62214 -2.30799
6285 2 6.35322 4.62929 -0.864196
6323 2 5.4363 6.18721 -3.37551
179 1 7.24032 6.18862 -2.31165
131 1 9.96818 4.62214 -2.30799
6293 2 8.16418 4.62158 -3.37185
6283 2 9.08157 6.19648 -0.867873
9599 2 10.8925 6.18721 -3.37551
6310 2 0.897505 7.76366 -0.8726
6324 2 2.70849 7.75285 -3.38022
189 1 1.78481 9.32164 -2.3221
6308 2 3.62599 9.33085 -0.878376
170 1 4.51253 7.75512 -2.31636
6284 2 6.35374 7.76366 -0.8726
6326 2 5.43698 9.3185 -3.38597
168 1 7.24105 9.32164 -2.3221
130 1 9.96877 7.75512 -2.31636
6288 2 8.16473 7.75285 -3.38022
6286 2 9.08222 9.33085 -0.878376
9596 2 10.8932 9.3185 -3.38597
6309 2 0.898294 10.8981 -0.885202
6314 2 2.70931 10.8842 -3.39276
184 1 1.78585 12.4548 -2.33672
6311 2 3.6269 12.4653 -0.893077
169 1 4.51341 10.8882 -2.32889
6271 2 6.35453 10.8981 -0.885202
6312 2 5.43794 12.4499 -3.40059
171 1 7.24208 12.4548 -2.33672
123 1 9.96965 10.8882 -2.32889
6287 2 8.16555 10.8842 -3.39276
6269 2 9.08314 12.4653 -0.893077
9597 2 10.8942 12.4499 -3.40059
6302 2 0.899339 14.0326 -0.902
6313 2 2.71041 14.0156 -3.40947
185 1 1.78723 15.5881 -2.35548
6300 2 3.62807 15.5999 -0.911974
156 1 4.5146 14.0214 -2.34559
6270 2 6.35558 14.0326 -0.902
6315 2 5.43919 15.5814 -3.41938
154 1 7.24347 15.5881 -2.35548
122 1 9.97084 14.0214 -2.34559
6274 2 8.16665 14.0156 -3.40947
6272 2 9.08431 15.5999 -0.911974
9595 2 10.8954 15.5814 -3.41938
6301 2 0.90062 17.1673 -0.92301
6303 2 2.71183 17.1473 -3.43033
575 1 1.78927 18.7219 -2.37854
6735 2 3.62945 18.7348 -0.935108
155 1 4.51627 17.1549 -2.36644
6253 2 6.35686 17.1673 -0.92301
6736 2 5.44079 18.7132 -3.44232
564 1 7.24551 18.7219 -2.37854
107 1 9.97251 17.1549 -2.36644
6273 2 8.16807 17.1473 -3.43033
6698 2 9.08569 18.7348 -0.935108
10008 2 10.897 18.7132 -3.44232
174 1 2.71156 1.49526 0.363042
6318 2 1.804 3.06811 1.69364
6281 2 4.53202 1.49925 1.69522
175 1 5.43978 3.06331 0.361465
6279 2 7.26024 3.06811 1.69364
129 1 8.1678 1.49526 0.363042
6228 2 9.98826 1.49925 1.69522
3258 1 10.896 3.06331 0.361465
166 1 2.71184 4.63135 0.358837
6306 2 1.80441 6.20579 1.68731
6280 2 4.53229 4.63696 1.691
164 1 5.4402 6.19937 0.355159
6282 2 7.26065 6.20579 1.68731
128 1 8.16808 4.63135 0.358837
6227 2 9.98853 4.63696 1.691
3259 1 10.8964 6.19937 0.355159
165 1 2.71239 7.7674 0.350429
6307 2 1.80509 9.34344 1.67677
6267 2 4.53284 7.77461 1.68257
167 1 5.44088 9.33544 0.344648
6265 2 7.26133 9.34344 1.67677
121 1 8.16862 7.7674 0.350429
6226 2 9.98907 7.77461 1.68257
3254 1 10.8971 9.33544 0.344648
152 1 2.71321 10.9035 0.337817
6298 2 1.80605 12.4811 1.66201
6266 2 4.53366 10.9123 1.66992
150 1 5.44184 12.4716 0.329937
6268 2 7.26229 12.4811 1.66201
120 1 8.16945 10.9035 0.337817
6219 2 9.98989 10.9123 1.66992
3255 1 10.8981 12.4716 0.329937
151 1 2.71431 14.0397 0.321006
6299 2 1.80727 15.6189 1.64301
6252 2 4.53475 14.05 1.65304
153 1 5.44308 15.6079 0.311018
6250 2 7.26351 15.6189 1.64301
106 1 8.17054 14.0397 0.321006
6218 2 9.99098 14.05 1.65304
3253 1 10.8993 15.6079 0.311018
141 1 2.71568 17.1761 0.29996
6725 2 1.80875 18.757 1.61976
6251 2 4.5361 17.1879 1.63192
557 1 5.4446 18.7445 0.28783
6697 2 7.26498 18.757 1.61976
105 1 8.17192 17.1761 0.29996
6203 2 9.99233 17.1879 1.63192
3646 1 10.9008 18.7445 0.28783
162 1 0.892815 1.50073 2.96193
160 1 3.62104 3.07043 2.96035
6277 2 2.71119 1.50474 4.263
159 1 1.80074 3.07908 5.54277
126 1 6.34905 1.50073 2.96193
114 1 4.52875 1.50774 5.54435
6278 2 5.43941 3.07524 4.26142
112 1 7.25698 3.07908 5.54277
127 1 9.07728 3.07043 2.96035
60 1 9.98499 1.50774 5.54435
6225 2 8.16743 1.50474 4.263
9568 2 10.8957 3.07524 4.26142
161 1 0.893094 4.64011 2.95771
163 1 3.62146 6.20978 2.95402
6263 2 2.71147 4.64573 4.25878
144 1 1.80117 6.22167 5.53646
118 1 6.34933 4.64011 2.95771
113 1 4.52904 4.65038 5.54014
6261 2 5.43983 6.21619 4.25509
115 1 7.25741 6.22167 5.53646
116 1 9.0777 6.20978 2.95402
59 1 9.98527 4.65038 5.54014
6224 2 8.16771 4.64573 4.25878
9569 2 10.8961 6.21619 4.25509
148 1 0.893654 7.77944 2.94927
146 1 3.62216 9.34909 2.94347
6262 2 2.71203 7.78664 4.25034
145 1 1.80188 9.36419 5.52591
117 1 6.34989 7.77944 2.94927
99 1 4.52961 7.79294 5.53171
6264 2 5.44053 9.35709 4.24453
97 1 7.25812 9.36419 5.52591
119 1 9.0784 9.34909 2.94347
58 1 9.98585 7.79294 5.53171
6217 2 8.16827 7.78664 4.25034
9560 2 10.8968 9.35709 4.24453
147 1 0.894497 10.9188 2.93661
149 1 3.62314 12.4884 2.92869
6248 2 2.71287 10.9275 4.23766
136 1 1.80289 12.5067 5.51112
103 1 6.35073 10.9188 2.93661
98 1 4.53047 10.9354 5.51904
6246 2 5.44152 12.498 4.22974
100 1 7.25913 12.5067 5.51112
101 1 9.07938 12.4884 2.92869
51 1 9.98671 10.9354 5.51904
6216 2 8.16911 10.9275 4.23766
9561 2 10.8978 12.498 4.22974
140 1 0.895623 14.0581 2.9197
138 1 3.62441 15.6279 2.90965
6247 2 2.714 14.0684 4.22074
137 1 1.80419 15.6491 5.49205
102 1 6.35186 14.0581 2.9197
84 1 4.53163 14.0779 5.50212
6249 2 5.44279 15.6389 4.21069
82 1 7.26043 15.6491 5.49205
104 1 9.08065 15.6279 2.90965
50 1 9.98786 14.0779 5.50212
6202 2 8.17024 14.0684 4.22074
9559 2 10.899 15.6389 4.21069
139 1 0.897029 17.1977 2.89853
6237 2 2.71541 17.2094 4.19957
556 1 3.62595 18.7675 2.88635
542 1 1.80579 18.7917 5.46871
85 1 6.35327 17.1977 2.89853
83 1 4.53308 17.2204 5.48092
6684 2 5.44434 18.7799 4.18738
508 1 7.26203 18.7917 5.46871
36 1 9.98931 17.2204 5.48092
6201 2 8.17165 17.2094 4.19957
509 1 9.08219 18.7675 2.88635
9988 2 10.9006 18.7799 4.18738
110 1 2.70844 1.5146 8.12089
6259 2 0.890671 1.51131 6.83479
6257 2 3.6189 3.08343 6.83323
6222 2 6.34691 1.51131 6.83479
111 1 5.43667 3.08754 8.11933
57 1 8.16468 1.5146 8.12089
6223 2 9.07514 3.08343 6.83323
3214 1 10.8929 3.08754 8.11933
95 1 2.70874 4.66046 8.11672
6258 2 0.890961 4.65553 6.83061
6260 2 3.61933 6.22761 6.82693
6214 2 6.3472 4.65553 6.83061
93 1 5.43711 6.23334 8.11306
56 1 8.16497 4.66046 8.11672
6212 2 9.07557 6.22761 6.82693
3215 1 10.8933 6.23334 8.11306
94 1 2.70931 7.80619 8.10834
6244 2 0.891532 7.79966 6.8222
6242 2 3.62004 9.37169 6.81641
6213 2 6.34777 7.79966 6.8222
96 1 5.43782 9.37901 8.10256
49 1 8.16555 7.80619 8.10834
6215 2 9.07628 9.37169 6.81641
3206 1 10.8941 9.37901 8.10256
80 1 2.71017 10.9518 8.09572
6243 2 0.892389 10.9437 6.80956
6245 2 3.62105 12.5157 6.80165
6199 2 6.34863 10.9437 6.80956
78 1 5.43883 12.5246 8.08782
48 1 8.16641 10.9518 8.09572
6197 2 9.07728 12.5157 6.80165
3207 1 10.8951 12.5246 8.08782
79 1 2.71133 14.0973 8.07885
6236 2 0.893539 14.0877 6.79268
6234 2 3.62234 15.6596 6.78264
6198 2 6.34978 14.0877 6.79268
81 1 5.44014 15.67 8.06882
35 1 8.16757 14.0973 8.07885
6200 2 9.07858 15.6596 6.78264
3205 1 10.8964 15.67 8.06882
69 1 2.7128 17.2427 8.05772
6235 2 0.894985 17.2316 6.77153
6683 2 3.62394 18.8035 6.75937
6184 2 6.35122 17.2316 6.77153
493 1 5.44176 18.8153 8.04555
34 1 8.16903 17.2427 8.05772
3613 1 10.898 18.8153 8.04555
6629 2 9.08018 18.8035 6.75937
91 1 0.888404 1.52149 10.6949
6206 2 2.70683 1.52493 11.98
6256 2 1.79871 3.09177 9.40596
89 1 3.61663 3.09602 10.6934
6210 2 4.52671 1.51805 9.40751
54 1 6.34464 1.52149 10.6949
6208 2 7.25494 3.09177 9.40596
6207 2 5.43506 3.10023 11.9785
6168 2 9.98295 1.51805 9.40751
6165 2 8.16307 1.52493 11.98
55 1 9.07287 3.09602 10.6934
9502 2 10.8913 3.10023 11.9785
90 1 0.888692 4.67051 10.6908
6191 2 2.70711 4.6755 11.976
6240 2 1.79913 6.23912 9.39973
92 1 3.61705 6.24496 10.6872
6209 2 4.527 4.66546 9.40337
46 1 6.34493 4.67051 10.6908
6211 2 7.25537 6.23912 9.39973
6189 2 5.43546 6.25072 11.9724
6167 2 9.98324 4.66546 9.40337
6164 2 8.16335 4.6755 11.976
44 1 9.07329 6.24496 10.6872
9503 2 10.8917 6.25072 11.9724
6241 2 1.79983 9.38634 9.38928
76 1 0.889247 7.81938 10.6825
6190 2 2.70764 7.8259 11.9677
74 1 3.61775 9.39374 10.6768
6195 2 4.52756 7.81275 9.39503
6193 2 7.25607 9.38634 9.38928
45 1 6.34549 7.81938 10.6825
6192 2 5.43613 9.40102 11.962
6166 2 9.9838 7.81275 9.39503
6158 2 8.16388 7.8259 11.9677
47 1 9.07399 9.39374 10.6768
9494 2 10.8924 9.40102 11.962
6232 2 1.80082 12.5334 9.37462
75 1 0.89008 10.9681 10.67
6179 2 2.70844 10.9761 11.9553
77 1 3.61872 12.5423 10.6622
6194 2 4.52841 10.9599 9.38248
6196 2 7.25705 12.5334 9.37462
32 1 6.34632 10.9681 10.67
6177 2 5.43706 12.5511 11.9475
6160 2 9.98464 10.9599 9.38248
6157 2 8.16468 10.9761 11.9553
30 1 9.07496 12.5423 10.6622
9495 2 10.8933 12.5511 11.9475
6233 2 1.8021 15.6803 9.35572
68 1 0.891201 14.1166 10.6533
6178 2 2.70951 14.1261 11.9387
66 1 3.61999 15.6907 10.6433
6183 2 4.52954 14.1069 9.3657
6181 2 7.25834 15.6803 9.35572
31 1 6.34744 14.1166 10.6533
6180 2 5.43828 15.7009 11.9288
6159 2 9.98578 14.1069 9.3657
6151 2 8.16575 14.1261 11.9387
33 1 9.07623 15.6907 10.6433
9493 2 10.8945 15.7009 11.9288
67 1 0.892627 17.2648 10.6323
6172 2 2.71088 17.2757 11.9179
6663 2 1.80369 18.827 9.33258
492 1 3.62158 18.8388 10.6202
6182 2 4.53097 17.2537 9.34468
21 1 6.34887 17.2648 10.6323
6628 2 7.25993 18.827 9.33258
6613 2 5.4398 18.8504 11.9059
6152 2 9.98721 17.2537 9.34468
6150 2 8.16712 17.2757 11.9179
437 1 9.07782 18.8388 10.6202
9926 2 10.896 18.8504 11.9059
38 1 2.70551 1.53556 15.8394
6187 2 0.887277 1.53195 14.552
88 1 1.7969 3.10456 13.2661
6185 2 3.61549 3.10881 14.5505
42 1 4.52492 1.52847 13.2676
6162 2 6.34352 1.53195 14.552
39 1 5.43372 3.11321 15.838
40 1 7.25314 3.10456 13.2661
9 1 8.16175 1.53556 15.8394
12 1 9.98115 1.52847 13.2676
6163 2 9.07173 3.10881 14.5505
3142 1 10.89 3.11321 15.838
24 1 2.70575 4.69081 15.8355
6186 2 0.887529 4.68563 14.548
72 1 1.79729 6.25663 13.26
6188 2 3.61586 6.2624 14.5445
41 1 4.52518 4.68062 13.2636
6155 2 6.34377 4.68563 14.548
22 1 5.43407 6.26836 15.832
43 1 7.25353 6.25663 13.26
8 1 8.16199 4.69081 15.8355
11 1 9.98142 4.68062 13.2636
6153 2 9.0721 6.2624 14.5445
3143 1 10.8903 6.26836 15.832
23 1 2.7062 7.84585 15.8274
6175 2 0.88801 7.83911 14.5399
6173 2 3.61646 9.41577 14.5343
73 1 1.79793 9.40849 13.2498
28 1 4.5257 7.83259 13.2554
6154 2 6.34425 7.83911 14.5399
26 1 7.25417 9.40849 13.2498
25 1 5.43463 9.42328 15.8219
5 1 8.16244 7.84585 15.8274
10 1 9.98194 7.83259 13.2554
6156 2 9.0727 9.41577 14.5343
3134 1 10.8909 9.42328 15.8219
6174 2 0.88873 10.9923 14.5277
16 1 2.70688 11.0006 15.8153
6176 2 3.6173 12.5689 14.52
64 1 1.79884 12.5601 13.2353
6148 2 6.34497 10.9923 14.5277
27 1 4.52647 10.9843 13.2431
29 1 7.25507 12.5601 13.2353
14 1 5.43543 12.5779 15.8077
6146 2 9.07354 12.5689 14.52
3135 1 10.8917 12.5779 15.8077
7 1 9.98271 10.9843 13.2431
4 1 8.16312 11.0006 15.8153
6169 2 3.61842 15.7216 14.5016
65 1 1.80002 15.7114 13.2167
6171 2 0.889706 14.1453 14.5113
15 1 2.7078 14.155 15.799
17 1 5.43648 15.7321 15.7894
18 1 7.25626 15.7114 13.2167
6147 2 6.34594 14.1453 14.5113
20 1 4.52751 14.1358 13.2266
3133 1 10.8927 15.7321 15.7894
6149 2 9.07465 15.7216 14.5016
6 1 9.98375 14.1358 13.2266
2 1 8.16404 14.155 15.799
6170 2 0.890958 17.2978 14.4908
13 1 2.70899 17.309 15.7787
6612 2 3.61981 18.8739 14.479
471 1 1.80151 18.8623 13.1939
6145 2 6.3472 17.2978 14.4908
19 1 4.52884 17.2869 13.2058
436 1 7.25774 18.8623 13.1939
421 1 5.43781 18.8858 15.7669
1 1 8.16523 17.309 15.7787
3 1 9.98508 17.2869 13.2058
6569 2 9.07605 18.8739 14.479
3542 1 10.894 18.8858 15.7669
382 1 0.886445 1.54277 18.4104
6528 2 1.79625 3.11749 17.1219
380 1 3.61464 3.12195 18.409
6514 2 4.52429 1.53909 17.1233
359 1 6.34268 1.54277 18.4104
6512 2 7.25249 3.11749 17.1219
6468 2 9.98053 1.53909 17.1233
360 1 9.07088 3.12195 18.409
381 1 0.886642 4.70109 18.4065
6524 2 1.79656 6.27416 17.116
383 1 3.61492 6.28018 18.4031
6513 2 4.5245 4.69585 17.1194
355 1 6.34288 4.70109 18.4065
6515 2 7.2528 6.27416 17.116
6467 2 9.98074 4.69585 17.1194
353 1 9.07116 6.28018 18.4031
375 1 0.887014 7.85919 18.3987
6525 2 1.79708 9.43058 17.106
373 1 3.61539 9.43814 18.3932
6506 2 4.52491 7.8524 17.1115
354 1 6.34325 7.85919 18.3987
6504 2 7.25332 9.43058 17.106
6466 2 9.98115 7.8524 17.1115
356 1 9.07163 9.43814 18.3932
374 1 0.887576 11.017 18.3868
6520 2 1.7978 12.5867 17.0919
376 1 3.61605 12.5958 18.3793
6505 2 4.52553 11.0087 17.0995
343 1 6.34381 11.017 18.3868
6507 2 7.25404 12.5867 17.0919
6459 2 9.98177 11.0087 17.0995
341 1 9.07229 12.5958 18.3793
368 1 0.888343 14.1744 18.3708
6521 2 1.79876 15.7423 17.0738
342 1 6.34458 14.1744 18.3708
6492 2 4.52637 14.1646 17.0834
6490 2 7.255 15.7423 17.0738
6458 2 9.98261 14.1646 17.0834
367 1 0.889339 17.3313 18.3509
366 1 3.61693 15.7529 18.3614
6935 2 1.79998 18.8975 17.0516
325 1 6.34558 17.3313 18.3509
6491 2 4.52746 17.32 17.0632
6924 2 7.25622 18.8975 17.0516
344 1 9.07317 15.7529 18.3614
6443 2 9.9837 17.32 17.0632
6510 2 2.7054 1.54634 19.6939
6498 2 0.886887 1.55371 22.2637
379 1 1.79591 3.1308 20.9792
6496 2 3.61505 3.13518 22.2624
351 1 4.52397 1.55009 20.9806
6462 2 6.34313 1.55371 22.2637
6511 2 5.43359 3.12628 19.6925
349 1 7.25215 3.1308 20.9792
6465 2 8.16164 1.54634 19.6939
300 1 9.98021 1.55009 20.9806
9786 2 10.8898 3.12628 19.6925
6463 2 9.07129 3.13518 22.2624
6502 2 2.70558 4.70618 19.6901
6497 2 0.887008 4.7166 22.2601
371 1 1.79612 6.29208 20.9735
6499 2 3.61523 6.29796 22.2568
350 1 4.52412 4.71147 20.9768
6454 2 6.34325 4.7166 22.2601
6500 2 5.43384 6.28601 19.6867
352 1 7.25236 6.29208 20.9735
6464 2 8.16181 4.70618 19.6901
299 1 9.98036 4.71147 20.9768
9787 2 10.8901 6.28601 19.6867
6452 2 9.07147 6.29796 22.2568
6501 2 2.7059 7.86578 19.6823
6484 2 0.887239 7.87926 22.2525
339 1 4.5244 7.87262 20.9692
6453 2 6.34348 7.87926 22.2525
6503 2 5.43424 9.44548 19.677
6457 2 8.16214 7.86578 19.6823
298 1 9.98064 7.87262 20.9692
9782 2 10.8905 9.44548 19.677
6488 2 2.70639 11.0251 19.6706
372 1 1.79647 9.45309 20.9638
6483 2 0.887589 11.0416 22.241
6482 2 3.61552 9.46047 22.2472
338 1 4.52482 11.0335 20.9575
6439 2 6.34383 11.0416 22.241
337 1 7.25271 9.45309 20.9638
6456 2 8.16263 11.0251 19.6706
291 1 9.98106 11.0335 20.9575
6455 2 9.07176 9.46047 22.2472
6487 2 2.70707 14.184 19.6548
364 1 1.79698 12.6137 20.9502
6476 2 0.888075 14.2035 22.2256
6485 2 3.61593 12.6226 22.2338
6486 2 5.43483 12.6046 19.6632
324 1 4.52541 14.1939 20.9419
6438 2 6.34431 14.2035 22.2256
340 1 7.25321 12.6137 20.9502
6442 2 8.16331 14.184 19.6548
290 1 9.98165 14.1939 20.9419
6437 2 9.07217 12.6226 22.2338
9783 2 10.8911 12.6046 19.6632
6477 2 2.70795 17.3423 19.6351
365 1 1.79765 15.7739 20.9327
6475 2 0.888717 17.3648 22.2063
6474 2 3.61649 15.7843 22.2164
6489 2 5.4356 15.7632 19.6455
323 1 4.52618 17.3537 20.9224
6421 2 6.34496 17.3648 22.2063
322 1 7.25389 15.7739 20.9327
6441 2 8.16419 17.3423 19.6351
275 1 9.98241 17.3537 20.9224
6440 2 9.07273 15.7843 22.2164
9781 2 10.8918 15.7632 19.6455
347 1 2.70564 1.55751 23.55
6495 2 1.79691 3.14417 24.8315
6450 2 4.525 1.56118 24.8328
348 1 5.43379 3.13975 23.5487
6448 2 7.25315 3.14417 24.8315
297 1 8.16188 1.55751 23.55
6396 2 9.98124 1.56118 24.8328
3441 1 10.89 3.13975 23.5487
335 1 2.70573 4.72194 23.5464
6449 2 4.52507 4.72712 24.8293
296 1 8.16197 4.72194 23.5464
6395 2 9.98131 4.72712 24.8293
334 1 2.70591 7.88615 23.5389
6480 2 1.79701 6.31 24.826
333 1 5.43393 6.30408 23.5431
6435 2 4.5252 7.89283 24.8218
6451 2 7.25325 6.31 24.826
289 1 8.16215 7.88615 23.5389
6394 2 9.98144 7.89283 24.8218
3442 1 10.8902 6.30408 23.5431
320 1 2.70619 11.05 23.5275
6481 2 1.79717 9.47557 24.8167
336 1 5.43415 9.46813 23.5337
6434 2 4.5254 11.0582 24.8106
6433 2 7.25341 9.47557 24.8167
288 1 8.16242 11.05 23.5275
6387 2 9.98164 11.0582 24.8106
3434 1 10.8904 9.46813 23.5337
319 1 2.70657 14.2135 23.5123
6472 2 1.79741 12.6408 24.8035
318 1 5.43448 12.6318 23.5204
6420 2 4.52568 14.2232 24.7955
6436 2 7.25365 12.6408 24.8035
274 1 8.16281 14.2135 23.5123
6386 2 9.98192 14.2232 24.7955
3435 1 10.8907 12.6318 23.5204
309 1 2.70708 17.3764 23.4932
6473 2 1.79774 15.8055 24.7866
321 1 5.43493 15.795 23.5032
6419 2 4.52607 17.3876 24.7767
6418 2 7.25398 15.8055 24.7866
273 1 8.16332 17.3764 23.4932
6372 2 9.98231 17.3876 24.7767
3433 1 10.8912 15.795 23.5032
331 1 0.887715 1.56503 26.1187
6446 2 2.70731 1.56874 27.4011
329 1 3.61585 3.14879 26.1174
294 1 6.34395 1.56503 26.1187
282 1 4.52647 1.57264 28.6866
234 1 9.98271 1.57264 28.6866
6393 2 8.16355 1.56874 27.4011
295 1 9.07209 3.14879 26.1174
330 1 0.887752 4.73251 26.1152
328 1 1.79834 3.15792 28.6853
6431 2 2.70732 4.73772 27.3977
286 1 6.34399 4.73251 26.1152
281 1 4.52645 4.74316 28.6832
6447 2 5.43543 3.15325 27.3999
280 1 7.25458 3.15792 28.6853
233 1 9.98269 4.74316 28.6832
6392 2 8.16356 4.73772 27.3977
9742 2 10.8917 3.15325 27.3999
316 1 0.887826 7.89977 26.1079
332 1 3.6159 6.31617 26.112
312 1 1.79832 6.32835 28.68
6430 2 2.70734 7.9065 27.3904
285 1 6.34406 7.89977 26.1079
267 1 4.52642 7.91348 28.676
6429 2 5.43545 6.32214 27.3945
283 1 7.25456 6.32835 28.68
284 1 9.07214 6.31617 26.112
232 1 9.98266 7.91348 28.676
6385 2 8.16358 7.9065 27.3904
9743 2 10.8917 6.32214 27.3945
315 1 0.887946 11.0667 26.0967
314 1 3.616 9.48329 26.1028
313 1 1.79829 9.49854 28.671
6416 2 2.70739 11.075 27.3794
271 1 6.34418 11.0667 26.0967
266 1 4.52639 11.0835 28.6651
6432 2 5.43549 9.49077 27.3854
265 1 7.25453 9.49854 28.671
287 1 9.07224 9.48329 26.1028
225 1 9.98263 11.0835 28.6651
6384 2 8.16363 11.075 27.3794
9734 2 10.8917 9.49077 27.3854
308 1 0.888122 14.2332 26.0819
317 1 3.61615 12.65 26.0898
304 1 1.79826 12.6684 28.6583
6415 2 2.70747 14.243 27.3647
270 1 6.34436 14.2332 26.0819
253 1 4.52636 14.2532 28.6506
6414 2 5.43555 12.6591 27.3725
268 1 7.25449 12.6684 28.6583
269 1 9.07238 12.65 26.0898
224 1 9.9826 14.2532 28.6506
6371 2 8.16371 14.243 27.3647
9735 2 10.8918 12.6591 27.3725
307 1 0.88837 17.3992 26.0633
306 1 3.61636 15.8163 26.073
305 1 1.79823 15.8378 28.642
6405 2 2.7076 17.4106 27.3463
254 1 6.34461 17.3992 26.0633
252 1 4.52635 17.4223 28.6324
6417 2 5.43565 15.8269 27.356
251 1 7.25447 15.8378 28.642
272 1 9.07259 15.8163 26.073
213 1 9.98258 17.4223 28.6324
6370 2 8.16384 17.4106 27.3463
9733 2 10.8919 15.8269 27.356
278 1 2.70946 1.58032 31.2536
6427 2 0.890066 1.57638 29.9686
6378 2 4.52955 1.58409 32.5353
6390 2 6.3463 1.57638 29.9686
231 1 8.16569 1.58032 31.2536
6348 2 9.98579 1.58409 32.5353
263 1 2.70939 4.75389 31.2503
6424 2 1.80139 3.17165 32.5341
6426 2 0.890024 4.74841 29.9652
6425 2 3.61817 3.16242 29.9674
279 1 5.43755 3.16712 31.2524
6377 2 4.52946 4.75918 32.532
6382 2 6.34626 4.74841 29.9652
6376 2 7.25763 3.17165 32.5341
230 1 8.16562 4.75389 31.2503
6347 2 9.9857 4.75918 32.532
6391 2 9.07441 3.16242 29.9674
3382 1 10.8938 3.16712 31.2524
262 1 2.70926 7.92729 31.2433
6408 2 1.80127 6.34668 32.529
6412 2 0.889952 7.92026 29.9582
6428 2 3.61811 6.33437 29.9622
261 1 5.43745 6.34062 31.2473
6364 2 4.5293 7.93412 32.525
6381 2 6.34619 7.92026 29.9582
6379 2 7.25751 6.34668 32.529
223 1 8.1655 7.92729 31.2433
6346 2 9.98554 7.93412 32.525
6380 2 9.07435 6.33437 29.9622
3383 1 10.8937 6.34062 31.2473
249 1 2.70909 11.1004 31.2327
6409 2 1.80107 9.5215 32.5202
6411 2 0.889855 11.0918 29.9474
6410 2 3.61803 9.50609 29.9532
264 1 5.4373 9.5139 31.2384
6363 2 4.52907 11.1088 32.5145
6368 2 6.34609 11.0918 29.9474
6362 2 7.25731 9.5215 32.5202
222 1 8.16532 11.1004 31.2327
6343 2 9.98531 11.1088 32.5145
6383 2 9.07426 9.50609 29.9532
3374 1 10.8935 9.5139 31.2384
248 1 2.70886 14.2732 31.2184
6400 2 1.80081 12.6961 32.5078
6404 2 0.889738 14.263 29.933
6413 2 3.61792 12.6775 29.9406
247 1 5.4371 12.6869 31.226
6356 2 4.52877 14.2832 32.5003
6367 2 6.34598 14.263 29.933
6365 2 7.25705 12.6961 32.5078
212 1 8.1651 14.2732 31.2184
6342 2 9.98501 14.2832 32.5003
6366 2 9.07416 12.6775 29.9406
3375 1 10.8933 12.6869 31.226
240 1 2.7086 17.4456 31.2006
6401 2 1.80048 15.8702 32.4919
6403 2 0.88961 17.4337 29.915
6402 2 3.61779 15.8485 29.9244
250 1 5.43686 15.8595 31.2099
6355 2 4.52841 17.4571 32.4827
6357 2 6.34585 17.4337 29.915
6354 2 7.25672 15.8702 32.4919
211 1 8.16484 17.4456 31.2006
6339 2 9.98465 17.4571 32.4827
6369 2 9.07403 15.8485 29.9244
3373 1 10.8931 15.8595 31.2099
259 1 0.892945 1.58806 33.8199
6374 2 2.71331 1.59185 35.1011
228 1 6.34918 1.58806 33.8199
6373 2 5.44146 0.0027345 35.1014
6345 2 8.16955 1.59185 35.1011
9686 2 10.8977 0.0027345 35.1014
258 1 0.892827 4.7647 33.8166
6360 2 2.71318 4.77002 35.0979
257 1 3.62102 3.17639 33.8187
220 1 6.34907 4.7647 33.8166
6375 2 5.44138 3.18095 35.0999
229 1 9.07726 3.17639 33.8187
6344 2 8.16942 4.77002 35.0979
9670 2 10.8976 3.18095 35.0999
260 1 3.62085 6.35297 33.8136
245 1 0.892617 7.94119 33.8097
6359 2 2.71294 7.94807 35.091
6358 2 5.44119 6.35906 35.0949
219 1 6.34886 7.94119 33.8097
6341 2 8.16918 7.94807 35.091
218 1 9.07709 6.35297 33.8136
9671 2 10.8974 6.35906 35.0949
243 1 3.6206 9.52936 33.805
6352 2 2.71259 11.1259 35.0806
244 1 0.892316 11.1175 33.7993
6361 2 5.4409 9.53702 35.0863
209 1 6.34855 11.1175 33.7993
6340 2 8.16883 11.1259 35.0806
221 1 9.07684 9.52936 33.805
9662 2 10.8971 9.53702 35.0863
239 1 0.891924 14.2935 33.7852
246 1 3.62025 12.7055 33.7927
6351 2 2.71214 14.3035 35.0667
6350 2 5.4405 12.7147 35.0741
208 1 6.34816 14.2935 33.7852
9663 2 10.8967 12.7147 35.0741
207 1 9.07649 12.7055 33.7927
6338 2 8.16838 14.3035 35.0667
237 1 3.61981 15.8813 33.7769
6349 2 2.71159 17.4807 35.0493
238 1 0.891441 17.4691 33.7677
6353 2 5.44 15.8922 35.0584
202 1 6.34768 17.4691 33.7677
6337 2 8.16782 17.4807 35.0493
210 1 9.07605 15.8813 33.7769
9661 2 10.8962 15.8922 35.0584
6550 2 0.897616 1.59965 37.666
12857 1 2.71777 1.60367 38.9497
255 1 1.80511 0.00595768 36.3855
6552 2 3.62577 0.00899829 37.6663
6539 2 6.35385 1.59965 37.666
12856 1 5.44593 0.0122396 38.95
216 1 4.5332 1.59584 36.3852
226 1 7.26135 0.00595768 36.3855
6538 2 9.08201 0.00899829 37.6663
12822 1 8.17401 1.60367 38.9497
198 1 9.98944 1.59584 36.3852
15684 1 10.9022 0.0122396 38.95
6549 2 0.897447 4.78092 37.6628
12853 1 2.71758 4.78649 38.9466
256 1 1.80502 3.18571 36.3841
6548 2 3.62567 3.1903 37.6649
6536 2 6.35369 4.78092 37.6628
12858 1 5.44581 3.19509 38.9486
215 1 4.53304 4.77557 36.3821
214 1 7.26126 3.18571 36.3841
6540 2 9.08191 3.1903 37.6649
12821 1 8.17382 4.78649 38.9466
197 1 9.98928 4.77557 36.3821
15682 1 10.9021 3.19509 38.9486
6546 2 0.897145 7.9621 37.6561
12852 1 2.71725 7.96924 38.9399
241 1 1.8048 6.36539 36.3791
6551 2 3.62543 6.37152 37.6599
6535 2 6.35338 7.9621 37.6561
12851 1 5.44555 6.37788 38.9437
205 1 4.53276 7.95518 36.3753
217 1 7.26104 6.36539 36.3791
6534 2 9.08167 6.37152 37.6599
12816 1 8.17348 7.96924 38.9399
196 1 9.989 7.95518 36.3753
15683 1 10.9018 6.37788 38.9437
6545 2 0.896708 11.1431 37.6458
12842 1 2.71676 11.1519 38.9296
242 1 1.80446 9.54492 36.3705
6544 2 3.62506 9.55263 37.6514
6532 2 6.35295 11.1431 37.6458
12854 1 5.44514 9.56057 38.9352
204 1 4.53236 11.1346 36.3649
203 1 7.26069 9.54492 36.3705
6537 2 9.0813 9.55263 37.6514
12815 1 8.173 11.1519 38.9296
195 1 9.98859 11.1346 36.3649
15680 1 10.9014 9.56057 38.9352
6543 2 0.896133 14.324 37.632
12841 1 2.71612 14.3343 38.9158
235 1 1.80399 12.7243 36.3584
6547 2 3.62456 12.7336 37.6393
6531 2 6.35237 14.324 37.632
12840 1 5.44458 12.7431 38.9231
201 1 4.53182 14.3138 36.3511
206 1 7.26022 12.7243 36.3584
6530 2 9.0808 12.7336 37.6393
12802 1 8.17235 14.3343 38.9158
194 1 9.98806 14.3138 36.3511
15681 1 10.9008 12.7431 38.9231
6542 2 0.895416 17.5045 37.6147
12831 1 2.71531 17.5166 38.8987
236 1 1.80339 15.9033 36.3429
6541 2 3.62391 15.9143 37.6238
6529 2 6.35165 17.5045 37.6147
12843 1 5.44385 15.9255 38.9077
200 1 4.53116 17.4927 36.3338
199 1 7.25963 15.9033 36.3429
6533 2 9.08015 15.9143 37.6238
12801 1 8.17155 17.5166 38.8987
193 1 9.9874 17.4927 36.3338
15679 1 10.9001 15.9255 38.9077
18479 2 1.81064 0.0152812 40.2303
12849 1 0.902912 1.61152 41.5133
12855 1 3.63107 0.0185341 41.5136
18466 2 4.53872 1.60749 40.2301
12819 1 6.35915 1.61152 41.5133
18468 2 7.26688 0.0152812 40.2303
12818 1 9.08731 0.0185341 41.5136
18420 2 9.99496 1.60749 40.2301
18480 2 1.81052 3.19968 40.2289
12848 1 0.902703 4.79747 41.5102
12847 1 3.63095 3.2045 41.5122
18465 2 4.53853 4.79187 40.2269
12813 1 6.35894 4.79747 41.5102
18464 2 7.26676 3.19968 40.2289
12820 1 9.08719 3.2045 41.5122
18419 2 9.99476 4.79187 40.2269
18476 2 1.81025 6.38405 40.224
12838 1 0.902328 7.98338 41.5035
12850 1 3.63066 6.39043 41.5073
18458 2 4.53818 7.9762 40.2202
12812 1 6.35857 7.98338 41.5035
18467 2 7.26649 6.38405 40.224
12811 1 9.08689 6.39043 41.5073
18418 2 9.99442 7.9762 40.2202
18477 2 1.80983 9.56833 40.2155
12837 1 0.901785 11.1692 41.4933
12836 1 3.6302 9.57632 41.4988
18457 2 4.53767 11.1604 40.2099
12799 1 6.35802 11.1692 41.4933
18456 2 7.26606 9.56833 40.2155
12814 1 9.08644 9.57632 41.4988
18411 2 9.99391 11.1604 40.2099
18472 2 1.80924 12.7525 40.2035
12830 1 0.901069 14.355 41.4795
12839 1 3.62957 12.7621 41.4868
12798 1 6.35731 14.355 41.4795
18444 2 4.53701 14.3445 40.1962
18459 2 7.26548 12.7525 40.2035
12797 1 9.08581 12.7621 41.4868
18410 2 9.99325 14.3445 40.1962
18473 2 1.80849 15.9365 40.188
12829 1 0.900174 17.5406 41.4624
12828 1 3.62876 15.9478 41.4714
12781 1 6.35641 17.5406 41.4624
18443 2 4.53618 17.5285 40.179
18442 2 7.26473 15.9365 40.188
12800 1 9.085 15.9478 41.4714
18395 2 9.99241 17.5285 40.179
18462 2 2.72417 1.61534 42.7932
12845 1 1.81681 0.0248277 44.0763
18450 2 0.91021 1.62319 45.3554
18461 2 5.45233 0.0215696 42.7935
18460 2 3.63837 0.0278503 45.3557
12809 1 4.54488 1.61938 44.076
18414 2 6.36645 1.62319 45.3554
12817 1 7.27305 0.0248277 44.0763
18417 2 8.18041 1.61534 42.7932
12756 1 10.0011 1.61938 44.076
18413 2 9.09461 0.0278503 45.3557
21298 2 10.9086 0.0215696 42.7935
18454 2 2.72396 4.80287 42.7901
12846 1 1.81667 3.21393 44.0749
18449 2 0.909991 4.8139 45.3522
18463 2 5.4522 3.20911 42.7921
12808 1 4.54466 4.80849 44.0729
18406 2 6.36623 4.8139 45.3522
18448 2 3.63824 3.21855 45.3543
12807 1 7.27291 3.21393 44.0749
18416 2 8.1802 4.80287 42.7901
12755 1 10.0009 4.80849 44.0729
18415 2 9.09448 3.21855 45.3543
21294 2 10.9084 3.20911 42.7921
18453 2 2.72358 7.99038 42.7833
12834 1 1.81636 6.40304 44.0699
18436 2 0.909596 8.00462 45.3455
18452 2 5.45191 6.39663 42.7871
12795 1 4.54426 7.99759 44.0661
18405 2 6.36583 8.00462 45.3455
18451 2 3.63793 6.40926 45.3493
12810 1 7.2726 6.40304 44.0699
18409 2 8.17982 7.99038 42.7833
12754 1 10.0005 7.99759 44.0661
18404 2 9.09417 6.40926 45.3493
21295 2 10.9081 6.39663 42.7871
18440 2 2.72303 11.1778 42.7731
12835 1 1.81588 9.59214 44.0615
18435 2 0.909026 11.1953 45.3352
18434 2 3.63745 9.59997 45.3408
18455 2 5.45144 9.58412 42.7787
12794 1 4.54369 11.1867 44.0559
18391 2 6.36526 11.1953 45.3352
12793 1 7.27212 9.59214 44.0615
18408 2 8.17927 11.1778 42.7731
12747 1 9.99993 11.1867 44.0559
18407 2 9.09369 9.59997 45.3408
21290 2 10.9077 9.58412 42.7787
18439 2 2.72231 14.3652 42.7593
12826 1 1.81521 12.7812 44.0494
18428 2 0.908279 14.386 45.3214
18437 2 3.63679 12.7907 45.3287
18438 2 5.45081 12.7715 42.7666
12780 1 4.54293 14.3757 44.0421
18390 2 6.36452 14.386 45.3214
12796 1 7.27145 12.7812 44.0494
18394 2 8.17855 14.3652 42.7593
12746 1 9.99917 14.3757 44.0421
18389 2 9.09303 12.7907 45.3287
21291 2 10.907 12.7715 42.7666
18429 2 2.72141 17.5526 42.7422
12827 1 1.81437 15.9702 44.034
18427 2 0.907352 17.5768 45.3041
18426 2 3.63596 15.9814 45.3132
18441 2 5.45 15.9589 42.7512
12779 1 4.54199 17.5648 44.0249
18374 2 6.36359 17.5768 45.3041
12778 1 7.2706 15.9702 44.034
18393 2 8.17765 17.5526 42.7422
12731 1 9.99823 17.5648 44.0249
18392 2 9.0922 15.9814 45.3132
21289 2 10.9062 15.9589 42.7512
12787 1 0.918147 1.6351 49.1985
12805 1 2.73121 1.62724 46.6378
12844 1 0.00313677 0.0311078 46.638
18446 2 1.82502 0.0341112 47.917
12750 1 6.37439 1.6351 49.1985
12803 1 3.64631 0.0373626 49.1988
12804 1 5.45938 0.0311078 46.638
18402 2 4.55309 1.63105 47.9167
12749 1 9.10255 0.0373626 49.1988
12753 1 8.18745 1.62724 46.6378
18354 2 10.0093 1.63105 47.9167
18412 2 7.28126 0.0341112 47.917
12786 1 0.917923 4.83061 49.1953
12791 1 2.73098 4.81954 46.6346
12832 1 0.00300071 3.22339 46.6366
18447 2 1.82489 3.228 47.9155
12742 1 6.37416 4.83061 49.1953
12785 1 3.64618 3.23284 49.1974
12806 1 5.45924 3.22339 46.6366
18401 2 4.55287 4.82496 47.9135
12751 1 9.10241 3.23284 49.1974
12752 1 8.18722 4.81954 46.6346
18353 2 10.0091 4.82496 47.9135
18400 2 7.28112 3.228 47.9155
12772 1 0.917523 8.02618 49.1885
12790 1 2.73058 8.01186 46.6278
12833 1 0.0026851 6.4157 46.6316
18432 2 1.82458 6.42192 47.9105
12741 1 6.37376 8.02618 49.1885
12788 1 3.64586 6.42838 49.1923
12789 1 5.45892 6.4157 46.6316
18387 2 4.55248 8.0189 47.9067
12740 1 9.1021 6.42838 49.1923
12745 1 8.18682 8.01186 46.6278
18352 2 10.0087 8.0189 47.9067
18403 2 7.28082 6.42192 47.9105
12771 1 0.916947 11.2218 49.1781
12776 1 2.73 11.2042 46.6175
12824 1 0.00219077 9.60803 46.6231
18433 2 1.82409 9.61589 47.9019
12727 1 6.37319 11.2218 49.1781
12770 1 3.64538 9.62398 49.1837
12792 1 5.45843 9.60803 46.6231
18386 2 4.55191 11.2129 47.8963
12743 1 9.10161 9.62398 49.1837
12744 1 8.18623 11.2042 46.6175
18345 2 10.0081 11.2129 47.8963
18385 2 7.28033 9.61589 47.9019
12764 1 0.916198 14.4175 49.1641
12775 1 2.72923 14.3966 46.6036
12825 1 0.00151712 12.8004 46.611
18424 2 1.82344 12.8099 47.8898
12726 1 6.37244 14.4175 49.1641
12773 1 3.64471 12.8197 49.1715
12774 1 5.45776 12.8004 46.611
18373 2 4.55116 14.4069 47.8823
12725 1 9.10095 12.8197 49.1715
12730 1 8.18547 14.3966 46.6036
18344 2 10.0074 14.4069 47.8823
18388 2 7.27967 12.8099 47.8898
12763 1 0.915279 17.6134 49.1465
12765 1 2.72828 17.589 46.5863
12823 1 0.000662155 15.9928 46.5954
18425 2 1.8226 16.004 47.874
12712 1 6.37152 17.6134 49.1465
12762 1 3.64388 16.0154 49.1557
12777 1 5.4569 15.9928 46.5954
18372 2 4.55024 17.6011 47.8649
12728 1 9.10012 16.0154 49.1557
12729 1 8.18452 17.589 46.5863
18333 2 10.0065 17.6011 47.8649
18371 2 7.27884 16.004 47.874
12783 1 1.83385 0.0435812 51.7587
18398 2 2.74035 1.63888 50.477
18445 2 0.0122691 0.040341 50.4773
12738 1 4.56193 1.64293 51.7584
18397 2 5.46851 0.040341 50.4773
12696 1 10.0182 1.64293 51.7584
12748 1 7.29009 0.0435812 51.7587
18351 2 8.19659 1.63888 50.477
12784 1 1.83373 3.2423 51.7572
18383 2 2.74013 4.83602 50.4737
18430 2 0.0121417 3.23744 50.4758
12737 1 4.56172 4.84168 51.7551
18399 2 5.46838 3.23744 50.4758
12695 1 10.018 4.84168 51.7551
12736 1 7.28996 3.2423 51.7572
18350 2 8.19637 4.83602 50.4737
12768 1 1.83342 6.44109 51.7521
18382 2 2.73974 8.03323 50.4668
18431 2 0.0118392 6.43461 50.4707
12723 1 4.56133 8.04052 51.7481
18381 2 5.46808 6.43461 50.4707
12694 1 10.0176 8.04052 51.7481
12739 1 7.28966 6.44109 51.7521
18343 2 8.19598 8.03323 50.4668
12769 1 1.83295 9.63998 51.7433
18369 2 2.73918 11.2305 50.4563
18422 2 0.0113653 9.63186 50.462
12722 1 4.56077 11.2395 51.7376
18384 2 5.4676 9.63186 50.462
12688 1 10.017 11.2395 51.7376
12721 1 7.28919 9.63998 51.7433
18342 2 8.19542 11.2305 50.4563
12760 1 1.83232 12.839 51.7309
18368 2 2.73846 14.4279 50.4422
18423 2 0.0107246 12.8292 50.4497
12711 1 4.56006 14.4385 51.7234
18367 2 5.46696 12.8292 50.4497
12687 1 10.0163 14.4385 51.7234
12724 1 7.28855 12.839 51.7309
18332 2 8.1947 14.4279 50.4422
12761 1 1.83152 16.0382 51.7149
18360 2 2.73758 17.6255 50.4245
18421 2 0.0099219 16.0267 50.4338
12710 1 4.55919 17.6378 51.7056
18370 2 5.46616 16.0267 50.4338
12680 1 10.0154 17.6378 51.7056
12709 1 7.28776 16.0382 51.7149
18331 2 8.19382 17.6255 50.4245
12734 1 2.75009 1.65073 54.3172
12782 1 0.0220062 0.0497543 54.3175
18375 2 1.84483 0.0526674 55.595
18379 2 0.92821 1.64669 53.0363
12733 1 5.47824 0.0497543 54.3175
18336 2 4.57292 1.65446 55.5947
18348 2 6.38445 1.64669 53.0363
18396 2 3.65637 0.0465294 53.0366
12693 1 8.20633 1.65073 54.3172
18318 2 10.0292 1.65446 55.5947
18346 2 7.30107 0.0526674 55.595
18347 2 9.11261 0.0465294 53.0366
12719 1 2.74988 4.85275 54.3138
12766 1 0.0218868 3.25173 54.316
18376 2 1.84472 3.25628 55.5934
18378 2 0.928003 4.84708 53.033
12735 1 5.47813 3.25173 54.316
18335 2 4.57272 4.85813 55.5912
18340 2 6.38424 4.84708 53.033
18377 2 3.65625 3.24688 53.0351
12692 1 8.20612 4.85275 54.3138
18317 2 10.029 4.85813 55.5912
18334 2 7.30096 3.25628 55.5934
18349 2 9.11249 3.24688 53.0351
12718 1 2.74951 8.05488 54.3068
12767 1 0.0215985 6.4538 54.3108
18361 2 1.84445 6.46 55.5881
18365 2 0.927629 8.04757 53.026
12717 1 5.47784 6.4538 54.3108
18325 2 4.57237 8.06191 55.5841
18339 2 6.38387 8.04757 53.026
18380 2 3.65596 6.44731 53.0299
12686 1 8.20575 8.05488 54.3068
18316 2 10.0286 8.06191 55.5841
18337 2 7.30068 6.46 55.5881
18338 2 9.11219 6.44731 53.0299
12707 1 2.74898 11.2572 54.2961
12758 1 0.021148 9.656 54.3019
18362 2 1.84401 9.66386 55.5792
18364 2 0.927094 11.2482 53.0153
12720 1 5.47739 9.656 54.3019
18324 2 4.57186 11.2658 55.5733
18329 2 6.38333 11.2482 53.0153
18363 2 3.6555 9.64786 53.0211
12685 1 8.20522 11.2572 54.2961
18315 2 10.0281 11.2658 55.5733
18323 2 7.30025 9.66386 55.5792
18341 2 9.11174 9.64786 53.0211
12706 1 2.74831 14.4596 54.2817
12759 1 0.0205448 12.8583 54.2894
18355 2 1.84343 12.8679 55.5665
18359 2 0.926406 14.4489 53.001
12705 1 5.47678 12.8583 54.2894
18321 2 4.57121 14.47 55.5588
18328 2 6.38264 14.4489 53.001
18366 2 3.65489 12.8485 53.0086
12679 1 8.20455 14.4596 54.2817
18314 2 10.0274 14.47 55.5588
18326 2 7.29967 12.8679 55.5665
18327 2 9.11113 12.8485 53.0086
18358 2 0.925577 17.6499 52.983
18356 2 1.84272 16.0721 55.5501
12757 1 0.0198009 16.0609 54.2731
12700 1 2.7475 17.6623 54.2635
18357 2 3.65413 16.0494 52.9925
18322 2 6.38182 17.6499 52.983
18320 2 4.57044 17.6743 55.5404
12708 1 5.47604 16.0609 54.2731
18330 2 9.11037 16.0494 52.9925
18319 2 7.29896 16.0721 55.5501
18313 2 10.0267 17.6743 55.5404
12678 1 8.20374 17.6623 54.2635
18665 2 2.76199 1.66218 58.152
18672 2 0.0339064 0.0587467 58.1524
12715 1 0.93885 1.65849 56.8751
18664 2 5.49014 0.0587467 58.1524
12690 1 6.39509 1.65849 56.8751
12732 1 3.667 0.0558751 56.8754
18630 2 8.21823 1.66218 58.152
12689 1 9.12324 0.0558751 56.8754
18661 2 2.76181 4.86913 58.1485
18670 2 0.0338028 3.26564 58.1507
12714 1 0.938658 4.8638 56.8716
18666 2 5.49004 3.26564 58.1507
12683 1 6.3949 4.8638 56.8716
12713 1 3.66689 3.26113 56.8738
18629 2 8.21805 4.86913 58.1485
12691 1 9.12313 3.26113 56.8738
18660 2 2.76147 8.07623 58.1413
18671 2 0.0335388 6.47266 58.1454
12703 1 0.938305 8.06924 56.8645
18659 2 5.48978 6.47266 58.1454
12682 1 6.39454 8.06924 56.8645
12716 1 3.66662 6.4665 56.8685
18624 2 8.21771 8.07623 58.1413
12681 1 9.12286 6.4665 56.8685
18650 2 2.76098 11.2835 58.1303
18668 2 0.0331234 9.67983 58.1363
12702 1 0.937804 11.2748 56.8536
18662 2 5.48936 9.67983 58.1363
12676 1 6.39404 11.2748 56.8536
12701 1 3.66619 9.67202 56.8595
18623 2 8.21722 11.2835 58.1303
12684 1 9.12243 9.67202 56.8595
18649 2 2.76037 14.491 58.1155
18669 2 0.0325706 12.8872 58.1234
12699 1 0.937169 14.4807 56.839
18648 2 5.48881 12.8872 58.1234
12675 1 6.39341 14.4807 56.839
12704 1 3.66562 12.8777 56.8468
18610 2 8.21661 14.491 58.1155
12674 1 9.12186 12.8777 56.8468
18639 2 2.75964 17.6987 58.0969
18667 2 0.0318985 16.0948 58.1067
12698 1 0.93642 17.6867 56.8205
18651 2 5.48814 16.0948 58.1067
12673 1 6.39266 17.6867 56.8205
12697 1 3.66493 16.0837 56.8302
18609 2 8.21588 17.6987 58.0969
12677 1 9.12117 16.0837 56.8302
13031 1 1.85636 0.061943 59.4324
13014 1 2.7744 1.67389 61.9881
13030 1 0.0463064 0.0679826 61.9885
18657 2 0.951666 1.66984 60.7084
13018 1 4.58445 1.6662 59.432
13013 1 5.50254 0.0679826 61.9885
18627 2 6.4079 1.66984 60.7084
18663 2 3.67981 0.0647587 60.7088
12972 1 10.0407 1.6662 59.432
13020 1 7.3126 0.061943 59.4324
12969 1 8.23064 1.67389 61.9881
18626 2 9.13605 0.0647587 60.7088
13032 1 1.85626 3.27049 59.4307
13006 1 2.77422 4.8858 61.9845
13026 1 0.046212 3.27983 61.9868
18656 2 0.95149 4.88008 60.7048
13017 1 4.58427 4.87481 59.4285
13015 1 5.50245 3.27983 61.9868
18621 2 6.40773 4.88008 60.7048
18655 2 3.67972 3.27494 60.707
12971 1 10.0405 4.87481 59.4285
13016 1 7.3125 3.27049 59.4307
12968 1 8.23046 4.8858 61.9845
18628 2 9.13596 3.27494 60.707
13028 1 1.856 6.47917 59.4253
13005 1 2.7739 8.09787 61.9771
13027 1 0.0459593 6.49181 61.9812
18646 2 0.951161 8.09049 60.6974
13010 1 4.58393 8.08357 59.4212
13004 1 5.5022 6.49181 61.9812
18620 2 6.4074 8.09049 60.6974
18658 2 3.67946 6.48526 60.7016
12970 1 10.0402 8.08357 59.4212
13019 1 7.31224 6.47917 59.4253
12961 1 8.23013 8.09787 61.9771
18619 2 9.1357 6.48526 60.7016
13029 1 1.85559 9.68801 59.4162
12992 1 2.77343 11.3101 61.9658
13022 1 0.045559 9.70398 61.9719
18645 2 0.95069 11.3011 60.6863
13009 1 4.58345 11.2925 59.4102
13007 1 5.5018 9.70398 61.9719
18607 2 6.40693 11.3011 60.6863
18644 2 3.67906 9.69575 60.6923
12963 1 10.0397 11.2925 59.4102
13008 1 7.31183 9.68801 59.4162
12960 1 8.22967 11.3101 61.9658
18622 2 9.1353 9.69575 60.6923
13024 1 1.85505 12.8971 59.4032
12991 1 2.77284 14.5227 61.9507
13023 1 0.0450279 12.9164 61.9588
18638 2 0.950097 14.5119 60.6713
12996 1 4.58285 14.5017 59.3953
12990 1 5.50127 12.9164 61.9588
18606 2 6.40634 14.5119 60.6713
18647 2 3.67853 12.9065 60.6793
12962 1 10.0391 14.5017 59.3953
13011 1 7.31128 12.8971 59.4032
12946 1 8.22908 14.5227 61.9507
18605 2 9.13477 12.9065 60.6793
13025 1 1.85439 16.1064 59.3864
12981 1 2.77216 17.7355 61.9316
13021 1 0.0443895 16.129 61.9417
18637 2 0.949406 17.723 60.6523
12995 1 4.58215 17.7112 59.3765
12993 1 5.50063 16.129 61.9417
18589 2 6.40564 17.723 60.6523
18636 2 3.67788 16.1174 60.6623
12947 1 10.0384 17.7112 59.3765
12994 1 7.31063 16.1064 59.3864
12945 1 8.2284 17.7355 61.9316
18608 2 9.13412 16.1174 60.6623
13002 1 0.964881 1.68168 64.5436
18613 2 2.78896 1.68482 65.8177
18652 2 0.0608641 0.0764726 65.8181
18653 2 1.87006 0.0706866 63.2641
12966 1 6.42112 1.68168 64.5436
13012 1 3.69302 0.074128 64.544
18612 2 5.5171 0.0764726 65.8181
18617 2 4.59816 1.6774 63.2637
12965 1 9.14926 0.074128 64.544
18561 2 8.2452 1.68482 65.8177
18564 2 10.0544 1.6774 63.2637
18625 2 7.3263 0.0706866 63.2641
13001 1 0.96471 4.89689 64.5399
18599 2 2.78879 4.90163 65.8139
18640 2 0.0607775 3.29321 65.8163
18654 2 1.86997 3.28416 63.2623
12958 1 6.42095 4.89689 64.5399
13000 1 3.69293 3.28926 64.5422
18614 2 5.51702 3.29321 65.8163
18616 2 4.59799 4.89094 63.26
12967 1 9.14917 3.28926 64.5422
18560 2 8.24503 4.90163 65.8139
18563 2 10.0542 4.89094 63.26
18615 2 7.32621 3.28416 63.2623
12988 1 0.964382 8.11226 64.5323
18598 2 2.78846 8.11861 65.8063
18641 2 0.0605274 6.5101 65.8106
18642 2 1.86973 6.49777 63.2567
12957 1 6.42062 8.11226 64.5323
13003 1 3.69268 6.50455 64.5366
18597 2 5.51677 6.5101 65.8106
18603 2 4.59766 8.10464 63.2525
12956 1 9.14892 6.50455 64.5366
18553 2 8.2447 8.11861 65.8063
18562 2 10.0539 8.10464 63.2525
18618 2 7.32596 6.49777 63.2567
12987 1 0.963911 11.3279 64.5209
18584 2 2.78799 11.3358 65.7949
18632 2 0.0601231 9.72718 65.8011
18643 2 1.86933 9.71157 63.2473
12943 1 6.42015 11.3279 64.5209
12986 1 3.69228 9.72003 64.5271
18600 2 5.51636 9.72718 65.8011
18602 2 4.5972 11.3186 63.2412
12959 1 9.14852 9.72003 64.5271
18552 2 8.24423 11.3358 65.7949
18555 2 10.0534 11.3186 63.2412
18601 2 7.32557 9.71157 63.2473
12980 1 0.963317 14.5437 64.5056
18583 2 2.78738 14.5533 65.7794
18633 2 0.0595799 12.9445 65.7877
18634 2 1.8688 12.9256 63.2341
12942 1 6.41956 14.5437 64.5056
12989 1 3.69175 12.9357 64.5138
18582 2 5.51582 12.9445 65.7877
18588 2 4.59661 14.5327 63.226
12941 1 9.14799 12.9357 64.5138
18538 2 8.24362 14.5533 65.7794
18554 2 10.0528 14.5327 63.226
18604 2 7.32504 12.9256 63.2341
12979 1 0.962628 17.7599 64.4863
18573 2 2.78667 17.7711 65.76
18631 2 0.0589196 16.1621 65.7702
18635 2 1.86816 16.1399 63.2169
12926 1 6.41887 17.7599 64.4863
12978 1 3.6911 16.1518 64.4964
18585 2 5.51516 16.1621 65.7702
18587 2 4.59592 17.7472 63.2067
12944 1 9.14734 16.1518 64.4964
18537 2 8.24291 17.7711 65.76
18539 2 10.0522 17.7472 63.2067
18586 2 7.3244 16.1399 63.2169
12998 1 1.88388 0.0810328 67.0999
18595 2 0.98019 1.69183 68.3696
12954 1 4.61198 1.69023 67.0995
18558 2 6.43643 1.69183 68.3696
18611 2 3.70833 0.08186 68.3701
12906 1 10.0682 1.69023 67.0995
12964 1 7.34012 0.0810328 67.0999
18557 2 9.16457 0.08186 68.3701
12999 1 1.88379 3.29945 67.098
18594 2 0.980017 4.91187 68.3658
12953 1 4.61181 4.90872 67.0956
18550 2 6.43626 4.91187 68.3658
18593 2 3.70824 3.30183 68.3682
12905 1 10.068 4.90872 67.0956
12952 1 7.34003 3.29945 67.098
18559 2 9.16448 3.30183 68.3682
12984 1 1.88354 6.51802 67.0923
18580 2 0.979675 8.13209 68.3581
12939 1 4.61147 8.12738 67.088
18549 2 6.43591 8.13209 68.3581
18596 2 3.70799 6.52195 68.3624
12904 1 10.0677 8.12738 67.088
12955 1 7.33978 6.51802 67.0923
18548 2 9.16422 6.52195 68.3624
12985 1 1.88313 9.7368 67.0827
18579 2 0.979175 11.3526 68.3465
12938 1 4.61098 11.3463 67.0764
18535 2 6.43541 11.3526 68.3465
18578 2 3.70756 9.74229 68.3528
12897 1 10.0672 11.3463 67.0764
12937 1 7.33937 9.7368 67.0827
18551 2 9.1638 9.74229 68.3528
12976 1 1.88257 12.9558 67.0692
18572 2 0.978533 14.5733 68.3309
12925 1 4.61036 14.5654 67.0609
18534 2 6.43477 14.5733 68.3309
18581 2 3.70699 12.9629 68.3392
12896 1 10.0666 14.5654 67.0609
12940 1 7.33881 12.9558 67.0692
18533 2 9.16323 12.9629 68.3392
12977 1 1.88189 16.1751 67.0516
18571 2 0.977771 17.7944 68.3112
12924 1 4.60963 17.7849 67.0413
18520 2 6.43401 17.7944 68.3112
18570 2 3.70628 16.1838 68.3216
12885 1 10.0659 17.7849 67.0413
12923 1 7.33812 16.1751 67.0516
18536 2 9.16252 16.1838 68.3216
12931 1 0.988375 1.70476 72.2352
12950 1 2.80246 1.69745 69.6591
12997 1 0.0743644 0.0866208 69.6596
18591 2 1.89965 0.0858058 70.917
12900 1 6.44461 1.70476 72.2352
12948 1 3.71652 0.0922392 72.2357
12949 1 5.5306 0.0866208 69.6596
18546 2 4.62775 1.69736 70.9165
12899 1 9.17276 0.0922392 72.2357
12903 1 8.2587 1.69745 69.6591
18504 2 10.084 1.69736 70.9165
18556 2 7.35589 0.0858058 70.917
12930 1 0.988171 4.9299 72.2313
12935 1 2.80228 4.91923 69.6552
12982 1 0.0742728 3.30832 69.6576
18592 2 1.89956 3.30895 70.9151
12892 1 6.44441 4.9299 72.2313
12929 1 3.71642 3.31731 72.2338
12951 1 5.53051 3.30832 69.6576
18545 2 4.62756 4.92058 70.9126
12901 1 9.17266 3.31731 72.2338
12902 1 8.25852 4.91923 69.6552
18503 2 10.0838 4.92058 70.9126
18544 2 7.3558 3.30895 70.9151
12917 1 0.987767 8.15522 72.2236
12934 1 2.80192 8.14118 69.6475
12983 1 0.0740003 6.53018 69.6519
18576 2 1.89928 6.53226 70.9093
12891 1 6.44401 8.15522 72.2236
12932 1 3.71611 6.54253 72.2279
12933 1 5.53024 6.53018 69.6519
18531 2 4.6272 8.144 70.9049
12890 1 9.17235 6.54253 72.2279
12895 1 8.25816 8.14118 69.6475
18502 2 10.0834 8.144 70.9049
18547 2 7.35552 6.53226 70.9093
12916 1 0.987168 11.3808 72.2119
12921 1 2.80139 11.3634 69.6359
12974 1 0.0735537 9.75224 69.6422
18577 2 1.89883 9.7558 70.8996
12881 1 6.44341 11.3808 72.2119
12915 1 3.71561 9.76796 72.2182
12936 1 5.52979 9.75224 69.6422
18530 2 4.62666 11.3677 70.8932
12893 1 9.17185 9.76796 72.2182
12894 1 8.25763 11.3634 69.6359
18496 2 10.0829 11.3677 70.8932
18529 2 7.35507 9.7558 70.8996
12911 1 0.986387 14.6066 72.1961
12920 1 2.80071 14.5858 69.6202
12975 1 0.0729455 12.9746 69.6286
18568 2 1.89821 12.9796 70.8859
12880 1 6.44263 14.6066 72.1961
12918 1 3.71492 12.9936 72.2045
12919 1 5.52918 12.9746 69.6286
18519 2 4.62596 14.5917 70.8775
12879 1 9.17116 12.9936 72.2045
12884 1 8.25694 14.5858 69.6202
18495 2 10.0822 14.5917 70.8775
18532 2 7.35445 12.9796 70.8859
12910 1 0.985443 17.8326 72.1763
12912 1 2.79989 17.8086 69.6005
12973 1 0.0721948 16.1972 69.6109
18569 2 1.89744 16.2038 70.8682
12874 1 6.44168 17.8326 72.1763
12909 1 3.71405 16.2196 72.1867
12922 1 5.52843 16.1972 69.6109
18518 2 4.62512 17.816 70.8577
12882 1 9.17029 16.2196 72.1867
12883 1 8.25613 17.8086 69.6005
18488 2 10.0814 17.816 70.8577
18517 2 7.35368 16.2038 70.8682
12927 1 1.84396 0.106764 74.8871
18523 2 0.980136 1.7136 75.9233
18542 2 2.81744 1.70189 73.4487
18590 2 0.0893456 0.0887684 73.4492
12888 1 4.57204 1.72145 74.8866
18498 2 6.43637 1.7136 75.9233
18540 2 3.70829 0.0986434 75.9238
18541 2 5.54558 0.0887684 73.4492
12870 1 10.0283 1.72145 74.8866
12898 1 7.30019 0.106764 74.8871
18497 2 9.16452 0.0986434 75.9238
18501 2 8.27368 1.70189 73.4487
12928 1 1.84382 3.33616 74.8851
18522 2 0.979898 4.94362 75.9194
18527 2 2.81724 4.92823 73.4448
18574 2 0.0892453 3.31504 73.4473
12887 1 4.57178 4.9509 74.8827
18491 2 6.43614 4.94362 75.9194
18521 2 3.70817 3.32859 75.9219
18543 2 5.54548 3.31504 73.4473
12869 1 10.028 4.9509 74.8827
12886 1 7.30006 3.33616 74.8851
18499 2 9.1644 3.32859 75.9219
18500 2 8.27348 4.92823 73.4448
12913 1 1.84343 6.56566 74.8793
18511 2 0.979421 8.1738 75.9116
18526 2 2.81684 8.15479 73.437
18575 2 0.0889455 6.54148 73.4414
12877 1 4.57126 8.18044 74.8749
18490 2 6.43566 8.1738 75.9116
18524 2 3.70781 6.55868 75.916
18525 2 5.54518 6.54148 73.4414
12868 1 10.0275 8.18044 74.8749
12889 1 7.29967 6.56566 74.8793
18489 2 9.16405 6.55868 75.916
18494 2 8.27308 8.15479 73.437
12914 1 1.84278 9.79524 74.8695
18510 2 0.978709 11.4042 75.8998
18515 2 2.81625 11.3816 73.4253
18566 2 0.0884495 9.76817 73.4317
12876 1 4.57048 11.4101 74.8631
18484 2 6.43495 11.4042 75.8998
18509 2 3.70721 9.78896 75.9062
18528 2 5.54469 9.76817 73.4317
12867 1 10.0267 11.4101 74.8631
12875 1 7.29902 9.79524 74.8695
18492 2 9.16345 9.78896 75.9062
18493 2 8.27249 11.3816 73.4253
12907 1 1.84188 13.0249 74.8558
18507 2 0.977769 14.6348 75.8839
18514 2 2.81547 14.6088 73.4095
18567 2 0.0877641 12.9952 73.4179
12873 1 4.56947 14.6397 74.8474
18483 2 6.43401 14.6348 75.8839
18512 2 3.70639 13.0195 75.8924
18513 2 5.544 12.9952 73.4179
12866 1 10.0257 14.6397 74.8474
12878 1 7.29812 13.0249 74.8558
18482 2 9.16262 13.0195 75.8924
18487 2 8.27171 14.6088 73.4095
12908 1 1.84076 16.2546 74.8379
18506 2 0.976618 17.8656 75.864
18508 2 2.81453 17.8364 73.3896
18565 2 0.086902 16.2226 73.4001
12872 1 4.56824 17.8694 74.8274
18481 2 6.43286 17.8656 75.864
18505 2 3.70534 16.2502 75.8745
18516 2 5.54314 16.2226 73.4001
12865 1 10.0245 17.8694 74.8274
12871 1 7.297 16.2546 74.8379
18485 2 9.16158 16.2502 75.8745
18486 2 8.27077 17.8364 73.3896
6729 2 0.902099 20.3024 -0.948255
6737 2 2.7136 20.2794 -3.45534
576 1 1.79199 21.8563 -2.40582
6727 2 3.63103 21.8702 -0.962428
562 1 4.51868 20.289 -2.39168
6699 2 6.35834 20.3024 -0.948255
6738 2 5.44273 21.8458 -3.46936
560 1 7.24823 21.8563 -2.40582
516 1 9.97492 20.289 -2.39168
6702 2 8.16984 20.2794 -3.45534
6700 2 9.08727 21.8702 -0.962428
10006 2 10.899 21.8458 -3.46936
6728 2 0.903779 23.4381 -0.977614
6733 2 2.71571 23.4124 -3.48438
572 1 1.79525 24.9917 -2.43711
6730 2 3.63281 25.0063 -0.993795
561 1 4.52167 23.4239 -2.42097
6693 2 6.36002 23.4381 -0.977614
6731 2 5.44499 24.9793 -3.50037
563 1 7.25149 24.9917 -2.43711
515 1 9.97791 23.4239 -2.42097
6701 2 8.17194 23.4124 -3.48438
6691 2 9.08905 25.0063 -0.993795
10007 2 10.9012 24.9793 -3.50037
6718 2 0.905637 26.5747 -1.01095
6732 2 2.71812 26.5465 -3.51731
573 1 1.7991 28.1284 -2.47228
6716 2 3.63474 28.1434 -1.02905
554 1 4.52522 26.5599 -2.45423
6692 2 6.36188 26.5747 -1.01095
6734 2 5.44755 28.1141 -3.53517
552 1 7.25533 28.1284 -2.47228
514 1 9.98146 26.5599 -2.45423
6696 2 8.17436 26.5465 -3.51731
6694 2 9.09098 28.1434 -1.02905
10004 2 10.9038 28.1141 -3.53517
6717 2 0.907639 29.7124 -1.04807
6722 2 2.72082 29.682 -3.55392
568 1 1.80355 31.2667 -2.5111
6719 2 3.6368 31.2817 -1.06797
553 1 4.52937 29.6974 -2.49126
6679 2 6.36388 29.7124 -1.04807
6720 2 5.4504 31.2505 -3.57352
555 1 7.25979 31.2667 -2.5111
507 1 9.9856 29.6974 -2.49126
6695 2 8.17706 29.682 -3.55392
6677 2 9.09304 31.2817 -1.06797
10005 2 10.9066 31.2505 -3.57352
6710 2 0.909745 32.8515 -1.08869
6721 2 2.72381 32.8194 -3.59392
569 1 1.80864 34.4071 -2.55323
540 1 4.53414 32.8366 -2.53178
6678 2 6.36598 32.8515 -1.08869
6708 2 3.63894 34.4218 -1.1102
6723 2 5.45352 34.389 -3.61506
538 1 7.26488 34.4071 -2.55323
506 1 9.99038 32.8366 -2.53178
6682 2 8.18005 32.8194 -3.59392
6680 2 9.09518 34.4218 -1.1102
10003 2 10.9098 34.389 -3.61506
6709 2 0.911916 35.9926 -1.13241
6711 2 2.72705 35.9592 -3.63688
959 1 1.81434 37.5499 -2.5982
7152 2 0.000642023 37.5301 -3.65931
539 1 4.53954 35.9782 -2.57539
6661 2 6.36815 35.9926 -1.13241
7143 2 3.64113 37.5639 -1.15527
7144 2 5.45688 37.5301 -3.65931
948 1 7.27058 37.5499 -2.5982
491 1 9.99578 35.9782 -2.57539
6681 2 8.18329 35.9592 -3.63688
7106 2 9.09737 37.5639 -1.15527
558 1 2.71734 20.313 0.274643
6726 2 1.81047 21.8953 1.5923
6689 2 4.53769 20.3261 1.60655
559 1 5.44639 21.8816 0.260421
6687 2 7.2667 21.8953 1.5923
513 1 8.17358 20.313 0.274643
6636 2 9.99393 20.3261 1.60655
3642 1 10.9026 21.8816 0.260421
550 1 2.71927 23.4503 0.24518
6714 2 1.81242 25.0342 1.56072
6688 2 4.53953 23.4647 1.57701
548 1 5.44844 25.0193 0.228935
6690 2 7.26866 25.0342 1.56072
512 1 8.1755 23.4503 0.24518
6635 2 9.99577 23.4647 1.57701
3643 1 10.9047 25.0193 0.228935
549 1 2.72144 26.5885 0.211708
6715 2 1.81458 28.1738 1.5252
6675 2 4.54159 26.6039 1.54344
551 1 5.45073 28.158 0.193524
6673 2 7.27082 28.1738 1.5252
505 1 8.17768 26.5885 0.211708
6634 2 9.99783 26.6039 1.54344
3638 1 10.907 28.158 0.193524
536 1 2.72384 29.7277 0.174413
6706 2 1.81692 31.3144 1.48595
6674 2 4.54385 29.744 1.50602
534 1 5.45323 31.2978 0.154414
6676 2 7.27316 31.3144 1.48595
504 1 8.18007 29.7277 0.174413
6627 2 10.0001 29.744 1.50602
3639 1 10.9095 31.2978 0.154414
535 1 2.72643 32.8683 0.133574
6707 2 1.81939 34.4562 1.44331
6660 2 4.54626 32.8851 1.46503
537 1 5.4559 34.4392 0.111946
490 1 8.18266 32.8683 0.133574
6626 2 10.0025 32.8851 1.46503
6658 2 7.27563 34.4562 1.44331
3637 1 10.9121 34.4392 0.111946
525 1 2.72917 36.0106 0.0895941
958 1 0.00246625 37.5825 0.0665913
7133 2 1.82196 37.5996 1.39774
6659 2 4.54879 36.0277 1.42086
941 1 5.4587 37.5825 0.0665913
489 1 8.18541 36.0106 0.0895941
6611 2 10.005 36.0277 1.42086
7105 2 7.2782 37.5996 1.39774
546 1 0.89871 20.3374 2.8731
544 1 3.62777 21.9074 2.8588
6685 2 2.7171 20.3505 4.17415
543 1 1.80769 21.9343 5.44112
510 1 6.35495 20.3374 2.8731
498 1 4.53482 20.3629 5.45544
6686 2 5.44617 21.9211 4.15986
496 1 7.26393 21.9343 5.44112
511 1 9.08401 21.9074 2.8588
444 1 9.99106 20.3629 5.45544
6633 2 8.17334 20.3505 4.17415
9976 2 10.9024 21.9211 4.15986
545 1 0.900659 23.4775 2.84346
547 1 3.62985 25.0477 2.82711
6671 2 2.71906 23.4918 4.14454
528 1 1.80988 25.077 5.40934
502 1 6.3569 23.4775 2.84346
497 1 4.53687 23.5056 5.42574
6669 2 5.44826 25.0626 4.12819
499 1 7.26612 25.077 5.40934
500 1 9.08609 25.0477 2.82711
443 1 9.9931 23.5056 5.42574
6632 2 8.1753 23.4918 4.14454
9977 2 10.9045 25.0626 4.12819
532 1 0.902865 26.6181 2.80976
530 1 3.63218 28.1887 2.79143
6670 2 2.72129 26.6335 4.11085
529 1 1.81235 28.2201 5.3735
501 1 6.3591 26.6181 2.80976
483 1 4.5392 26.6485 5.39191
6672 2 5.45062 28.2045 4.09253
481 1 7.26859 28.2201 5.3735
503 1 9.08841 28.1887 2.79143
442 1 9.99544 26.6485 5.39191
6625 2 8.17753 26.6335 4.11085
9968 2 10.9069 28.2045 4.09253
531 1 0.905303 29.7594 2.77215
533 1 3.63472 31.3304 2.75196
6656 2 2.72376 29.7757 4.07326
520 1 1.81509 31.3635 5.3338
487 1 6.36154 29.7594 2.77215
482 1 4.54181 29.7917 5.35412
6654 2 5.4532 31.347 4.05308
484 1 7.27133 31.3635 5.3338
485 1 9.09096 31.3304 2.75196
435 1 9.99805 29.7917 5.35412
6624 2 8.18 29.7757 4.07326
9969 2 10.9094 31.347 4.05308
524 1 0.90794 32.9017 2.73091
522 1 3.63744 34.4732 2.70905
6655 2 2.72645 32.9185 4.03203
521 1 1.81805 34.5076 5.29055
486 1 6.36418 32.9017 2.73091
468 1 4.54466 32.9355 5.31259
6657 2 5.45598 34.4903 4.01017
466 1 7.27428 34.5076 5.29055
488 1 9.09368 34.4732 2.70905
434 1 10.0009 32.9355 5.31259
6610 2 8.18269 32.9185 4.03203
9967 2 10.9122 34.4903 4.01017
523 1 0.910733 36.0451 2.68643
6645 2 2.7293 36.0624 3.98755
926 1 1.82118 37.6525 5.24416
7132 2 0.00265909 37.6347 3.96424
469 1 6.36697 36.0451 2.68643
467 1 4.54771 36.0799 5.26771
940 1 3.64029 37.6174 2.66314
7092 2 5.4589 37.6347 3.96424
420 1 10.004 36.0799 5.26771
6609 2 8.18554 36.0624 3.98755
893 1 9.09653 37.6174 2.66314
892 1 7.27742 37.6525 5.24416
494 1 2.71457 20.388 8.03232
6667 2 0.896733 20.3755 6.74614
6665 2 3.62584 21.9474 6.73186
6630 2 6.35297 20.3755 6.74614
495 1 5.4437 21.9606 8.01803
3598 1 10.8999 21.9606 8.01803
441 1 8.17081 20.388 8.03232
6631 2 9.08208 21.9474 6.73186
479 1 2.71667 23.5331 8.00269
6666 2 0.898785 23.5194 6.71654
6668 2 3.62804 25.0913 6.70019
6622 2 6.35502 23.5194 6.71654
477 1 5.44596 25.1057 7.98632
3599 1 10.9022 25.1057 7.98632
440 1 8.17291 23.5331 8.00269
6620 2 9.08428 25.0913 6.70019
478 1 2.71909 26.6782 7.96891
6652 2 0.90114 26.6634 6.68283
6649 2 1.8104 28.2659 9.23809
6650 2 3.63055 28.2354 6.66448
6621 2 6.35738 26.6634 6.68283
480 1 5.44854 28.2508 7.9505
6601 2 7.26664 28.2659 9.23809
3590 1 10.9048 28.2508 7.9505
433 1 8.17533 26.6782 7.96891
6623 2 9.08679 28.2354 6.66448
464 1 2.72183 29.8233 7.93111
6651 2 0.903786 29.8075 6.64516
6640 2 1.8133 31.4119 9.19858
6653 2 3.63333 31.3797 6.62491
6602 2 4.53993 29.8389 9.21881
6607 2 6.36002 29.8075 6.64516
462 1 5.45143 31.3959 7.91077
6604 2 7.26954 31.4119 9.19858
3591 1 10.9077 31.3959 7.91077
432 1 8.17807 29.8233 7.93111
6568 2 9.99617 29.8389 9.21881
6605 2 9.08957 31.3797 6.62491
463 1 2.72487 32.9685 7.8895
6644 2 0.906695 32.9519 6.60377
6641 2 1.8165 34.5577 9.15542
6642 2 3.63636 34.5243 6.58177
6591 2 4.54298 32.9848 9.17744
6606 2 6.36293 32.9519 6.60377
465 1 5.4546 34.5411 7.86737
6589 2 7.27274 34.5577 9.15542
3589 1 10.9108 34.5411 7.86737
419 1 8.18111 32.9685 7.8895
6567 2 9.99922 32.9848 9.17744
6608 2 9.0926 34.5243 6.58177
453 1 2.72816 36.1138 7.84442
6643 2 0.909829 36.0968 6.55899
925 1 0.00176361 37.6866 7.8207
7071 2 1.81996 37.7035 9.10895
6590 2 4.54632 36.1306 9.13257
6592 2 6.36607 36.0968 6.55899
877 1 5.458 37.6866 7.8207
7091 2 3.63958 37.6695 6.53549
418 1 8.1844 36.1138 7.84442
6560 2 10.0026 36.1306 9.13257
7036 2 7.2762 37.7035 9.10895
7037 2 9.09582 37.6695 6.53549
6664 2 1.80559 21.9735 9.30522
475 1 0.894371 20.4128 10.6071
6614 2 2.71256 20.425 11.8929
473 1 3.62349 21.9867 10.5929
6618 2 4.53272 20.4003 9.31942
6616 2 7.26183 21.9735 9.30522
438 1 6.35061 20.4128 10.6071
6615 2 5.44165 21.9996 11.8788
6576 2 9.98896 20.4003 9.31942
6573 2 8.1688 20.425 11.8929
439 1 9.07973 21.9867 10.5929
9910 2 10.8979 21.9996 11.8788
6648 2 1.80783 25.1198 9.27369
474 1 0.896451 23.5604 10.5777
6599 2 2.71458 23.574 11.8637
476 1 3.62574 25.1341 10.5614
6617 2 4.53479 23.5467 9.28997
6619 2 7.26407 25.1198 9.27369
430 1 6.35269 23.5604 10.5777
6597 2 5.44384 25.1482 11.8476
6575 2 9.99103 23.5467 9.28997
6572 2 8.17082 23.574 11.8637
428 1 9.08198 25.1341 10.5614
9911 2 10.9001 25.1482 11.8476
460 1 0.898881 26.7077 10.5441
6598 2 2.71695 26.7224 11.8304
458 1 3.62835 28.2812 10.5258
6603 2 4.53719 26.6929 9.25639
429 1 6.35512 26.7077 10.5441
6600 2 5.44639 28.2964 11.8123
6574 2 9.99343 26.6929 9.25639
6566 2 8.17318 26.7224 11.8304
431 1 9.08459 28.2812 10.5258
9902 2 10.9026 28.2964 11.8123
459 1 0.901667 29.8547 10.5065
6587 2 2.71968 29.8703 11.7931
461 1 3.63131 31.428 10.4863
416 1 6.35791 29.8547 10.5065
6585 2 5.4493 31.444 11.773
6565 2 8.17592 29.8703 11.7931
414 1 9.08755 31.428 10.4863
9903 2 10.9055 31.444 11.773
452 1 0.904801 33.0012 10.4651
6586 2 2.72278 33.0176 11.752
450 1 3.63461 34.5743 10.443
415 1 6.36104 33.0012 10.4651
6588 2 5.45258 34.5911 11.73
6559 2 8.17902 33.0176 11.752
417 1 9.09085 34.5743 10.443
9901 2 10.9088 34.5911 11.73
451 1 0.908257 36.1474 10.42
6580 2 2.72623 36.1644 11.7072
405 1 6.36449 36.1474 10.42
876 1 3.63821 37.7204 10.3962
7021 2 5.4562 37.7376 11.6836
6558 2 8.18247 36.1644 11.7072
10334 2 10.9124 37.7376 11.6836
821 1 9.09445 37.7204 10.3962
422 1 2.71047 20.4625 15.7542
6595 2 0.892509 20.4499 14.4662
472 1 1.80332 22.0127 13.167
6593 2 3.62153 22.0257 14.4523
426 1 4.53049 20.4376 13.181
6570 2 6.34875 20.4499 14.4662
424 1 7.25956 22.0127 13.167
423 1 5.43945 22.0389 15.7404
393 1 8.16671 20.4625 15.7542
396 1 9.98673 20.4376 13.181
6571 2 9.07776 22.0257 14.4523
3526 1 10.8957 22.0389 15.7404
408 1 2.71228 23.6152 15.7256
6594 2 0.894389 23.6013 14.4374
456 1 1.80548 25.1626 13.1358
6596 2 3.62358 25.1768 14.4215
425 1 4.53247 23.5877 13.1519
6563 2 6.35063 23.6013 14.4374
427 1 7.26172 25.1626 13.1358
406 1 5.44143 25.1912 15.7098
392 1 8.16851 23.6152 15.7256
395 1 9.98871 23.5877 13.1519
6561 2 9.07982 25.1768 14.4215
3527 1 10.8977 25.1912 15.7098
407 1 2.71444 26.7671 15.693
6583 2 0.896628 26.752 14.4046
457 1 1.80802 28.3118 13.1006
6581 2 3.62601 28.3271 14.3867
412 1 4.53482 26.7373 13.1187
6562 2 6.35287 26.752 14.4046
410 1 7.26425 28.3118 13.1006
409 1 5.4438 28.3426 15.6752
389 1 8.17068 26.7671 15.693
394 1 9.99106 26.7373 13.1187
6564 2 9.08225 28.3271 14.3867
3518 1 10.9 28.3426 15.6752
6582 2 0.899256 29.9019 14.3677
400 1 2.71701 29.9179 15.6564
448 1 1.81095 31.4602 13.0615
6584 2 3.62884 31.4765 14.3479
6556 2 6.35549 29.9019 14.3677
411 1 4.53755 29.8861 13.0815
413 1 7.26718 31.4602 13.0615
398 1 5.44658 31.4929 15.6366
391 1 9.99379 29.8861 13.0815
388 1 8.17325 29.9179 15.6564
6554 2 9.08508 31.4765 14.3479
3519 1 10.9028 31.4929 15.6366
6579 2 0.902297 33.0508 14.327
399 1 2.72002 33.0676 15.6159
449 1 1.81427 34.6078 13.0184
6577 2 3.6321 34.6249 14.3053
401 1 5.44982 34.642 15.5942
402 1 7.27051 34.6078 13.0184
6555 2 6.35854 33.0508 14.327
404 1 4.54068 33.0341 13.0404
3517 1 10.9061 34.642 15.5942
6557 2 9.08833 34.6249 14.3053
390 1 9.99692 33.0341 13.0404
386 1 8.17626 33.0676 15.6159
6578 2 0.90576 36.1987 14.2826
397 1 2.72349 36.216 15.5715
7020 2 3.63577 37.7722 14.2591
855 1 1.81798 37.7546 12.9719
403 1 4.5442 36.1813 12.9956
6553 2 6.362 36.1987 14.2826
805 1 5.45352 37.7896 15.548
820 1 7.27422 37.7546 12.9719
385 1 8.17973 36.216 15.5715
387 1 10.0004 36.1813 12.9956
6977 2 9.092 37.7722 14.2591
3926 1 10.9098 37.7896 15.548
766 1 0.890595 20.4875 18.3269
768 1 3.61805 18.9095 18.3394
6922 2 4.52882 20.4748 17.039
743 1 6.34683 20.4875 18.3269
742 1 9.07429 18.9095 18.3394
6876 2 9.98506 20.4748 17.039
6936 2 1.80149 22.052 17.0254
765 1 0.892147 23.6429 18.2989
764 1 3.61945 22.0653 18.3134
6921 2 4.53049 23.6289 17.0108
739 1 6.34839 23.6429 18.2989
6920 2 7.25773 22.052 17.0254
744 1 9.07569 22.0653 18.3134
6875 2 9.98672 23.6289 17.0108
6932 2 1.80333 25.2056 16.9952
759 1 0.894045 26.7973 18.267
767 1 3.62117 25.2203 18.2834
6914 2 4.53251 26.782 16.9786
738 1 6.35028 26.7973 18.267
6923 2 7.25957 25.2056 16.9952
737 1 9.07741 25.2203 18.2834
6874 2 9.98874 26.782 16.9786
6933 2 1.80554 28.3582 16.961
758 1 0.896344 29.9505 18.2311
757 1 3.62326 28.3741 18.2495
6913 2 4.53492 29.9341 16.9424
727 1 6.35258 29.9505 18.2311
6912 2 7.26178 28.3582 16.961
740 1 9.0795 28.3741 18.2495
6867 2 9.99116 29.9341 16.9424
6928 2 1.80817 31.5096 16.9229
752 1 0.899103 33.1021 18.1914
760 1 3.62578 31.5265 18.2117
726 1 6.35534 33.1021 18.1914
6900 2 4.53778 33.0848 16.9024
6915 2 7.26441 31.5096 16.9229
725 1 9.08202 31.5265 18.2117
6866 2 9.99402 33.0848 16.9024
6929 2 1.81127 34.6596 16.8809
751 1 0.902383 36.252 18.1478
750 1 3.62879 34.6773 18.1701
709 1 6.35862 36.252 18.1478
6899 2 4.54113 36.234 16.8586
6898 2 7.26751 34.6596 16.8809
728 1 9.08503 34.6773 18.1701
6851 2 9.99737 36.234 16.8586
6918 2 2.70906 20.5 19.6114
762 1 1.79852 18.9334 20.9112
6906 2 0.889544 20.5255 22.1832
6916 2 3.61722 18.9453 22.1952
6917 2 5.43659 18.9213 19.6237
735 1 4.52716 20.5129 20.899
6870 2 6.34578 20.5255 22.1832
741 1 7.25476 18.9334 20.9112
6873 2 8.1653 20.5 19.6114
684 1 9.9834 20.5129 20.899
6869 2 9.07346 18.9453 22.1952
10198 2 10.8928 18.9213 19.6237
6910 2 2.71045 23.6568 19.5838
763 1 1.79962 22.0921 20.8858
6905 2 0.890597 23.6852 22.1562
6904 2 3.61816 22.1055 22.1702
6919 2 5.43784 22.0785 19.5981
734 1 4.52839 23.6711 20.8717
6862 2 6.34684 23.6852 22.1562
733 1 7.25586 22.0921 20.8858
6872 2 8.16669 23.6568 19.5838
683 1 9.98463 23.6711 20.8717
6871 2 9.0744 22.1055 22.1702
10194 2 10.8941 22.0785 19.5981
6909 2 2.71216 26.8126 19.5523
755 1 1.801 25.2498 20.8566
6892 2 0.891929 26.8437 22.1255
6907 2 3.61934 25.2646 22.1413
6908 2 5.43938 25.2348 19.5685
723 1 4.52994 26.8282 20.8405
6861 2 6.34817 26.8437 22.1255
736 1 7.25724 25.2498 20.8566
6865 2 8.1684 26.8126 19.5523
682 1 9.98618 26.8282 20.8405
6860 2 9.07558 25.2646 22.1413
10195 2 10.8956 25.2348 19.5685
6896 2 2.71426 29.967 19.5169
756 1 1.80273 28.4062 20.8235
6891 2 0.893609 30.0008 22.0911
6890 2 3.62084 28.4225 22.1088
6911 2 5.44128 28.39 19.5351
722 1 4.53186 29.9839 20.8056
6847 2 6.34985 30.0008 22.0911
721 1 7.25896 28.4062 20.8235
6864 2 8.1705 29.967 19.5169
675 1 9.9881 29.9839 20.8056
6863 2 9.07708 28.4225 22.1088
10190 2 10.8975 28.39 19.5351
6895 2 2.71681 33.1198 19.4777
748 1 1.80486 31.5611 20.7867
6884 2 0.895724 33.1562 22.0529
6893 2 3.62273 31.5788 22.0724
6894 2 5.44359 31.5436 19.4978
708 1 4.53423 33.1378 20.7668
6846 2 6.35196 33.1562 22.0529
724 1 7.2611 31.5611 20.7867
6850 2 8.17305 33.1198 19.4777
674 1 9.99047 33.1378 20.7668
6845 2 9.07896 31.5788 22.0724
10191 2 10.8998 31.5436 19.4978
6885 2 2.71989 36.2708 19.4348
749 1 1.8075 34.714 20.746
6883 2 0.898381 36.3093 22.011
6882 2 3.6251 34.7331 22.0324
6897 2 5.4464 34.6956 19.4567
707 1 4.53716 36.2896 20.7243
6829 2 6.35462 36.3093 22.011
706 1 7.26374 34.714 20.746
6849 2 8.17613 36.2708 19.4348
659 1 9.9934 36.2896 20.7243
6848 2 9.08134 34.7331 22.0324
10189 2 10.9026 34.6956 19.4567
731 1 2.70776 20.5385 23.4704
6902 2 1.79819 18.9695 24.7659
730 1 5.43552 18.9575 23.4823
6858 2 4.52658 20.5513 24.7542
6868 2 7.25443 18.9695 24.7659
681 1 8.16399 20.5385 23.4704
6804 2 9.98282 20.5513 24.7542
3833 1 10.8918 18.9575 23.4823
719 1 2.70863 23.6997 23.4438
6903 2 1.79878 22.1328 24.7415
732 1 5.43628 22.1192 23.4576
6857 2 4.52726 23.714 24.7279
6856 2 7.25502 22.1328 24.7415
680 1 8.16486 23.6997 23.4438
6803 2 9.9835 23.714 24.7279
3825 1 10.8925 22.1192 23.4576
718 1 2.70975 26.8597 23.4135
6888 2 1.79956 25.295 24.7134
717 1 5.43727 25.2799 23.4291
6843 2 4.52816 26.8756 24.6981
6859 2 7.2558 25.295 24.7134
673 1 8.16599 26.8597 23.4135
6802 2 9.98439 26.8756 24.6981
3826 1 10.8935 25.2799 23.4291
704 1 2.7112 30.0182 23.3795
6889 2 1.80059 28.4558 24.6818
720 1 5.43854 28.4392 23.397
6842 2 4.52934 30.0357 24.6646
6841 2 7.25683 28.4558 24.6818
672 1 8.16743 30.0182 23.3795
6795 2 9.98558 30.0357 24.6646
3818 1 10.8948 28.4392 23.397
692 1 0.892007 33.2134 25.9163
703 1 2.71306 33.1749 23.3419
6880 2 1.80195 31.6151 24.6465
654 1 6.34824 33.2134 25.9163
702 1 5.44019 31.5968 23.3612
6828 2 4.53091 33.1939 24.6276
6844 2 7.25819 31.6151 24.6465
658 1 8.1693 33.1749 23.3419
6794 2 9.98714 33.1939 24.6276
3819 1 10.8964 31.5968 23.3612
691 1 0.893749 36.3709 25.8763
693 1 2.71548 36.3292 23.3006
6881 2 1.80375 34.7722 24.6077
690 1 3.62093 34.7925 25.8968
638 1 6.34999 36.3709 25.8763
705 1 5.44231 34.7524 23.3217
6827 2 4.53298 36.3499 24.5869
6826 2 7.25999 34.7722 24.6077
3817 1 10.8986 34.7524 23.3217
6780 2 9.98922 36.3499 24.5869
656 1 9.07716 34.7925 25.8968
657 1 8.17171 36.3292 23.3006
715 1 0.888715 20.5644 26.041
729 1 3.61665 18.9819 26.0526
711 1 1.79823 19.0066 28.622
6854 2 2.70779 20.5774 27.3243
678 1 6.34495 20.5644 26.041
666 1 4.52636 20.5907 28.6107
6853 2 5.4358 18.9941 27.3358
676 1 7.25447 19.0066 28.622
677 1 9.07289 18.9819 26.0526
618 1 9.9826 20.5907 28.6107
6801 2 8.16403 20.5774 27.3243
10165 2 10.892 18.9941 27.3358
714 1 0.889189 23.7288 26.0151
713 1 3.61705 22.1467 26.0285
712 1 1.79827 22.1746 28.5985
6839 2 2.70807 23.7433 27.2988
670 1 6.34543 23.7288 26.0151
665 1 4.52643 23.7583 28.5855
6855 2 5.43603 22.1605 27.312
664 1 7.25451 22.1746 28.5985
679 1 9.07329 22.1467 26.0285
617 1 9.98267 23.7583 28.5855
6800 2 8.16431 23.7433 27.2988
10150 2 10.8923 22.1605 27.312
700 1 0.889843 26.8919 25.9857
716 1 3.61761 25.3105 26.0008
696 1 1.79838 25.3417 28.5716
6838 2 2.7085 26.9082 27.2697
669 1 6.34608 26.8919 25.9857
651 1 4.5266 26.9248 28.5568
6837 2 5.43639 25.3259 27.2847
667 1 7.25462 25.3417 28.5716
668 1 9.07385 25.3105 26.0008
616 1 9.98284 26.9248 28.5568
6793 2 8.16474 26.9082 27.2697
10151 2 10.8926 25.3259 27.2847
699 1 0.89075 30.0536 25.9527
698 1 3.61838 28.473 25.9696
697 1 1.79862 28.5076 28.5413
6824 2 2.70914 30.0715 27.2372
655 1 6.34699 30.0536 25.9527
650 1 4.52693 30.09 28.5249
6840 2 5.43691 28.4901 27.2539
649 1 7.25486 28.5076 28.5413
671 1 9.07462 28.473 25.9696
609 1 9.98317 30.09 28.5249
6792 2 8.16537 30.0715 27.2372
10142 2 10.8931 28.4901 27.2539
701 1 3.61945 31.6338 25.9349
688 1 1.79907 31.6719 28.5076
6823 2 2.71007 33.2331 27.2013
637 1 4.52751 33.2534 28.4896
6822 2 5.43768 31.6526 27.2197
652 1 7.2553 31.6719 28.5076
653 1 9.07568 31.6338 25.9349
608 1 9.98375 33.2534 28.4896
6779 2 8.16631 33.2331 27.2013
10143 2 10.8939 31.6526 27.2197
689 1 1.79982 34.8343 28.4707
6813 2 2.71144 36.3924 27.162
636 1 4.52847 36.4145 28.4511
6825 2 5.43881 34.8131 27.1821
635 1 7.25605 34.8343 28.4707
597 1 9.98471 36.4145 28.4511
6778 2 8.16768 36.3924 27.162
10141 2 10.895 34.8131 27.1821
662 1 2.70831 20.6173 31.1793
6831 2 1.80009 19.0439 32.4725
6835 2 0.889484 20.6038 29.8935
6852 2 3.61766 19.0189 29.9047
661 1 5.43658 19.0315 31.1904
6786 2 4.528 20.6306 32.4616
6798 2 6.34572 20.6038 29.8935
6796 2 7.25633 19.0439 32.4725
615 1 8.16454 20.6173 31.1793
6756 2 9.98424 20.6306 32.4616
6797 2 9.0739 19.0189 29.9047
3782 1 10.8928 19.0315 31.1904
647 1 2.70799 23.7883 31.1547
6832 2 1.79965 22.217 32.4498
6834 2 0.889384 23.7731 29.8685
6833 2 3.61755 22.1886 29.8814
663 1 5.43627 22.2029 31.1674
6785 2 4.52754 23.8033 32.4371
6790 2 6.34562 23.7731 29.8685
6784 2 7.25589 22.217 32.4498
614 1 8.16423 23.7883 31.1547
6755 2 9.98378 23.8033 32.4371
6799 2 9.07379 22.1886 29.8814
3766 1 10.8925 22.2029 31.1674
646 1 2.7077 26.9584 31.1268
6816 2 1.79918 25.3894 32.4237
6820 2 0.889343 26.9414 29.8402
6836 2 3.61747 25.3574 29.8548
645 1 5.43596 25.3735 31.1411
6772 2 4.52706 26.9752 32.4095
6789 2 6.34558 26.9414 29.8402
6787 2 7.25542 25.3894 32.4237
607 1 8.16393 26.9584 31.1268
6754 2 9.9833 26.9752 32.4095
6788 2 9.07371 25.3574 29.8548
3767 1 10.8922 25.3735 31.1411
633 1 2.70745 30.1272 31.0957
6817 2 1.7987 28.5607 32.3944
6819 2 0.889415 30.1084 29.8087
6818 2 3.61748 28.525 29.8249
648 1 5.43568 28.543 31.1116
6771 2 4.52659 30.146 32.3787
6776 2 6.34565 30.1084 29.8087
6770 2 7.25494 28.5607 32.3944
606 1 8.16369 30.1272 31.0957
6751 2 9.98283 30.146 32.3787
6791 2 9.07372 28.525 29.8249
3758 1 10.8919 28.543 31.1116
632 1 2.70734 33.2946 31.0615
6808 2 1.79827 31.7309 32.3621
6812 2 0.88968 33.2737 29.7739
6821 2 3.61764 31.6913 29.7917
631 1 5.4355 31.7111 31.079
6764 2 4.5262 33.3155 32.3448
6775 2 6.34592 33.2737 29.7739
6773 2 7.2545 31.7309 32.3621
596 1 8.16358 33.2946 31.0615
6750 2 9.98244 33.3155 32.3448
6774 2 9.07387 31.6913 29.7917
3759 1 10.8917 31.7111 31.079
624 1 2.70746 36.46 31.0242
6809 2 1.79795 34.8996 32.3268
6811 2 0.890256 36.437 29.7359
6810 2 3.61804 34.8556 29.7553
634 1 5.43548 34.8776 31.0432
6763 2 4.52598 36.4832 32.308
6765 2 6.34649 36.437 29.7359
6762 2 7.25418 34.8996 32.3268
595 1 8.1637 36.46 31.0242
6747 2 9.98222 36.4832 32.308
6777 2 9.07428 34.8556 29.7553
3757 1 10.8917 34.8776 31.0432
643 1 0.890869 20.6442 33.7468
6782 2 2.71092 20.6576 35.0285
660 1 3.61929 19.0567 33.7577
612 1 6.34711 20.6442 33.7468
6781 2 5.43939 19.0692 35.0393
611 1 9.07552 19.0567 33.7577
6753 2 8.16716 20.6576 35.0285
10094 2 10.8956 19.0692 35.0393
642 1 0.890214 23.8187 33.7227
6768 2 2.71015 23.8339 35.0044
641 1 3.61867 22.2315 33.7352
604 1 6.34645 23.8187 33.7227
6783 2 5.43867 22.2458 35.0169
613 1 9.07491 22.2315 33.7352
6752 2 8.16639 23.8339 35.0044
10078 2 10.8949 22.2458 35.0169
644 1 3.61798 25.4057 33.7094
629 1 0.889492 26.9924 33.6953
6767 2 2.70929 27.0095 34.9772
6766 2 5.43785 25.4218 34.9912
603 1 6.34573 26.9924 33.6953
6749 2 8.16553 27.0095 34.9772
602 1 9.07422 25.4057 33.7094
10079 2 10.8941 25.4218 34.9912
627 1 3.61723 28.579 33.6805
6760 2 2.70836 30.1844 34.947
628 1 0.888728 30.1653 33.6649
6769 2 5.43695 28.597 34.9625
593 1 6.34497 30.1653 33.6649
6748 2 8.1646 30.1844 34.947
605 1 9.07347 28.579 33.6805
10070 2 10.8932 28.597 34.9625
630 1 3.61646 31.7513 33.6486
6759 2 2.70738 33.3582 34.9138
623 1 0.887967 33.3369 33.6316
6758 2 5.43599 31.7714 34.9308
592 1 6.34421 33.3369 33.6316
6746 2 8.16362 33.3582 34.9138
591 1 9.0727 31.7513 33.6486
10071 2 10.8922 31.7714 34.9308
621 1 3.61573 34.9222 33.6138
6757 2 2.70643 36.5308 34.8779
622 1 0.887282 36.5071 33.5954
6761 2 5.43502 34.9447 34.8962
586 1 6.34352 36.5071 33.5954
6745 2 8.16267 36.5308 34.8779
594 1 9.07197 34.9222 33.6138
10069 2 10.8913 34.9447 34.8962
6958 2 0.894552 20.6848 37.5942
13217 1 2.71434 20.6986 38.8782
639 1 1.80265 19.0821 36.3239
6960 2 3.62312 19.0947 37.6049
6947 2 6.35079 20.6848 37.5942
13216 1 5.44297 19.1076 38.8888
600 1 4.53036 20.6713 36.3132
610 1 7.25889 19.0821 36.3239
6946 2 9.07936 19.0947 37.6049
13182 1 8.17058 20.6986 38.8782
582 1 9.98659 20.6713 36.3132
16044 1 10.8992 19.1076 38.8888
6957 2 0.893539 23.8647 37.5703
13213 1 2.71319 23.8804 38.8545
640 1 1.80178 22.2604 36.3016
6956 2 3.62218 22.2748 37.5826
6944 2 6.34978 23.8647 37.5703
13218 1 5.44191 22.2895 38.8667
599 1 4.52942 23.8494 36.2893
598 1 7.25802 22.2604 36.3016
6948 2 9.07842 22.2748 37.5826
13181 1 8.16943 23.8804 38.8545
581 1 9.98566 23.8494 36.2893
16042 1 10.8981 22.2895 38.8667
6954 2 0.892377 27.0442 37.5434
13212 1 2.71185 27.0619 38.8277
625 1 1.80078 25.4383 36.2762
6959 2 3.6211 25.4545 37.5572
6943 2 6.34862 27.0442 37.5434
13211 1 5.44066 25.4712 38.8415
589 1 4.52834 27.027 36.2623
601 1 7.25702 25.4383 36.2762
6942 2 9.07733 25.4545 37.5572
13176 1 8.16809 27.0619 38.8277
580 1 9.98458 27.027 36.2623
16043 1 10.8969 25.4712 38.8415
6953 2 0.891071 30.2232 37.5135
13202 1 2.71033 30.243 38.7979
626 1 1.79964 28.6155 36.2477
6952 2 3.61986 28.6338 37.5288
6940 2 6.34731 30.2232 37.5135
13214 1 5.43924 28.6525 38.8132
588 1 4.52714 30.2039 36.2324
587 1 7.25588 28.6155 36.2477
6945 2 9.0761 28.6338 37.5288
13175 1 8.16657 30.243 38.7979
579 1 9.98338 30.2039 36.2324
16040 1 10.8955 28.6525 38.8132
6951 2 0.889636 33.4017 37.4807
13201 1 2.70862 33.4239 38.7654
619 1 1.79838 31.7921 36.2163
6955 2 3.61849 31.8125 37.4974
6939 2 6.34587 33.4017 37.4807
13200 1 5.43762 31.8335 38.782
585 1 4.52583 33.3801 36.1996
590 1 7.25462 31.7921 36.2163
6938 2 9.07473 31.8125 37.4974
13162 1 8.16486 33.4239 38.7654
578 1 9.98207 33.3801 36.1996
16041 1 10.8939 31.8335 38.782
6950 2 0.888098 36.5794 37.4452
13191 1 2.70673 36.6044 38.7302
620 1 1.79703 34.9678 36.1822
6949 2 3.617 34.9906 37.4633
6937 2 6.34434 36.5794 37.4452
13203 1 5.43582 35.0142 38.7481
584 1 4.52445 36.5553 36.1641
583 1 7.25327 34.9678 36.1822
6941 2 9.07323 34.9906 37.4633
13161 1 8.16297 36.6044 38.7302
577 1 9.98069 36.5553 36.1641
16039 1 10.8921 35.0142 38.7481
18839 2 1.80758 19.1204 40.1692
13209 1 0.89909 20.7261 41.4419
13215 1 3.62778 19.1334 41.4526
18826 2 4.53517 20.7122 40.1585
13179 1 6.35533 20.7261 41.4419
18828 2 7.26381 19.1204 40.1692
13178 1 9.08401 19.1334 41.4526
18780 2 9.99141 20.7122 40.1585
18840 2 1.80648 22.3041 40.1471
13208 1 0.897806 23.9116 41.4182
13207 1 3.62659 22.3189 41.4305
18825 2 4.53399 23.8958 40.1348
13173 1 6.35404 23.9116 41.4182
18824 2 7.26272 22.3041 40.1471
13180 1 9.08283 22.3189 41.4305
18779 2 9.99023 23.8958 40.1348
18836 2 1.80521 25.4875 40.1217
13198 1 0.896312 27.097 41.3913
13210 1 3.62521 25.5043 41.4052
18818 2 4.53262 27.0792 40.1079
13172 1 6.35255 27.097 41.3913
18827 2 7.26145 25.4875 40.1217
13171 1 9.08144 25.5043 41.4052
18778 2 9.98886 27.0792 40.1079
18837 2 1.80374 28.6709 40.0933
13197 1 0.894598 30.2824 41.3615
13196 1 3.6236 28.6897 41.3768
18817 2 4.53106 30.2625 40.078
13159 1 6.35084 30.2824 41.3615
18816 2 7.25998 28.6709 40.0933
13174 1 9.07984 28.6897 41.3768
18771 2 9.9873 30.2625 40.078
18832 2 1.80209 31.854 40.062
13190 1 0.892653 33.468 41.3288
13199 1 3.62177 31.8752 41.3455
13158 1 6.34889 33.468 41.3288
18804 2 4.52931 33.4456 40.0453
18819 2 7.25833 31.854 40.062
13157 1 9.07801 31.8752 41.3455
18770 2 9.98555 33.4456 40.0453
18833 2 1.80025 35.0371 40.0279
13189 1 0.890467 36.6538 41.2934
18789 2 2.71188 36.678 42.5716
13188 1 3.61971 35.0608 41.3114
13141 1 6.34671 36.6538 41.2934
18801 2 5.44108 35.0838 42.5899
18803 2 4.52739 36.6286 40.0098
18802 2 7.25649 35.0371 40.0279
13160 1 9.07595 35.0608 41.3114
18753 2 8.16812 36.678 42.5716
18755 2 9.98363 36.6286 40.0098
21649 2 10.8973 35.0838 42.5899
18822 2 2.72032 20.7399 42.7216
13205 1 1.81333 19.1593 44.0151
18810 2 0.906241 20.7676 45.2834
18820 2 3.63494 19.1722 45.2942
18821 2 5.44901 19.1462 42.7323
13169 1 4.54086 20.7538 44.0043
18774 2 6.36248 20.7676 45.2834
13177 1 7.26957 19.1593 44.0151
18777 2 8.17656 20.7399 42.7216
13116 1 9.99709 20.7538 44.0043
18773 2 9.09118 19.1722 45.2942
21658 2 10.9052 19.1462 42.7323
18814 2 2.71904 23.9271 42.6978
13206 1 1.81209 22.3484 43.9928
18809 2 0.90494 23.9585 45.2593
18808 2 3.63373 22.363 45.2718
18823 2 5.44783 22.3335 42.7101
13168 1 4.53952 23.943 43.9805
18766 2 6.36118 23.9585 45.2593
13167 1 7.26833 22.3484 43.9928
18776 2 8.17528 23.9271 42.6978
13115 1 9.99575 23.943 43.9805
18775 2 9.08997 22.363 45.2718
21654 2 10.9041 22.3335 42.7101
18813 2 2.71756 27.1144 42.6707
13194 1 1.81065 25.5376 43.9673
18796 2 0.903445 27.1498 45.2319
18811 2 3.63234 25.5541 45.246
18812 2 5.44645 25.5208 42.6846
13155 1 4.53796 27.1323 43.9533
18765 2 6.35968 27.1498 45.2319
13170 1 7.26689 25.5376 43.9673
18769 2 8.1738 27.1144 42.6707
13114 1 9.9942 27.1323 43.9533
18764 2 9.08857 25.5541 45.246
21655 2 10.9027 25.5208 42.6846
18800 2 2.71588 30.3019 42.6406
13195 1 1.80899 28.7271 43.9386
18795 2 0.901754 30.3414 45.2013
18794 2 3.63074 28.7455 45.217
18815 2 5.44487 28.7081 42.6561
13154 1 4.53619 30.3219 43.9231
18751 2 6.35799 30.3414 45.2013
13153 1 7.26522 28.7271 43.9386
18768 2 8.17212 30.3019 42.6406
13107 1 9.99243 30.3219 43.9231
18767 2 9.08698 28.7455 45.217
21650 2 10.9011 28.7081 42.6561
18799 2 2.71399 33.4897 42.6076
13186 1 1.80709 31.917 43.9069
18788 2 0.899865 33.5338 45.1676
18797 2 3.62895 31.9375 45.1848
18798 2 5.44308 31.8958 42.6245
13140 1 4.53418 33.5122 43.8899
18750 2 6.3561 33.5338 45.1676
13156 1 7.26333 31.917 43.9069
18754 2 8.17023 33.4897 42.6076
13106 1 9.99042 33.5122 43.8899
18749 2 9.08519 31.9375 45.1848
21651 2 10.8993 31.8958 42.6245
13187 1 1.80496 35.1076 43.8722
18787 2 0.897784 36.7271 45.1307
18786 2 3.62697 35.1303 45.1495
13139 1 4.53192 36.7033 43.8538
18734 2 6.35402 36.7271 45.1307
13138 1 7.2612 35.1076 43.8722
13091 1 9.98816 36.7033 43.8538
18752 2 9.08321 35.1303 45.1495
13147 1 0.914191 20.8095 49.1254
13165 1 2.72715 20.7816 46.5655
18806 2 1.8216 19.1982 47.8548
13110 1 6.37043 20.8095 49.1254
13163 1 3.64288 19.2114 49.1364
13164 1 5.45586 19.1853 46.5763
18762 2 4.54915 20.7954 47.8439
13109 1 9.09911 19.2114 49.1364
13113 1 8.18339 20.7816 46.5655
18714 2 10.0054 20.7954 47.8439
18772 2 7.27784 19.1982 47.8548
16024 1 10.9121 19.1853 46.5763
13146 1 0.912936 24.006 49.1007
13151 1 2.72583 23.9744 46.5413
18807 2 1.82042 22.3927 47.8321
13102 1 6.36917 24.006 49.1007
13145 1 3.6417 22.4077 49.1135
13166 1 5.45463 22.378 46.5538
18761 2 4.54789 23.99 47.8194
13111 1 9.09794 22.4077 49.1135
13112 1 8.18206 23.9744 46.5413
18713 2 10.0041 23.99 47.8194
18760 2 7.27666 22.3927 47.8321
16012 1 10.9109 22.378 46.5538
13132 1 0.911516 27.203 49.0725
13150 1 2.72431 27.1676 46.5137
18792 2 1.81907 25.5875 47.8059
13101 1 6.36775 27.203 49.0725
13148 1 3.64037 25.6044 49.0871
13149 1 5.45321 25.571 46.5279
18747 2 4.54646 27.1851 47.7915
13100 1 9.0966 25.6044 49.0871
13105 1 8.18054 27.1676 46.5137
18712 2 10.0027 27.1851 47.7915
18763 2 7.27531 25.5875 47.8059
16013 1 10.9094 25.571 46.5279
13131 1 0.909937 30.4008 49.0409
13136 1 2.72258 30.3615 46.4829
18793 2 1.81756 28.7828 47.7763
13087 1 6.36618 30.4008 49.0409
13130 1 3.63887 28.8018 49.0571
13152 1 5.45159 28.7645 46.4987
18746 2 4.54485 30.3808 47.7602
18745 2 7.2738 28.7828 47.7763
13103 1 9.0951 28.8018 49.0571
13104 1 8.17882 30.3615 46.4829
18705 2 10.0011 30.3808 47.7602
16004 1 10.9078 28.7645 46.4987
13124 1 0.908204 33.5999 49.0057
13135 1 2.72066 33.5562 46.4488
18784 2 1.81587 31.979 47.7433
13133 1 3.63721 32.0002 49.0237
13086 1 6.36444 33.5999 49.0057
13134 1 5.44976 31.9587 46.4662
18733 2 4.54309 33.5776 47.7255
18748 2 7.27211 31.979 47.7433
13085 1 9.09345 32.0002 49.0237
13090 1 8.17689 33.5562 46.4488
18704 2 9.99933 33.5776 47.7255
16005 1 10.906 31.9587 46.4662
13123 1 0.906329 36.8008 48.967
13125 1 2.71852 36.7524 46.4115
18785 2 1.81404 35.1764 47.7068
13122 1 3.6354 35.2001 48.9868
13072 1 6.36257 36.8008 48.967
13137 1 5.44773 35.1541 46.4306
18732 2 4.54118 36.7758 47.6873
18731 2 7.27028 35.1764 47.7068
13088 1 9.09164 35.2001 48.9868
13089 1 8.17476 36.7524 46.4115
18693 2 9.99742 36.7758 47.6873
16003 1 10.904 35.1541 46.4306
13143 1 1.83058 19.2376 51.6953
18758 2 2.73655 20.8233 50.4032
18805 2 0.00896307 19.2244 50.4143
13098 1 4.55817 20.8374 51.684
18757 2 5.4652 19.2244 50.4143
13056 1 10.0144 20.8374 51.684
13108 1 7.28682 19.2376 51.6953
18711 2 8.19278 20.8233 50.4032
13144 1 1.8295 22.4374 51.6719
18743 2 2.73537 24.0215 50.3782
18790 2 0.00785477 22.4224 50.3911
13097 1 4.55702 24.0375 51.6589
18759 2 5.46409 22.4224 50.3911
13055 1 10.0133 24.0375 51.6589
13096 1 7.28573 22.4374 51.6719
18710 2 8.1916 24.0215 50.3782
13128 1 1.82828 25.6377 51.6449
18742 2 2.73405 27.2203 50.3496
18791 2 0.00660501 25.6208 50.3644
13083 1 4.55575 27.2382 51.63
18741 2 5.46284 25.6208 50.3644
13054 1 10.012 27.2382 51.63
13099 1 7.28452 25.6377 51.6449
18703 2 8.19029 27.2203 50.3496
13129 1 1.82696 28.8389 51.6141
18729 2 2.73261 30.42 50.3174
18782 2 0.00522385 28.82 50.334
13082 1 4.55437 30.4399 51.5973
18744 2 5.46146 28.82 50.334
13048 1 10.0106 30.4399 51.5973
13081 1 7.2832 28.8389 51.6141
18702 2 8.18885 30.42 50.3174
13120 1 1.82553 32.0413 51.5796
18728 2 2.73105 33.6209 50.2816
18783 2 0.00372439 32.0203 50.3
13071 1 4.5529 33.643 51.5609
18727 2 5.45996 32.0203 50.3
13047 1 10.0091 33.643 51.5609
13084 1 7.28177 32.0413 51.5796
18692 2 8.18729 33.6209 50.2816
13121 1 1.82402 35.2453 51.5412
18720 2 2.72941 36.8236 50.2419
18781 2 0.0021235 35.222 50.2622
13070 1 4.55136 36.8482 51.5206
18730 2 5.45836 35.222 50.2622
13040 1 10.0076 36.8482 51.5206
13069 1 7.28025 35.2453 51.5412
18691 2 8.18565 36.8236 50.2419
13094 1 2.74657 20.8654 54.2416
13142 1 0.0189313 19.2638 54.253
18735 2 1.84189 19.2767 55.5298
18739 2 0.924619 20.8512 52.9613
13093 1 5.47517 19.2638 54.253
18696 2 4.56956 20.8791 55.5183
18708 2 6.38086 20.8512 52.9613
18756 2 3.65323 19.2505 52.9726
13053 1 8.20281 20.8654 54.2416
18678 2 10.0258 20.8791 55.5183
18706 2 7.29813 19.2767 55.5298
18707 2 9.10947 19.2505 52.9726
13079 1 2.74555 24.0689 54.2158
13126 1 0.017953 22.4671 54.2292
18736 2 1.84097 22.4817 55.5057
18738 2 0.923546 24.053 52.9358
13095 1 5.47419 22.4671 54.2292
18695 2 4.5686 24.0844 55.4922
18700 2 6.37978 24.053 52.9358
18737 2 3.65222 22.452 52.949
13052 1 8.20179 24.0689 54.2158
18677 2 10.0248 24.0844 55.4922
18694 2 7.29721 22.4817 55.5057
18709 2 9.10845 22.452 52.949
13078 1 2.74444 27.2733 54.1862
13127 1 0.0168854 25.671 54.2015
18721 2 1.83997 25.6872 55.4777
18725 2 0.922376 27.2554 52.9065
13077 1 5.47312 25.671 54.2015
18685 2 4.56758 27.2903 55.4621
18699 2 6.37861 27.2554 52.9065
18740 2 3.65109 25.6541 52.9216
13046 1 8.20068 27.2733 54.1862
18676 2 10.0238 27.2903 55.4621
18697 2 7.29621 25.6872 55.4777
18698 2 9.10733 25.6541 52.9216
13067 1 2.74328 30.4786 54.1525
13118 1 0.0157493 28.8758 54.1698
18722 2 1.83893 28.8937 55.4456
18724 2 0.921127 30.4589 52.8733
13080 1 5.47199 28.8758 54.1698
18684 2 4.56652 30.4973 55.4279
18689 2 6.37737 30.4589 52.8733
18723 2 3.64988 28.857 52.8904
13045 1 8.19952 30.4786 54.1525
18675 2 10.0228 30.4973 55.4279
18683 2 7.29517 28.8937 55.4456
18701 2 9.10612 28.857 52.8904
13066 1 2.74209 33.6855 54.1148
13119 1 0.0145671 32.0819 54.1342
18715 2 1.83787 32.1013 55.4093
18719 2 0.919818 33.6637 52.8361
18726 2 3.6486 32.0611 52.8552
18688 2 6.37606 33.6637 52.8361
13065 1 5.47081 32.0819 54.1342
18681 2 4.56545 33.7057 55.3895
18687 2 9.10484 32.0611 52.8552
18686 2 7.2941 32.1013 55.4093
18674 2 10.0217 33.7057 55.3895
13039 1 8.19832 33.6855 54.1148
18718 2 0.918469 36.8703 52.7949
18716 2 1.83679 35.3105 55.3687
13117 1 0.0133613 35.2897 54.0943
13060 1 2.74087 36.8944 54.0727
18717 2 3.64727 35.2667 52.816
18682 2 6.37471 36.8703 52.7949
18680 2 4.56437 36.9159 55.3467
13068 1 5.4696 35.2897 54.0943
18690 2 9.10351 35.2667 52.816
18679 2 7.29303 35.3105 55.3687
18673 2 10.0206 36.9159 55.3467
13038 1 8.19711 36.8944 54.0727
19025 2 2.75884 20.9069 58.0743
19032 2 0.0311299 19.3028 58.0861
13075 1 0.935578 20.8932 56.7981
19024 2 5.48737 19.3028 58.0861
13050 1 6.39182 20.8932 56.7981
13092 1 3.66413 19.2899 56.8098
18990 2 8.21508 20.9069 58.0743
13049 1 9.12037 19.2899 56.8098
19021 2 2.75797 24.1156 58.0476
19030 2 0.030291 22.5112 58.0615
13074 1 0.93467 24.1003 56.7717
19026 2 5.48653 22.5112 58.0615
13043 1 6.39091 24.1003 56.7717
13073 1 3.66325 22.4967 56.7854
18989 2 8.21421 24.1156 58.0476
13051 1 9.11949 22.4967 56.7854
19020 2 2.75708 27.325 58.0168
19031 2 0.0294099 25.7202 58.0327
13063 1 0.933723 27.3081 56.7413
19019 2 5.48565 25.7202 58.0327
13042 1 6.38996 27.3081 56.7413
13076 1 3.66232 25.704 56.757
18984 2 8.21332 27.325 58.0168
13041 1 9.11856 25.704 56.757
19010 2 2.75619 30.5353 57.9817
19028 2 0.0285139 28.93 57.9998
13062 1 0.932763 30.5169 56.7066
13369 1 4.57893 30.5547 59.2599
19022 2 5.48475 28.93 57.9998
13036 1 6.389 30.5169 56.7066
13061 1 3.66136 28.9123 56.7245
13323 1 10.0352 30.5547 59.2599
18983 2 8.21242 30.5353 57.9817
13044 1 9.1176 28.9123 56.7245
13384 1 1.85042 32.1612 59.2404
19009 2 2.7553 33.747 57.9421
19029 2 0.0276242 32.141 57.9624
13059 1 0.931815 33.7272 56.6676
13356 1 4.57816 33.768 59.2198
19008 2 5.48386 32.141 57.9624
13035 1 6.38805 33.7272 56.6676
13064 1 3.66041 32.1218 56.6877
13322 1 10.0344 33.768 59.2198
13371 1 7.30666 32.1612 59.2404
18970 2 8.21154 33.747 57.9421
13034 1 9.11664 32.1218 56.6877
13385 1 1.84968 35.3753 59.1979
18999 2 2.75444 36.9603 57.8979
19027 2 0.0267508 35.3534 57.9206
13058 1 0.930891 36.9393 56.624
13355 1 4.57744 36.983 59.1748
19011 2 5.48299 35.3534 57.9206
13033 1 6.38713 36.9393 56.624
13057 1 3.65947 35.333 56.6464
13307 1 10.0337 36.983 59.1748
13354 1 7.30592 35.3753 59.1979
18969 2 8.21067 36.9603 57.8979
13037 1 9.11571 35.333 56.6464
13391 1 1.85365 19.316 59.3656
13374 1 2.77142 20.9487 61.9084
13390 1 0.043673 19.3421 61.9205
19017 2 0.948644 20.9346 60.6293
13378 1 4.58137 20.921 59.3537
13373 1 5.49991 19.3421 61.9205
18987 2 6.40488 20.9346 60.6293
19023 2 3.67715 19.3288 60.6413
13332 1 10.0376 20.921 59.3537
13380 1 7.30988 19.316 59.3656
13329 1 8.22765 20.9487 61.9084
18986 2 9.13339 19.3288 60.6413
13392 1 1.85284 22.5262 59.3407
13366 1 2.77065 24.1625 61.881
13386 1 0.0429128 22.5555 61.8953
19016 2 0.947844 24.1466 60.6021
13377 1 4.58055 24.1314 59.3267
13375 1 5.49915 22.5555 61.8953
18981 2 6.40408 24.1466 60.6021
19015 2 3.67637 22.5405 60.6162
13331 1 10.0368 24.1314 59.3267
13376 1 7.30908 22.5262 59.3407
13328 1 8.22689 24.1625 61.881
18988 2 9.1326 22.5405 60.6162
13388 1 1.85202 25.7369 59.3117
13365 1 2.76989 27.3768 61.8492
13387 1 0.0421457 25.7695 61.8657
19006 2 0.947037 27.3593 60.5706
13370 1 4.57973 27.3426 59.2956
13364 1 5.49838 25.7695 61.8657
18980 2 6.40328 27.3593 60.5706
19018 2 3.67556 25.7529 60.5869
13330 1 10.036 27.3426 59.2956
13379 1 7.30826 25.7369 59.3117
13321 1 8.22613 27.3768 61.8492
18979 2 9.1318 25.7529 60.5869
13389 1 1.8512 28.9485 59.2783
13352 1 2.76917 30.592 61.8128
13382 1 0.0414061 28.9843 61.8316
19005 2 0.946248 30.5729 60.5347
13367 1 5.49764 28.9843 61.8316
18967 2 6.40249 30.5729 60.5347
19004 2 3.67476 28.966 60.5532
13368 1 7.30744 28.9485 59.2783
13320 1 8.22541 30.592 61.8128
18982 2 9.131 28.966 60.5532
13351 1 2.76851 33.8081 61.7716
13383 1 0.0407167 32.1999 61.7928
18998 2 0.945488 33.7875 60.4941
13350 1 5.49696 32.1999 61.7928
18966 2 6.40173 33.7875 60.4941
19007 2 3.67398 32.18 60.5149
13306 1 8.22475 33.8081 61.7716
18965 2 9.13022 32.18 60.5149
13341 1 2.76788 37.0255 61.7256
13381 1 0.0400728 35.4167 61.7492
18997 2 0.944741 37.0035 60.4487
13353 1 5.49631 35.4167 61.7492
18949 2 6.40098 37.0035 60.4487
18996 2 3.67323 35.3953 60.472
13305 1 8.22412 37.0255 61.7256
18968 2 9.12947 35.3953 60.472
13362 1 0.961876 20.9764 64.4627
18973 2 2.78589 20.9893 65.7363
19012 2 0.0581701 19.3801 65.7487
19013 2 1.86743 19.3546 63.1956
13326 1 6.41811 20.9764 64.4627
13372 1 3.69038 19.3681 64.475
18972 2 5.51441 19.3801 65.7487
18977 2 4.59517 20.9621 63.1834
13325 1 9.14662 19.3681 64.475
18921 2 8.24213 20.9893 65.7363
18924 2 10.0514 20.9621 63.1834
18985 2 7.32367 19.3546 63.1956
13361 1 0.9611 24.1934 64.4349
18959 2 2.78507 24.2079 65.7083
19000 2 0.0573644 22.5985 65.7229
19014 2 1.86666 22.5697 63.1701
13318 1 6.41734 24.1934 64.4349
13360 1 3.68961 22.5849 64.4494
18974 2 5.5136 22.5985 65.7229
18976 2 4.59439 24.1774 63.1557
13327 1 9.14585 22.5849 64.4494
18920 2 8.24131 24.2079 65.7083
18923 2 10.0506 24.1774 63.1557
18975 2 7.3229 22.5697 63.1701
13348 1 0.960337 27.4109 64.4026
18958 2 2.78424 27.4269 65.6758
19001 2 0.0565372 25.8173 65.6926
19002 2 1.86588 25.7853 63.1403
13317 1 6.41658 27.4109 64.4026
13363 1 3.68883 25.8021 64.4193
18957 2 5.51278 25.8173 65.6926
18963 2 4.59361 27.3933 63.1237
13316 1 9.14507 25.8021 64.4193
18913 2 8.24048 27.4269 65.6758
18922 2 10.0498 27.3933 63.1237
18978 2 7.32211 25.7853 63.1403
13347 1 0.959617 30.629 64.3656
18944 2 2.78344 30.6465 65.6387
18992 2 0.0557193 29.0367 65.6578
19003 2 1.86511 29.0015 63.1059
13303 1 6.41586 30.629 64.3656
13346 1 3.68809 29.0199 64.3846
18960 2 5.51196 29.0367 65.6578
18962 2 4.59285 30.6099 63.087
13319 1 9.14433 29.0199 64.3846
18912 2 8.23968 30.6465 65.6387
18915 2 10.0491 30.6099 63.087
18961 2 7.32134 29.0015 63.1059
13340 1 0.958956 33.8477 64.3237
18943 2 2.78266 33.8666 65.5967
18993 2 0.0549303 32.2565 65.6183
18994 2 1.86437 32.2185 63.0669
13302 1 6.41519 33.8477 64.3237
13349 1 3.68739 32.2383 64.3453
18942 2 5.51117 32.2565 65.6183
18948 2 4.59213 33.8273 63.0456
13301 1 9.14363 32.2383 64.3453
18898 2 8.2389 33.8666 65.5967
18914 2 10.0484 33.8273 63.0456
18964 2 7.32061 32.2185 63.0669
13339 1 0.958299 37.0673 64.277
18933 2 2.78188 37.0872 65.55
18991 2 0.0541659 35.4768 65.5739
18995 2 1.86365 35.4364 63.0231
13286 1 6.41454 37.0673 64.277
13338 1 3.68673 35.4574 64.3009
18945 2 5.5104 35.4768 65.5739
18947 2 4.59141 37.0458 62.9994
13304 1 9.14297 35.4574 64.3009
18897 2 8.23812 37.0872 65.55
18899 2 10.0476 37.0458 62.9994
18946 2 7.31989 35.4364 63.0231
13358 1 1.88111 19.3948 67.0299
18955 2 0.976918 21.0159 68.2873
13314 1 4.60881 21.0047 67.0175
18918 2 6.43316 21.0159 68.2873
18971 2 3.70547 19.4051 68.2998
13266 1 10.0651 21.0047 67.0175
13324 1 7.33735 19.3948 67.0299
18917 2 9.16171 19.4051 68.2998
13359 1 1.88027 22.6148 67.004
18954 2 0.976009 24.2377 68.2591
13313 1 4.60796 24.2249 66.9893
18910 2 6.43225 24.2377 68.2591
18953 2 3.70459 22.6267 68.2737
13265 1 10.0642 24.2249 66.9893
13312 1 7.33651 22.6148 67.004
18919 2 9.16083 22.6267 68.2737
13344 1 1.87941 25.8352 66.9736
18940 2 0.975075 27.4599 68.2263
13299 1 4.6071 27.4455 66.9567
18909 2 6.43131 27.4599 68.2263
18956 2 3.70366 25.8488 68.2432
13264 1 10.0633 27.4455 66.9567
13315 1 7.33565 25.8352 66.9736
18908 2 9.1599 25.8488 68.2432
13345 1 1.87856 29.0559 66.9386
18939 2 0.97414 30.6825 68.1888
13298 1 4.60626 30.6664 66.9193
18895 2 6.43038 30.6825 68.1888
18938 2 3.70273 29.0712 68.2082
13257 1 10.0625 30.6664 66.9193
13297 1 7.33479 29.0559 66.9386
18911 2 9.15896 29.0712 68.2082
13336 1 1.87773 32.277 66.8988
18932 2 0.973207 33.9053 68.1466
13285 1 4.60544 33.8876 66.8771
18894 2 6.42945 33.9053 68.1466
18941 2 3.70179 32.2938 68.1683
13256 1 10.0617 33.8876 66.8771
13300 1 7.33397 32.277 66.8988
18893 2 9.15803 32.2938 68.1683
13337 1 1.87691 35.4983 66.8542
18931 2 0.972241 37.1282 68.0996
13284 1 4.60472 37.1086 66.83
18880 2 6.42848 37.1282 68.0996
18930 2 3.70085 35.5167 68.1237
13245 1 10.061 37.1086 66.83
13283 1 7.33315 35.4983 66.8542
18896 2 9.15709 35.5167 68.1237
13291 1 0.984367 21.059 72.1521
13310 1 2.79898 21.0316 69.5765
13357 1 0.0713281 19.4201 69.589
18951 2 1.89654 19.4283 70.8462
13260 1 6.44061 21.059 72.1521
13308 1 3.71304 19.4458 72.1647
13309 1 5.52757 19.4201 69.589
18906 2 4.62417 21.0408 70.8337
13259 1 9.16928 19.4458 72.1647
13263 1 8.25522 21.0316 69.5765
18864 2 10.0804 21.0408 70.8337
18916 2 7.35278 19.4283 70.8462
13290 1 0.983197 24.2855 72.1236
13295 1 2.79801 24.255 69.5481
13342 1 0.0703796 22.6433 69.5629
18952 2 1.89555 22.6533 70.82
13252 1 6.43944 24.2855 72.1236
13289 1 3.71191 22.6722 72.1384
13311 1 5.52662 22.6433 69.5629
18905 2 4.62314 24.2659 70.8053
13261 1 9.16815 22.6722 72.1384
13262 1 8.25424 24.255 69.5481
18863 2 10.0794 24.2659 70.8053
18904 2 7.35178 22.6533 70.82
13277 1 0.981983 27.5121 72.0906
13294 1 2.79701 27.4786 69.5152
13343 1 0.0693881 25.8668 69.5322
18936 2 1.89449 25.8785 70.7894
13251 1 6.43822 27.5121 72.0906
13292 1 3.71071 25.8988 72.1077
13293 1 5.52563 25.8668 69.5322
18891 2 4.62207 27.4913 70.7723
13250 1 9.16695 25.8988 72.1077
13255 1 8.25325 27.4786 69.5152
18862 2 10.0783 27.4913 70.7723
18907 2 7.35073 25.8785 70.7894
13276 1 0.980773 30.7386 72.0528
13281 1 2.79602 30.7024 69.4776
13334 1 0.0683908 29.0905 69.497
18937 2 1.89341 29.1041 70.7541
13241 1 6.43701 30.7386 72.0528
13275 1 3.70949 29.1254 72.0723
13296 1 5.52463 29.0905 69.497
18890 2 4.62098 30.717 70.7347
13253 1 9.16573 29.1254 72.0723
13254 1 8.25226 30.7024 69.4776
18856 2 10.0772 30.717 70.7347
18889 2 7.34965 29.1041 70.7541
13271 1 0.979599 33.9648 72.0103
13280 1 2.79505 33.9261 69.4351
13335 1 0.0674115 32.3143 69.457
18928 2 1.89232 32.3298 70.7141
13240 1 6.43584 33.9648 72.0103
13278 1 3.7083 32.3518 72.0322
13279 1 5.52365 32.3143 69.457
18879 2 4.6199 33.9426 70.6924
13239 1 9.16454 32.3518 72.0322
13244 1 8.25129 33.9261 69.4351
18855 2 10.0761 33.9426 70.6924
18892 2 7.34856 32.3298 70.7141
13270 1 0.978457 37.1904 71.9631
13272 1 2.79407 37.1497 69.3879
13333 1 0.0664444 35.5379 69.4121
18929 2 1.89122 35.5554 70.6694
13234 1 6.4347 37.1904 71.9631
13269 1 3.70715 35.5777 71.9873
13282 1 5.52268 35.5379 69.4121
18878 2 4.61878 37.1681 70.6453
13242 1 9.16338 35.5777 71.9873
13243 1 8.25031 37.1497 69.3879
18848 2 10.075 37.1681 70.6453
18877 2 7.34746 35.5554 70.6694
13287 1 1.83944 19.4841 74.8159
18883 2 0.975286 21.0966 75.8398
18902 2 2.81344 21.0644 73.3655
18950 2 0.0858837 19.4503 73.3781
13248 1 4.56684 21.0988 74.8033
18858 2 6.43152 21.0966 75.8398
18900 2 3.70409 19.4811 75.8524
18901 2 5.54212 19.4503 73.3781
13230 1 10.0231 21.0988 74.8033
13258 1 7.29568 19.4841 74.8159
18857 2 9.16033 19.4811 75.8524
18861 2 8.26968 21.0644 73.3655
13288 1 1.83798 22.7135 74.7896
18882 2 0.973824 24.3277 75.8113
18887 2 2.81225 24.2928 73.337
18934 2 0.0847394 22.6785 73.3518
13247 1 4.56535 24.328 74.7748
18851 2 6.43006 24.3277 75.8113
18881 2 3.70269 22.7122 75.8261
18903 2 5.54098 22.6785 73.3518
13229 1 10.0216 24.328 74.7748
13246 1 7.29422 22.7135 74.7896
18859 2 9.15892 22.7122 75.8261
18860 2 8.26849 24.2928 73.337
13273 1 1.83648 25.9424 74.7589
18871 2 0.972304 27.5587 75.7784
18886 2 2.81099 27.5215 73.304
18935 2 0.0835088 25.9071 73.3211
13237 1 4.56386 27.5566 74.7418
18850 2 6.42854 27.5587 75.7784
18884 2 3.70119 25.9432 75.7954
18885 2 5.53975 25.9071 73.3211
13228 1 10.0201 27.5566 74.7418
13249 1 7.29272 25.9424 74.7589
18849 2 9.15742 25.9432 75.7954
18854 2 8.26723 27.5215 73.304
13274 1 1.83504 29.1707 74.7236
18870 2 0.970813 30.7895 75.7409
18875 2 2.80972 30.7503 73.2663
18926 2 0.0822364 29.1359 73.2857
13236 1 4.56251 30.7845 74.7042
18844 2 6.42705 30.7895 75.7409
18869 2 3.69967 29.1742 75.7602
18888 2 5.53847 29.1359 73.2857
13227 1 10.0187 30.7845 74.7042
13235 1 7.29128 29.1707 74.7236
18852 2 9.15591 29.1742 75.7602
18853 2 8.26595 30.7503 73.2663
13267 1 1.83381 32.398 74.6836
18867 2 0.969437 34.0196 75.6989
18874 2 2.80844 33.9791 73.224
18927 2 0.0809598 32.3647 73.2458
13233 1 4.56143 34.0113 74.6619
18843 2 6.42568 34.0196 75.6989
18872 2 3.69823 32.4046 75.7204
18873 2 5.5372 32.3647 73.2458
13226 1 10.0177 34.0113 74.6619
13238 1 7.29004 32.398 74.6836
18842 2 9.15446 32.4046 75.7204
18847 2 8.26468 33.9791 73.224
13268 1 1.83291 35.6242 74.639
18866 2 0.968231 37.2487 75.6524
18868 2 2.80717 37.2072 73.1771
18925 2 0.079691 35.5932 73.2011
13232 1 4.56073 37.2368 74.615
18841 2 6.42447 37.2487 75.6524
18865 2 3.69693 35.6343 75.6761
18876 2 5.53593 35.5932 73.2011
13225 1 10.017 37.2368 74.615
13231 1 7.28915 35.6242 74.639
18845 2 9.15317 35.6343 75.6761
18846 2 8.26341 37.2072 73.1771
7137 2 0.914115 39.1359 -1.17868
7145 2 2.73052 39.1019 -3.68226
960 1 1.82058 40.6957 -2.64538
7150 2 0.00419819 40.6744 -3.70564
946 1 4.54552 39.1224 -2.62156
7107 2 6.37035 39.1359 -1.17868
7135 2 3.64333 40.7086 -1.20255
7146 2 5.46044 40.6744 -3.70564
900 1 10.0018 39.1224 -2.62156
7110 2 8.18676 39.1019 -3.68226
944 1 7.27682 40.6957 -2.64538
7108 2 9.09957 40.7086 -1.20255
7136 2 0.916314 42.282 -1.22678
7141 2 2.73415 42.2479 -3.72935
956 1 1.82727 43.8447 -2.694
7151 2 0.00790441 43.8223 -3.75329
945 1 4.552 42.2697 -2.66957
7101 2 6.37255 42.282 -1.22678
7138 2 3.64553 43.8562 -1.25126
7139 2 5.46414 43.8223 -3.75329
899 1 10.0082 42.2697 -2.66957
7109 2 8.19039 42.2479 -3.72935
947 1 7.2835 43.8447 -2.694
7099 2 9.10177 43.8562 -1.25126
7126 2 0.9185 45.4312 -1.27587
7140 2 2.73792 45.3978 -3.77732
957 1 1.83423 46.9973 -2.7431
7148 2 0.0117075 46.9743 -3.80133
938 1 4.55884 45.4205 -2.71856
7100 2 6.37474 45.4312 -1.27587
7124 2 3.64771 47.0071 -1.30046
7142 2 5.46795 46.9743 -3.80133
898 1 10.0151 45.4205 -2.71856
7104 2 8.19415 45.3978 -3.77732
936 1 7.29047 46.9973 -2.7431
7102 2 9.10394 47.0071 -1.30046
7125 2 0.92067 48.584 -1.32491
7130 2 2.74175 48.5519 -3.82517
952 1 1.84131 50.1537 -2.79162
7149 2 0.0155506 50.1306 -3.84872
937 1 4.56589 48.575 -2.76751
7087 2 6.37691 48.584 -1.32491
7127 2 3.64987 50.1618 -1.34907
7128 2 5.47179 50.1306 -3.84872
891 1 10.0221 48.575 -2.76751
7103 2 8.19799 48.5519 -3.82517
939 1 7.29755 50.1537 -2.79162
7085 2 9.10611 50.1618 -1.34907
7118 2 0.92283 51.7406 -1.37279
7129 2 2.74559 51.7105 -3.87182
953 1 1.84829 53.314 -2.83834
7147 2 0.0193729 53.2915 -3.89433
924 1 4.57294 51.7334 -2.81528
7086 2 6.37907 51.7406 -1.37279
7116 2 3.65203 53.3203 -1.39591
7131 2 5.47561 53.2915 -3.89433
890 1 10.0292 51.7334 -2.81528
7090 2 8.20183 51.7105 -3.87182
922 1 7.30453 53.314 -2.83834
7088 2 9.10826 53.3203 -1.39591
7117 2 0.924981 54.9011 -1.41827
7119 2 2.74937 54.8737 -3.91609
1343 1 1.85497 56.478 -2.88205
7560 2 0.0231031 56.4569 -3.93697
923 1 4.5798 54.8956 -2.86065
7069 2 6.38122 54.9011 -1.41827
7551 2 3.65417 56.4829 -1.43974
7552 2 5.47934 56.4569 -3.93697
875 1 10.036 54.8956 -2.86065
7089 2 8.20561 54.8737 -3.91609
1332 1 7.31121 56.478 -2.88205
7514 2 9.11041 56.4829 -1.43974
942 1 2.73202 39.1549 0.0430212
954 1 0.00536064 40.728 0.0189779
7134 2 1.82458 40.745 1.34987
7097 2 4.55139 39.172 1.37405
943 1 5.4616 40.728 0.0189779
897 1 8.18826 39.1549 0.0430212
7044 2 10.0076 39.172 1.37405
7095 2 7.28082 40.745 1.34987
934 1 2.73495 42.3017 -0.00543419
955 1 0.00830212 43.8761 -0.0301001
7122 2 1.82721 43.8926 1.30048
7096 2 4.55401 42.3185 1.32531
931 1 3.6462 43.911 2.56498
932 1 5.46454 43.8761 -0.0301001
896 1 8.19119 42.3017 -0.00543419
7043 2 10.0103 42.3185 1.32531
884 1 9.10243 43.911 2.56498
7098 2 7.28344 43.8926 1.30048
916 1 0.919556 45.4858 2.53975
933 1 2.7379 45.4513 -0.054895
950 1 0.0112531 47.0272 -0.0796853
7123 2 1.82981 47.043 1.25052
885 1 6.37579 45.4858 2.53975
7083 2 4.55663 45.4675 1.27551
914 1 3.64915 47.0612 2.51449
935 1 5.46749 47.0272 -0.0796853
889 1 8.19414 45.4513 -0.054895
7042 2 10.0129 45.4675 1.27551
887 1 9.10539 47.0612 2.51449
7081 2 7.28605 47.043 1.25052
915 1 0.922486 48.6372 2.48936
920 1 2.74084 48.604 -0.104329
951 1 0.0141819 50.1816 -0.128679
7114 2 1.83237 50.1963 1.2011
871 1 6.37872 48.6372 2.48936
7082 2 4.55921 48.6192 1.22567
917 1 3.65205 50.214 2.46451
918 1 5.47042 50.1816 -0.128679
888 1 8.19708 48.604 -0.104329
7035 2 10.0155 48.6192 1.22567
869 1 9.10829 50.214 2.46451
7084 2 7.28861 50.1963 1.2011
908 1 0.92535 51.7914 2.4401
919 1 2.74375 51.76 -0.15258
949 1 0.0170596 53.3393 -0.175878
7115 2 1.83487 53.3528 1.15342
870 1 6.38159 51.7914 2.4401
7068 2 4.56175 51.7741 1.17697
906 1 3.65487 53.3696 2.41627
921 1 5.4733 53.3393 -0.175878
874 1 8.19999 51.76 -0.15258
7034 2 10.018 51.7741 1.17697
872 1 9.11111 53.3696 2.41627
7066 2 7.29111 53.3528 1.15342
907 1 0.928123 54.9484 2.39321
909 1 2.74659 54.9195 -0.198414
1342 1 0.0198515 56.5005 -0.220032
7541 2 1.8373 56.5126 1.10876
853 1 6.38436 54.9484 2.39321
7067 2 4.56422 54.9323 1.13064
1324 1 3.65759 56.5279 2.37108
1325 1 5.47609 56.5005 -0.220032
873 1 8.20283 54.9195 -0.198414
7019 2 10.0205 54.9323 1.13064
1277 1 9.11382 56.5279 2.37108
7513 2 7.29354 56.5126 1.10876
930 1 0.913635 39.1901 2.63925
7093 2 2.73228 39.2074 3.94033
927 1 1.82442 40.7985 5.19525
7120 2 0.00567179 40.7805 3.9159
894 1 6.36987 39.1901 2.63925
928 1 3.64323 40.7632 2.61485
882 1 4.55091 39.2253 5.21998
7094 2 5.46191 40.7805 3.9159
895 1 9.09947 40.7632 2.61485
828 1 10.0071 39.2253 5.21998
7041 2 8.18852 39.2074 3.94033
880 1 7.28066 40.7985 5.19525
929 1 0.916592 42.3369 2.59006
7079 2 2.73531 42.354 3.89106
912 1 1.82771 43.9458 5.14459
7121 2 0.00872029 43.928 3.86592
886 1 6.37283 42.3369 2.59006
881 1 4.55418 42.3719 5.17008
7077 2 5.46496 43.928 3.86592
827 1 10.0104 42.3719 5.17008
7040 2 8.19155 42.354 3.89106
883 1 7.28395 43.9458 5.14459
7078 2 2.73836 45.5024 3.84061
913 1 1.83097 47.0949 5.09314
7112 2 0.0117535 47.0774 3.81526
867 1 4.55746 45.5201 5.11889
7080 2 5.46799 47.0774 3.81526
826 1 10.0137 45.5201 5.11889
7033 2 8.1946 45.5024 3.84061
865 1 7.28721 47.0949 5.09314
7064 2 2.74137 48.653 3.79002
904 1 1.83417 50.2459 5.04206
7113 2 0.014731 50.2292 3.76504
866 1 4.56069 48.6702 5.06748
7062 2 5.47097 50.2292 3.76504
819 1 10.0169 48.6702 5.06748
7032 2 8.19761 48.653 3.79002
868 1 7.29041 50.2459 5.04206
7063 2 2.74431 51.8061 3.74048
905 1 1.83728 53.3988 4.99352
7111 2 0.0176239 53.3837 3.7165
852 1 4.56384 51.8223 5.01705
7065 2 5.47386 53.3837 3.7165
818 1 10.0201 51.8223 5.01705
7018 2 8.20055 51.8061 3.74048
850 1 7.29352 53.3988 4.99352
7053 2 2.74715 54.9618 3.69327
1310 1 1.84027 56.5544 4.94722
7540 2 0.0204081 56.5407 3.67095
851 1 4.56691 54.9763 4.9699
7500 2 5.47665 56.5407 3.67095
804 1 10.0231 54.9763 4.9699
7017 2 8.20339 54.9618 3.69327
1276 1 7.29651 56.5544 4.94722
878 1 2.73165 39.2595 7.79631
7075 2 0.91313 39.2423 6.51134
910 1 0.0053202 40.8326 7.77132
7072 2 1.82362 40.8495 9.05972
7026 2 4.54989 39.2765 9.08465
7038 2 6.36937 39.2423 6.51134
879 1 5.46156 40.8326 7.77132
7073 2 3.64294 40.8154 6.48663
825 1 8.18788 39.2595 7.79631
6984 2 10.0061 39.2765 9.08465
7024 2 7.27985 40.8495 9.05972
7039 2 9.09918 40.8154 6.48663
863 1 2.73525 42.4058 7.74584
7074 2 0.916526 42.3888 6.46146
911 1 0.00894849 43.9793 7.71997
7056 2 1.82737 43.996 9.00844
7025 2 4.55361 42.4227 9.03428
7030 2 6.37276 42.3888 6.46146
861 1 5.46519 43.9793 7.71997
7076 2 3.64636 43.9624 6.43595
824 1 8.19149 42.4058 7.74584
6983 2 10.0098 42.4227 9.03428
7027 2 7.28361 43.996 9.00844
7028 2 9.10259 43.9624 6.43595
862 1 2.73888 45.5531 7.69385
7060 2 0.91994 45.5364 6.41022
902 1 0.0125545 47.1272 7.66761
7057 2 1.83114 47.1432 8.95603
7011 2 4.55738 45.5695 8.9823
7029 2 6.37618 45.5364 6.41022
864 1 5.46879 47.1272 7.66761
7058 2 3.64975 47.1109 6.3844
817 1 8.19512 45.5531 7.69385
6982 2 10.0136 45.5695 8.9823
7009 2 7.28738 47.1432 8.95603
7031 2 9.10599 47.1109 6.3844
848 1 2.74244 48.7016 7.64142
7059 2 0.923293 48.6857 6.35867
903 1 0.0160478 50.2764 7.61545
7048 2 1.83481 50.2916 8.90367
7010 2 4.56111 48.7172 8.92976
7015 2 6.37953 48.6857 6.35867
846 1 5.47229 50.2764 7.61545
7061 2 3.65305 50.261 6.33315
816 1 8.19868 48.7016 7.64142
6976 2 10.0173 48.7172 8.92976
7012 2 7.29105 50.2916 8.90367
7013 2 9.10928 50.261 6.33315
847 1 2.74592 51.8517 7.58997
7052 2 0.9265 51.8368 6.30809
901 1 0.0194345 53.4275 7.56502
7049 2 1.83837 53.4415 8.85268
6999 2 4.56473 51.8663 8.87793
7014 2 6.38274 51.8368 6.30809
849 1 5.47567 53.4275 7.56502
7050 2 3.65626 53.4132 6.28358
803 1 8.20216 51.8517 7.58997
6975 2 10.021 51.8663 8.87793
6997 2 7.29461 53.4415 8.85268
7016 2 9.1125 53.4132 6.28358
837 1 2.74918 55.0039 7.54076
7051 2 0.929681 54.9901 6.25975
1309 1 0.0226148 56.5808 7.51734
7479 2 1.84172 56.5934 8.8045
6998 2 4.5682 55.0172 8.82815
7000 2 6.38592 54.9901 6.25975
1261 1 5.47885 56.5808 7.51734
7499 2 3.6593 56.5677 6.23682
802 1 8.20542 55.0039 7.54076
6968 2 10.0244 55.0172 8.82815
7444 2 7.29796 56.5934 8.8045
7445 2 9.11553 56.5677 6.23682
859 1 0.91198 39.2934 10.3717
7022 2 2.73 39.3107 11.6593
7054 2 0.00385397 40.8836 11.6342
822 1 6.36822 39.2934 10.3717
857 1 3.64204 40.8664 10.3466
7023 2 5.46009 40.8836 11.6342
6981 2 8.18624 39.3107 11.6593
823 1 9.09827 40.8664 10.3466
858 1 0.915888 42.4394 10.3208
7007 2 2.734 42.4566 11.6086
7055 2 0.00793393 44.0295 11.5824
814 1 6.37213 42.4394 10.3208
860 1 3.646 44.0124 10.2947
7005 2 5.46417 44.0295 11.5824
6980 2 8.19023 42.4566 11.6086
812 1 9.10224 44.0124 10.2947
844 1 0.919875 45.5856 10.2681
7006 2 2.73813 45.6024 11.5559
7046 2 0.0120861 47.1755 11.5292
813 1 6.37611 45.5856 10.2681
842 1 3.64998 47.159 10.2414
7008 2 5.46832 47.1755 11.5292
6974 2 8.19437 45.6024 11.5559
815 1 9.10622 47.159 10.2414
843 1 0.923826 48.7326 10.2147
6995 2 2.74227 48.7486 11.5024
7047 2 0.0161981 50.322 11.4756
800 1 6.38006 48.7326 10.2147
845 1 3.65388 50.3064 10.1881
6993 2 5.47244 50.322 11.4756
6973 2 8.19851 48.7486 11.5024
798 1 9.11012 50.3064 10.1881
836 1 0.927664 51.8806 10.1618
6994 2 2.74633 51.8956 11.4491
7045 2 0.0201721 53.4695 11.4231
799 1 6.3839 51.8806 10.1618
834 1 3.65762 53.4552 10.1359
6996 2 5.47641 53.4695 11.4231
6967 2 8.20256 51.8956 11.4491
801 1 9.11386 53.4552 10.1359
835 1 0.931291 55.0302 10.1108
6988 2 2.7502 55.0439 11.3977
7478 2 0.023928 56.6186 11.3731
789 1 6.38753 55.0302 10.1108
1260 1 3.66113 56.6057 10.0866
7429 2 5.48017 56.6186 11.3731
6966 2 8.20644 55.0439 11.3977
1205 1 9.11737 56.6057 10.0866
806 1 2.72743 39.3629 15.5237
7003 2 0.909629 39.3455 14.2348
856 1 1.82202 40.9006 12.9222
838 1 0.0014354 40.9359 15.4985
810 1 4.54808 39.3277 12.9474
6978 2 6.36587 39.3455 14.2348
7001 2 3.63982 40.9185 14.2098
807 1 5.45767 40.9359 15.4985
777 1 8.18367 39.3629 15.5237
780 1 10.0043 39.3277 12.9474
808 1 7.27826 40.9006 12.9222
6979 2 9.09606 40.9185 14.2098
792 1 2.73178 42.5085 15.4726
7002 2 0.913848 42.4912 14.184
840 1 1.82629 44.046 12.8699
839 1 0.00596377 44.0808 15.446
809 1 4.55225 42.4733 12.8963
6971 2 6.37009 42.4912 14.184
7004 2 3.64418 44.0638 14.1577
790 1 5.4622 44.0808 15.446
776 1 8.18802 42.5085 15.4726
779 1 10.0085 42.4733 12.8963
811 1 7.28253 44.046 12.8699
6969 2 9.10042 44.0638 14.1577
791 1 2.73645 45.6529 15.4189
6991 2 0.91832 45.6362 14.1309
841 1 1.83067 47.1912 12.8158
830 1 0.0107483 47.2248 15.3913
796 1 4.55659 45.6186 12.843
6970 2 6.37456 45.6362 14.1309
6989 2 3.64873 47.2085 14.1037
793 1 5.46699 47.2248 15.3913
773 1 8.19269 45.6529 15.4189
778 1 10.0128 45.6186 12.843
6972 2 9.10497 47.2085 14.1037
794 1 7.28691 47.1912 12.8158
832 1 1.83503 50.3367 12.7611
784 1 2.7413 48.7965 15.3633
6990 2 0.922911 48.7808 14.0763
831 1 0.0156213 50.3682 15.3353
795 1 4.56098 48.7638 12.7885
6964 2 6.37915 48.7808 14.0763
6992 2 3.65332 50.3531 14.0488
782 1 5.47186 50.3682 15.3353
797 1 7.29127 50.3367 12.7611
772 1 8.19754 48.7965 15.3633
775 1 10.0172 48.7638 12.7885
6962 2 9.10956 50.3531 14.0488
833 1 1.83924 53.483 12.7073
6987 2 0.927471 51.9255 14.0215
783 1 2.74616 51.9399 15.3073
829 1 0.0204102 53.5118 15.2795
6963 2 6.38371 51.9255 14.0215
788 1 4.56528 51.9097 12.734
6985 2 3.65782 53.4981 13.9945
785 1 5.47665 53.5118 15.2795
6965 2 9.11406 53.4981 13.9945
774 1 10.0215 51.9097 12.734
770 1 8.20239 51.9399 15.3073
786 1 7.29548 53.483 12.7073
6986 2 0.931879 55.071 13.9681
781 1 2.75085 55.0839 15.2523
1239 1 1.84321 56.6306 12.6559
1238 1 0.025 56.6563 15.2259
6961 2 6.38812 55.071 13.9681
787 1 4.56938 55.0566 12.6812
1189 1 5.48124 56.6563 15.2259
7428 2 3.66212 56.6442 13.9426
1204 1 7.29945 56.6306 12.6559
771 1 10.0256 55.0566 12.6812
769 1 8.20709 55.0839 15.2523
7385 2 9.11836 56.6442 13.9426
7343 2 1.81487 37.808 16.8353
1150 1 0.906226 39.3999 18.1006
1152 1 3.63235 37.8262 18.1247
7330 2 4.54498 39.3816 16.8112
1127 1 6.36246 39.3999 18.1006
7332 2 7.27111 37.808 16.8353
1126 1 9.08859 37.8262 18.1247
7284 2 10.0012 39.3816 16.8112
7344 2 1.81897 40.9547 16.7862
1149 1 0.910639 42.5457 18.0499
1148 1 3.63648 40.9731 18.0757
7340 2 1.82354 44.0998 16.7341
7329 2 4.54932 42.5275 16.7605
1123 1 6.36688 42.5457 18.0499
7328 2 7.27521 40.9547 16.7862
1128 1 9.09272 40.9731 18.0757
7283 2 10.0056 42.5275 16.7605
7331 2 7.27978 44.0998 16.7341
1143 1 0.915571 45.6895 17.996
7341 2 1.82846 47.2434 16.6795
7322 2 4.55408 45.6718 16.707
1122 1 6.37181 45.6895 17.996
1151 1 3.64117 44.1179 18.0233
1121 1 9.0974 44.1179 18.0233
7282 2 10.0103 45.6718 16.707
7320 2 7.2847 47.2434 16.6795
1142 1 0.920883 48.8316 17.9396
7304 2 2.7383 48.8518 19.2283
7336 2 1.83359 50.3861 16.6234
7334 2 0.00738931 47.2812 19.2567
7321 2 4.55913 48.8148 16.6515
1111 1 6.37712 48.8316 17.9396
1141 1 3.64631 47.2607 17.9681
1144 1 3.65174 50.4021 17.9109
7319 2 5.46363 47.2812 19.2567
1124 1 9.10255 47.2607 17.9681
7272 2 8.19454 48.8518 19.2283
7275 2 10.0154 48.8148 16.6515
7323 2 7.28982 50.3861 16.6234
1109 1 9.10798 50.4021 17.9109
7335 2 0.0130495 50.422 19.1995
1136 1 0.926368 51.9726 17.8819
7303 2 2.74409 51.992 19.1704
7337 2 1.83872 53.5284 16.5672
1110 1 6.38261 51.9726 17.8819
7302 2 5.46929 50.422 19.1995
7308 2 4.56428 51.9572 16.5952
1134 1 3.65723 53.5429 17.8531
7258 2 8.20033 51.992 19.1704
7274 2 10.0205 51.9572 16.5952
7306 2 7.29495 53.5284 16.5672
1112 1 9.11346 53.5429 17.8531
7333 2 0.0189201 53.5617 19.1413
1135 1 0.931813 55.1134 17.8245
7293 2 2.74999 55.1313 19.1124
7750 2 0.0248036 56.701 19.0841
7751 2 1.84372 56.6713 16.5128
1093 1 6.38805 55.1134 17.8245
7305 2 5.47516 53.5617 19.1413
7307 2 4.56936 55.0998 16.5396
7733 2 5.48104 56.701 19.0841
1536 1 3.6626 56.6841 17.7967
7257 2 8.20623 55.1313 19.1124
7259 2 10.0256 55.0998 16.5396
1510 1 9.11884 56.6841 17.7967
7740 2 7.29996 56.6713 16.5128
7326 2 2.72357 39.4196 19.3881
1146 1 1.81074 37.8647 20.7016
7314 2 0.901695 39.4599 21.9654
7324 2 3.62807 37.885 21.9887
7325 2 5.44977 37.8455 19.4119
1119 1 4.54074 39.439 20.678
7278 2 6.35793 39.4599 21.9654
1125 1 7.26698 37.8647 20.7016
7281 2 8.17981 39.4196 19.3881
1068 1 9.99698 39.439 20.678
7277 2 9.08431 37.885 21.9887
10606 2 10.906 37.8455 19.4119
7318 2 2.72789 42.566 19.3379
1147 1 1.81467 41.0127 20.6535
7313 2 0.905778 42.6076 21.9161
7312 2 3.63175 41.0341 21.9412
7327 2 5.45377 40.9931 19.3635
1118 1 4.54503 42.5857 20.628
7270 2 6.36202 42.6076 21.9161
1117 1 7.27091 41.0127 20.6535
7280 2 8.18413 42.566 19.3379
1067 1 10.0013 42.5857 20.628
7279 2 9.08799 41.0341 21.9412
10602 2 10.91 40.9931 19.3635
7339 2 0.00216562 44.1383 19.3116
7317 2 2.73283 45.71 19.2845
1139 1 1.81934 44.1579 20.6016
7300 2 0.910707 45.752 21.8631
7315 2 3.63625 44.1802 21.89
7316 2 5.4584 44.1383 19.3116
1107 1 4.55007 45.7294 20.5744
7269 2 6.36695 45.752 21.8631
7273 2 8.18907 45.71 19.2845
1066 1 10.0063 45.7294 20.5744
1120 1 7.27558 44.1579 20.6016
7268 2 9.09249 44.1802 21.89
1140 1 1.82473 47.3002 20.5463
7299 2 0.916468 48.893 21.8066
1106 1 4.55578 48.8703 20.5176
7255 2 6.37271 48.893 21.8066
7298 2 3.64161 47.3229 21.8352
1059 1 10.012 48.8703 20.5176
1105 1 7.28097 47.3002 20.5463
7271 2 9.09785 47.3229 21.8352
1132 1 1.8307 50.4398 20.4882
7292 2 0.922906 52.0312 21.7473
1092 1 4.56194 52.0089 20.4583
7254 2 6.37914 52.0312 21.7473
7301 2 3.64774 50.4624 21.7773
1058 1 10.0182 52.0089 20.4583
1108 1 7.28694 50.4398 20.4882
7253 2 9.10398 50.4624 21.7773
1133 1 1.83698 53.5777 20.4283
7291 2 0.929742 55.1673 21.6868
1091 1 4.56828 55.1464 20.3983
7237 2 6.38598 55.1673 21.6868
7290 2 3.65441 53.5994 21.7171
1043 1 10.0245 55.1464 20.3983
1090 1 7.29322 53.5777 20.4283
7256 2 9.11065 53.5994 21.7171
1099 1 0.896155 39.5254 25.8328
1115 1 2.71858 39.4808 23.2556
7310 2 1.80614 37.9268 24.5652
1113 1 3.62298 37.9485 25.855
1062 1 6.35239 39.5254 25.8328
1114 1 5.44505 37.9054 23.2786
7266 2 4.53572 39.503 24.5426
7276 2 7.26238 37.9268 24.5652
1061 1 9.07921 37.9485 25.855
1065 1 8.17481 39.4808 23.2556
7212 2 9.99196 39.503 24.5426
4217 1 10.9013 37.9054 23.2786
1098 1 0.899442 42.6762 25.7855
1103 1 2.72251 42.629 23.2067
7311 2 1.80928 41.0783 24.5191
1097 1 3.62579 41.1013 25.8096
1054 1 6.35568 42.6762 25.7855
1116 1 5.44855 41.0554 23.2316
7265 2 4.53931 42.6527 24.4945
7264 2 7.26552 41.0783 24.5191
1063 1 9.08203 41.1013 25.8096
1064 1 8.17875 42.629 23.2067
7211 2 9.99555 42.6527 24.4945
4209 1 10.9048 41.0554 23.2316
1084 1 0.903858 45.8227 25.7341
1102 1 2.72742 45.7735 23.1539
7296 2 1.81337 44.2261 24.469
1100 1 3.62961 44.2501 25.7603
1053 1 6.3601 45.8227 25.7341
1101 1 5.45296 44.2018 23.1808
7251 2 4.54394 45.7984 24.4425
7267 2 7.2696 44.2261 24.469
1052 1 9.08585 44.2501 25.7603
1057 1 8.18365 45.7735 23.1539
7210 2 10.0002 45.7984 24.4425
4210 1 10.9092 44.2018 23.1808
1083 1 0.909618 48.964 25.6782
1088 1 2.73332 48.914 23.0971
1130 1 0.00212802 47.3443 23.126
7297 2 1.81856 47.3696 24.4149
1082 1 3.63468 47.394 25.7067
1039 1 6.36586 48.964 25.6782
1104 1 5.45837 47.3443 23.126
7250 2 4.54972 48.9397 24.3864
7249 2 7.2748 47.3696 24.4149
1055 1 9.09092 47.394 25.7067
1056 1 8.18956 48.914 23.0971
7203 2 10.006 48.9397 24.3864
1076 1 0.916792 52.0997 25.6176
1087 1 2.74011 52.0507 23.0368
1131 1 0.00850552 50.4828 23.0674
7288 2 1.82494 50.5087 24.3568
1038 1 6.37303 52.0997 25.6176
1085 1 3.64115 50.5326 25.6485
1086 1 5.46474 50.4828 23.0674
7236 2 4.55666 52.0765 24.3263
1037 1 9.09739 50.5326 25.6485
1042 1 8.19635 52.0507 23.0368
7202 2 10.0129 52.0765 24.3263
7252 2 7.28117 50.5087 24.3568
1075 1 0.925139 55.2304 25.5526
1077 1 2.74745 55.1846 22.9741
1129 1 0.0156188 53.6179 23.0056
7289 2 1.83237 53.6434 24.295
1022 1 6.38138 55.2304 25.5526
1074 1 3.64897 53.6656 25.5856
1089 1 5.47186 53.6179 23.0056
7235 2 4.56449 55.2095 24.2633
1040 1 9.10521 53.6656 25.5856
1041 1 8.20369 55.1846 22.9741
7234 2 7.28861 53.6434 24.295
7188 2 10.0207 55.2095 24.2633
1095 1 1.80103 37.9941 28.4305
7262 2 2.71341 39.5489 27.1192
1050 1 4.52999 39.5728 28.4092
7261 2 5.44045 37.9711 27.1411
1060 1 7.25727 37.9941 28.4305
1002 1 9.98623 39.5728 28.4092
7209 2 8.16965 39.5489 27.1192
10573 2 10.8967 37.9711 27.1411
1096 1 1.80292 41.1506 28.3869
7247 2 2.71622 42.7017 27.0727
1049 1 4.53234 42.7274 28.3637
7263 2 5.44281 41.1258 27.0965
1048 1 7.25916 41.1506 28.3869
1001 1 9.98858 42.7274 28.3637
7208 2 8.17246 42.7017 27.0727
10558 2 10.8991 41.1258 27.0965
1080 1 1.8058 44.3031 28.3395
7246 2 2.72016 45.85 27.0222
1035 1 4.53584 45.8774 28.3142
7245 2 5.44615 44.2765 27.048
1051 1 7.26204 44.3031 28.3395
1000 1 9.99208 45.8774 28.3142
7201 2 8.1764 45.85 27.0222
10559 2 10.9024 44.2765 27.048
1081 1 1.81003 47.4502 28.2878
7232 2 2.72553 48.993 26.9672
1034 1 4.54091 49.0214 28.2601
7248 2 5.45076 47.4222 26.9953
1033 1 7.26627 47.4502 28.2878
993 1 9.99715 49.0214 28.2601
7200 2 8.18176 48.993 26.9672
10550 2 10.907 47.4222 26.9953
1072 1 1.81604 50.5907 28.231
7231 2 2.73257 52.1299 26.9072
7287 2 0.000709715 50.5622 26.9378
1021 1 4.54793 52.1581 28.2005
7230 2 5.45695 50.5622 26.9378
1036 1 7.27228 50.5907 28.231
992 1 10.0042 52.1581 28.2005
7187 2 8.1888 52.1299 26.9072
1073 1 1.82411 53.7235 28.1684
7221 2 2.74125 55.2606 26.8423
7285 2 0.00860034 53.696 26.8753
1020 1 4.557 55.2869 28.1347
7233 2 5.46484 53.696 26.8753
981 1 10.0132 55.2869 28.1347
1019 1 7.28035 53.7235 28.1684
7186 2 8.19749 55.2606 26.8423
1046 1 2.70798 39.6229 30.9839
7239 2 1.79785 38.0662 32.2884
7243 2 0.891313 39.5975 29.6946
7260 2 3.61883 38.0176 29.7157
1045 1 5.43578 38.0418 31.0045
7194 2 4.52606 39.6486 32.2681
7206 2 6.34755 39.5975 29.6946
7204 2 7.25409 38.0662 32.2884
999 1 8.16422 39.6229 30.9839
7164 2 9.9823 39.6486 32.2681
7205 2 9.07507 38.0176 29.7157
4166 1 10.892 38.0418 31.0045
1031 1 2.70915 42.7825 30.9404
7240 2 1.79816 41.2303 32.2471
7242 2 0.893093 42.7546 29.6499
7241 2 3.62021 41.1765 29.6727
1047 1 5.43659 41.2032 30.9626
7193 2 4.52666 42.8111 32.2252
7198 2 6.34933 42.7546 29.6499
7192 2 7.2544 41.2303 32.2471
998 1 8.16539 42.7825 30.9404
7163 2 9.9829 42.8111 32.2252
7207 2 9.07645 41.1765 29.6727
4150 1 10.8928 41.2032 30.9626
1030 1 2.71133 45.9376 30.8932
7224 2 1.79913 44.3908 32.2024
7228 2 0.895939 45.9071 29.6013
7244 2 3.62248 44.3315 29.6261
1029 1 5.4382 44.3607 30.9173
7180 2 4.5281 45.9694 32.1787
7197 2 6.35218 45.9071 29.6013
7195 2 7.25537 44.3908 32.2024
991 1 8.16756 45.9376 30.8932
7162 2 9.98434 45.9694 32.1787
7196 2 9.07872 44.3315 29.6261
4151 1 10.8944 44.3607 30.9173
1017 1 2.71505 49.0867 30.8417
7225 2 1.80116 47.5466 32.1539
7227 2 0.900305 49.0537 29.5481
7226 2 3.62602 47.4812 29.5754
1032 1 5.44107 47.513 30.868
7179 2 4.53088 49.1221 32.1279
7184 2 6.35654 49.0537 29.5481
7178 2 7.2574 47.5466 32.1539
990 1 8.17129 49.0867 30.8417
7159 2 9.98711 49.1221 32.1279
7199 2 9.08226 47.4812 29.5754
4142 1 10.8973 47.513 30.868
1016 1 2.72103 52.2277 30.7847
7216 2 1.80487 50.6957 32.1005
7220 2 0.906727 52.1929 29.4894
7229 2 3.63134 50.6244 29.5196
1015 1 5.44583 50.6583 30.8139
7172 2 4.53573 52.2669 32.0716
7183 2 6.36297 52.1929 29.4894
7181 2 7.26111 50.6957 32.1005
980 1 8.17727 52.2277 30.7847
7158 2 9.99197 52.2669 32.0716
7182 2 9.08758 50.6244 29.5196
4143 1 10.9021 50.6583 30.8139
1008 1 2.72997 55.358 30.7204
7217 2 1.81111 53.8355 32.0407
7219 2 0.915647 55.3234 29.4241
1018 1 5.45322 53.7943 30.7536
7171 2 4.54362 55.401 32.0076
7173 2 6.37189 55.3234 29.4241
7218 2 3.63898 53.7593 29.4576
7170 2 7.26735 53.8355 32.0407
979 1 8.1862 55.358 30.7204
7155 2 9.99986 55.401 32.0076
7185 2 9.09522 53.7593 29.4576
4141 1 10.9095 53.7943 30.7536
1027 1 0.88679 39.6753 33.5564
7190 2 2.70559 39.7018 34.8391
1044 1 3.61512 38.0915 33.5763
996 1 6.34303 39.6753 33.5564
7189 2 5.43411 38.1165 34.8589
995 1 9.07136 38.0915 33.5763
7161 2 8.16183 39.7018 34.8391
10502 2 10.8903 38.1165 34.8589
1026 1 0.886679 42.8408 33.5146
7176 2 2.70501 42.8706 34.7976
1025 1 3.61479 41.2584 33.5359
988 1 6.34292 42.8408 33.5146
7191 2 5.43338 41.2865 34.8187
997 1 9.07103 41.2584 33.5359
7160 2 8.16125 42.8706 34.7976
10486 2 10.8896 41.2865 34.8187
1013 1 0.887254 46.0028 33.4697
7175 2 2.70494 46.0362 34.7529
1028 1 3.61497 44.4224 33.4926
987 1 6.34349 46.0028 33.4697
7174 2 5.43301 44.4539 34.7756
986 1 9.07121 44.4224 33.4926
7157 2 8.16117 46.0362 34.7529
10487 2 10.8892 44.4539 34.7756
1011 1 3.61607 47.582 33.4459
1012 1 0.889031 49.1597 33.4212
7168 2 2.70577 49.1974 34.7045
7177 2 5.43332 47.6175 34.7292
977 1 6.34527 49.1597 33.4212
7156 2 8.16201 49.1974 34.7045
989 1 9.07231 47.582 33.4459
10478 2 10.8896 47.6175 34.7292
1014 1 3.61874 50.7356 33.3953
7167 2 2.70822 52.3518 34.6511
1007 1 0.892868 52.3091 33.368
7166 2 5.43485 50.7757 34.6785
976 1 6.34911 52.3091 33.368
7154 2 8.16446 52.3518 34.6511
975 1 9.07498 50.7356 33.3953
10479 2 10.8911 50.7757 34.6785
1005 1 3.62406 53.8799 33.3391
7165 2 2.7135 55.4952 34.59
1006 1 0.900038 55.4473 33.3084
1004 1 1.79399 53.9808 35.9213
7169 2 5.43853 53.9252 34.6217
970 1 6.35628 55.4473 33.3084
968 1 4.52397 55.5571 35.8942
967 1 7.25023 53.9808 35.9213
7153 2 8.16974 55.4952 34.59
978 1 9.0803 53.8799 33.3391
10477 2 10.8948 53.9252 34.6217
961 1 9.98021 55.5571 35.8942
7366 2 0.886507 39.7563 37.4071
13577 1 2.70467 39.7846 38.6925
1023 1 1.79564 38.1425 36.1454
7368 2 3.61542 38.168 37.4265
7355 2 6.34275 39.7563 37.4071
13576 1 5.43384 38.1945 38.7116
984 1 4.52307 39.7294 36.1261
994 1 7.25188 38.1425 36.1454
7354 2 9.07166 38.168 37.4265
13542 1 8.16091 39.7846 38.6925
966 1 9.9793 39.7294 36.1261
16404 1 10.8901 38.1945 38.7116
7365 2 0.88494 42.9321 37.3663
13573 1 2.70246 42.9644 38.6524
1024 1 1.79428 41.3158 36.1061
7364 2 3.61383 41.3444 37.387
7352 2 6.34118 42.9321 37.3663
13578 1 5.4317 41.3745 38.6727
983 1 4.52177 42.9018 36.0855
982 1 7.25052 41.3158 36.1061
7356 2 9.07007 41.3444 37.387
13541 1 8.1587 42.9644 38.6524
965 1 9.97801 42.9018 36.0855
16402 1 10.8879 41.3745 38.6727
7362 2 0.883533 46.1063 37.3227
13572 1 2.70014 46.144 38.61
1009 1 1.79308 44.4873 36.0643
7367 2 3.61232 44.5194 37.3449
7351 2 6.33977 46.1063 37.3227
13571 1 5.42943 44.5542 38.6315
973 1 4.52073 46.0721 36.0424
985 1 7.24932 44.4873 36.0643
7350 2 9.06856 44.5194 37.3449
13536 1 8.15638 46.144 38.61
964 1 9.97697 46.0721 36.0424
16403 1 10.8857 44.5542 38.6315
7361 2 0.882526 49.278 37.2758
13562 1 2.6977 49.3235 38.5652
1010 1 1.79229 47.6562 36.0198
7360 2 3.61108 47.6925 37.2997
7348 2 6.33876 49.278 37.2758
13574 1 5.42706 47.7337 38.5879
972 1 4.52028 49.2393 35.9964
971 1 7.24853 47.6562 36.0198
7353 2 9.06731 47.6925 37.2997
13535 1 8.15393 49.3235 38.5652
963 1 9.97652 49.2393 35.9964
16400 1 10.8833 47.7337 38.5879
7359 2 0.882387 52.4456 37.2245
13561 1 2.69493 52.5037 38.5182
1003 1 1.79232 50.8214 35.9723
7363 2 3.61042 50.8625 37.2508
7347 2 6.33863 52.4456 37.2245
13560 1 5.42451 50.9134 38.542
969 1 4.52099 52.402 35.9473
974 1 7.24856 50.8214 35.9723
7346 2 9.06666 50.8625 37.2508
13522 1 8.15117 52.5037 38.5182
962 1 9.97723 52.402 35.9473
16401 1 10.8807 50.9134 38.542
7358 2 0.884088 55.6056 37.1661
13551 1 2.69063 55.6869 38.4696
7357 2 3.61104 54.0269 37.1964
7345 2 6.34033 55.6056 37.1661
13563 1 5.42128 54.0946 38.494
7349 2 9.06727 54.0269 37.1964
13521 1 8.14687 55.6869 38.4696
16399 1 10.8775 54.0946 38.494
19199 2 1.79824 38.2201 39.9911
19182 2 2.70958 39.8671 42.5328
13569 1 0.888029 39.8402 41.2554
13575 1 3.6174 38.2469 41.2747
19186 2 4.5253 39.8116 39.9717
19181 2 5.43888 38.2724 42.5526
13539 1 6.34427 39.8402 41.2554
19188 2 7.25448 38.2201 39.9911
13538 1 9.07364 38.2469 41.2747
19137 2 8.16582 39.8671 42.5328
19140 2 9.98154 39.8116 39.9717
22018 2 10.8951 38.2724 42.5526
19200 2 1.79608 41.4032 39.9516
13568 1 0.885315 43.0276 41.2148
19174 2 2.70709 43.0574 42.4911
13567 1 3.61483 41.4338 41.2354
19185 2 4.52308 42.9947 39.9309
19183 2 5.43648 41.462 42.5123
13533 1 6.34155 43.0276 41.2148
19184 2 7.25232 41.4032 39.9516
13540 1 9.07107 41.4338 41.2354
19136 2 8.16333 43.0574 42.4911
19139 2 9.97932 42.9947 39.9309
22014 2 10.8927 41.462 42.5123
19196 2 1.79382 44.5863 39.9094
13558 1 0.882264 46.2167 41.1718
19173 2 2.70446 46.2494 42.4462
13570 1 3.61196 44.6219 41.1936
19178 2 4.52079 46.1779 39.8872
13532 1 6.3385 46.2167 41.1718
19172 2 5.43391 44.6531 42.4691
19187 2 7.25006 44.5863 39.9094
13531 1 9.0682 44.6219 41.1936
19129 2 8.1607 46.2494 42.4462
19138 2 9.97703 46.1779 39.8872
22015 2 10.8902 44.6531 42.4691
19197 2 1.79153 47.7696 39.8642
13557 1 0.878676 49.4089 41.1262
19160 2 2.70174 49.4441 42.3975
13556 1 3.60868 47.8123 41.1493
19177 2 4.51855 49.3612 39.8403
13519 1 6.33491 49.4089 41.1262
19175 2 5.43123 47.8464 42.4224
19176 2 7.24777 47.7696 39.8642
13534 1 9.06492 47.8123 41.1493
19128 2 8.15798 49.4441 42.3975
19131 2 9.97479 49.3612 39.8403
22010 2 10.8875 47.8464 42.4224
19192 2 1.7894 50.9529 39.8152
13550 1 0.8739 52.607 41.0777
19159 2 2.69897 52.6428 42.3432
13559 1 3.60463 51.0069 41.1023
13518 1 6.33014 52.607 41.0777
19158 2 5.42848 51.0429 42.3712
19164 2 4.51659 52.5446 39.7888
19179 2 7.24564 50.9529 39.8152
13517 1 9.06087 51.0069 41.1023
19114 2 8.15521 52.6428 42.3432
19130 2 9.97283 52.5446 39.7888
22011 2 10.8847 51.0429 42.3712
19193 2 1.78771 54.1363 39.7605
13549 1 0.866056 55.8171 41.026
19149 2 2.69584 55.8484 42.2806
13548 1 3.59868 54.2099 41.0523
13501 1 6.32229 55.8171 41.026
19161 2 5.42564 54.2445 42.3132
19163 2 4.51523 55.728 39.73
19162 2 7.24395 54.1363 39.7605
13520 1 9.05492 54.2099 41.0523
19113 2 8.15208 55.8484 42.2806
19115 2 9.97147 55.728 39.73
22009 2 10.8819 54.2445 42.3132
13565 1 1.80258 38.2993 43.8346
19170 2 0.895521 39.922 45.0907
19180 2 3.62479 38.3244 45.1111
13529 1 4.52941 39.8958 43.8148
19134 2 6.35176 39.922 45.0907
13537 1 7.25882 38.2993 43.8346
13476 1 9.98564 39.8958 43.8148
19133 2 9.08103 38.3244 45.1111
13566 1 1.79992 41.4928 43.7942
19169 2 0.893099 43.1191 45.0473
19168 2 3.62245 41.5203 45.0694
13528 1 4.5266 43.0904 43.7729
19126 2 6.34934 43.1191 45.0473
13527 1 7.25616 41.4928 43.7942
13475 1 9.98284 43.0904 43.7729
19135 2 9.07869 41.5203 45.0694
13554 1 1.79695 44.6889 43.7509
19156 2 0.890545 46.3194 45.0002
19171 2 3.61996 44.7188 45.0243
13515 1 4.52343 46.2885 43.728
19125 2 6.34678 46.3194 45.0002
13530 1 7.25319 44.6889 43.7509
13474 1 9.97967 46.2885 43.728
19124 2 9.07619 44.7188 45.0243
13555 1 1.79353 47.8894 43.7042
19155 2 0.887869 49.5241 44.9484
19154 2 3.61734 47.9211 44.975
13514 1 4.51968 49.492 43.6795
19111 2 6.34411 49.5241 44.9484
13513 1 7.24977 47.8894 43.7042
13467 1 9.97592 49.492 43.6795
19127 2 9.07358 47.9211 44.975
13546 1 1.78931 51.0968 43.6536
19148 2 0.884935 52.7356 44.8901
19157 2 3.61458 51.1289 44.9202
13500 1 4.51478 52.7046 43.6264
19110 2 6.34117 52.7356 44.8901
13516 1 7.24555 51.0968 43.6536
13466 1 9.97102 52.7046 43.6264
19109 2 9.07081 51.1289 44.9202
13547 1 1.78342 54.316 43.5975
19147 2 0.881049 55.9579 44.8221
19146 2 3.61132 54.3451 44.8576
13499 1 4.50753 55.9323 43.5664
19094 2 6.33729 55.9579 44.8221
13498 1 7.23966 54.316 43.5975
13451 1 9.96377 55.9323 43.5664
19112 2 9.06756 54.3451 44.8576
13507 1 0.904323 40.0042 48.9246
13525 1 2.71618 39.9506 46.371
19166 2 1.81206 38.3756 47.6669
13523 1 3.63346 38.4021 48.9463
13470 1 6.36056 40.0042 48.9246
13524 1 5.4455 38.3512 46.3917
19122 2 4.53915 39.976 47.6456
19132 2 7.2683 38.3756 47.6669
13469 1 9.0897 38.4021 48.9463
13473 1 8.17242 39.9506 46.371
19074 2 9.99539 39.976 47.6456
16384 1 10.9017 38.3512 46.3917
13506 1 0.902194 43.2111 48.8782
13511 1 2.71361 43.1519 46.3271
19167 2 1.80997 41.5772 47.6234
13505 1 3.63139 41.6071 48.9019
13462 1 6.35843 43.2111 48.8782
13526 1 5.44304 41.5508 46.3495
19121 2 4.537 43.1792 47.6001
19120 2 7.26621 41.5772 47.6234
13471 1 9.08763 41.6071 48.9019
13472 1 8.16985 43.1519 46.3271
19073 2 9.99324 43.1792 47.6001
16372 1 10.8993 41.5508 46.3495
13492 1 0.899923 46.4232 48.8272
13510 1 2.71078 46.3577 46.2793
19152 2 1.80778 44.7822 47.5758
13508 1 3.6292 44.8164 48.8533
13461 1 6.35616 46.4232 48.8272
13509 1 5.44036 44.7541 46.3037
19107 2 4.53477 46.3864 47.5502
19123 2 7.26402 44.7822 47.5758
13460 1 9.08544 44.8164 48.8533
13465 1 8.16702 46.3577 46.2793
19072 2 9.99101 46.3864 47.5502
16373 1 10.8966 44.7541 46.3037
13491 1 0.897425 49.6421 48.7706
13496 1 2.70755 49.5702 46.2269
19153 2 1.80548 47.992 47.5233
13490 1 3.62683 48.0316 48.7996
13447 1 6.35366 49.6421 48.7706
13512 1 5.43735 47.9629 46.2538
19106 2 4.53238 49.5993 47.4949
19105 2 7.26172 47.992 47.5233
13463 1 9.08307 48.0316 48.7996
13464 1 8.16379 49.5702 46.2269
19065 2 9.98862 49.5993 47.4949
16364 1 10.8936 47.9629 46.2538
13484 1 0.894476 52.8703 48.7066
13495 1 2.7036 52.7927 46.168
19144 2 1.80293 51.2085 47.4647
13493 1 3.62415 51.2549 48.7396
13446 1 6.35071 52.8703 48.7066
13494 1 5.43381 51.18 46.1984
19093 2 4.52954 52.8201 47.4324
19108 2 7.25917 51.2085 47.4647
13445 1 9.08039 51.2549 48.7396
13450 1 8.15983 52.7927 46.168
19064 2 9.98578 52.8201 47.4324
16365 1 10.89 51.18 46.1984
13483 1 0.890595 56.1098 48.6328
13485 1 2.69837 56.0293 46.0996
19145 2 1.7996 54.4344 47.3977
13482 1 3.62082 54.4886 48.6711
13432 1 6.34683 56.1098 48.6328
13497 1 5.4293 54.409 46.1352
19092 2 4.52538 56.0521 47.3604
19091 2 7.25584 54.4344 47.3977
13448 1 9.07706 54.4886 48.6711
13449 1 8.15461 56.0293 46.0996
19053 2 9.98162 56.0521 47.3604
16363 1 10.8855 54.409 46.1352
13503 1 1.82244 38.4517 51.4988
19118 2 2.7277 40.0286 50.1983
19165 2 0.000441305 38.4257 50.2206
13458 1 4.54976 40.056 51.4761
19117 2 5.45668 38.4257 50.2206
13416 1 10.006 40.056 51.4761
13468 1 7.27868 38.4517 51.4988
19071 2 8.18393 40.0286 50.1983
13504 1 1.82082 41.6613 51.4522
19103 2 2.72592 43.237 50.1504
13457 1 4.54811 43.2677 51.4271
19119 2 5.45493 41.6323 50.1749
13415 1 10.0043 43.2677 51.4271
13456 1 7.27706 41.6613 51.4522
19070 2 8.18216 43.237 50.1504
21970 2 10.9112 41.6323 50.1749
13488 1 1.81915 44.8753 51.4007
19102 2 2.72406 46.4498 50.0976
13443 1 4.54639 46.4843 51.373
19101 2 5.45312 44.8428 50.1247
13459 1 7.27538 44.8753 51.4007
21971 2 10.9094 44.8428 50.1247
13414 1 10.0026 46.4843 51.373
19063 2 8.1803 46.4498 50.0976
13489 1 1.81736 48.0949 51.3437
19089 2 2.72197 49.6685 50.039
19084 2 0.912238 49.7313 52.5825
13442 1 4.54449 49.7073 51.3129
19104 2 5.45118 48.0583 50.0691
13441 1 7.2736 48.0949 51.3437
19049 2 6.36848 49.7313 52.5825
21962 2 10.9074 48.0583 50.0691
13408 1 10.0007 49.7073 51.3129
19062 2 8.17821 49.6685 50.039
19079 2 0.90952 52.9599 52.5151
13480 1 1.81526 51.3216 51.2802
19088 2 2.71924 52.8948 49.9733
19086 2 3.63915 51.3448 52.5496
19048 2 6.36576 52.9599 52.5151
13431 1 4.54208 52.9378 51.2456
19087 2 5.44885 51.2806 50.0071
13444 1 7.2715 51.3216 51.2802
21963 2 10.9051 51.2806 50.0071
19047 2 9.09539 51.3448 52.5496
13407 1 9.99832 52.9378 51.2456
19052 2 8.17548 52.8948 49.9733
19077 2 3.63571 54.5768 52.479
19078 2 0.905095 56.1953 52.4416
13481 1 1.81235 54.5561 51.2089
19080 2 2.71491 56.1306 49.8995
19042 2 6.36133 56.1953 52.4416
13430 1 4.53837 56.1762 51.1703
19090 2 5.44549 54.5114 49.9375
13429 1 7.26859 54.5561 51.2089
19050 2 9.09195 54.5768 52.479
21961 2 10.9017 54.5114 49.9375
13400 1 9.99461 56.1762 51.1703
19051 2 8.17114 56.1306 49.8995
13454 1 2.73966 40.106 54.0262
13502 1 0.0121499 38.4998 54.05
19095 2 1.83571 38.5219 55.3236
19099 2 0.917091 40.0795 52.7493
13453 1 5.46839 38.4998 54.05
19056 2 4.56328 40.1286 55.2993
19068 2 6.37333 40.0795 52.7493
19116 2 3.6459 38.4746 52.7727
13413 1 8.1959 40.106 54.0262
19038 2 10.0195 40.1286 55.2993
19066 2 7.29195 38.5219 55.3236
19067 2 9.10214 38.4746 52.7727
13439 1 2.73844 43.3212 53.9748
13486 1 0.0109355 41.7131 54.0011
19096 2 1.8346 41.736 55.2738
19098 2 0.915669 43.2921 52.6991
13455 1 5.46717 41.7131 54.0011
19055 2 4.56213 43.3443 55.247
19060 2 6.37191 43.2921 52.6991
19097 2 3.64451 41.6853 52.7248
13412 1 8.19468 43.3212 53.9748
19037 2 10.0184 43.3443 55.247
19054 2 7.29084 41.736 55.2738
19069 2 9.10075 41.6853 52.7248
13438 1 2.73713 46.5409 53.9181
13487 1 0.00968257 44.9304 53.9471
19081 2 1.83338 44.9536 55.219
19085 2 0.914125 46.509 52.6437
13437 1 5.46592 44.9304 53.9471
19045 2 4.56079 46.5639 55.1896
19059 2 6.37036 46.509 52.6437
19100 2 3.64304 44.8999 52.6721
13406 1 8.19337 46.5409 53.9181
19036 2 10.017 46.5639 55.1896
19057 2 7.28962 44.9536 55.219
19058 2 9.09928 44.8999 52.6721
13427 1 2.73554 49.7658 53.8555
13478 1 0.00826913 48.1526 53.8876
19082 2 1.83185 48.1753 55.1588
13440 1 5.46451 48.1526 53.8876
19044 2 4.55897 49.7879 55.1268
19083 2 3.64137 48.1194 52.6139
13405 1 8.19178 49.7658 53.8555
19035 2 10.0152 49.7879 55.1268
19043 2 7.28808 48.1753 55.1588
19061 2 9.0976 48.1194 52.6139
19075 2 1.82963 51.4017 55.0934
13479 1 0.0063922 51.3803 53.8219
13426 1 2.73322 52.9963 53.7868
19041 2 4.55621 53.0166 55.0588
13425 1 5.46263 51.3803 53.8219
19046 2 7.28587 51.4017 55.0934
19034 2 10.0125 53.0166 55.0588
13399 1 8.18946 52.9963 53.7868
19076 2 1.82615 54.6326 55.0233
13477 1 0.00341003 54.6135 53.7503
13420 1 2.7293 56.2317 53.7127
19040 2 4.55185 56.2494 54.9871
13428 1 5.45965 54.6135 53.7503
19039 2 7.28239 54.6326 55.0233
19033 2 10.0081 56.2494 54.9871
13398 1 8.18554 56.2317 53.7127
13751 1 1.84897 38.5912 59.1505
19385 2 2.75355 40.1757 57.8489
19392 2 0.0258801 38.5677 57.874
13435 1 0.929986 40.154 56.5756
13738 1 4.57673 40.2 59.125
19384 2 5.48212 38.5677 57.874
13410 1 6.38622 40.154 56.5756
13452 1 3.65856 38.5463 56.6004
13692 1 10.033 40.2 59.125
13740 1 7.3052 38.5912 59.1505
19350 2 8.20979 40.1757 57.8489
13409 1 9.1148 38.5463 56.6004
13752 1 1.84823 41.8094 59.0982
19381 2 2.75256 43.3938 57.795
19390 2 0.0249563 41.7844 57.8225
13434 1 0.92905 43.3717 56.5222
13737 1 4.57593 43.4194 59.0701
19386 2 5.48119 41.7844 57.8225
13403 1 6.38529 43.3717 56.5222
13433 1 3.65765 41.7624 56.5496
13691 1 10.0322 43.4194 59.0701
13736 1 7.30446 41.8094 59.0982
19349 2 8.2088 43.3938 57.795
13411 1 9.11389 41.7624 56.5496
13748 1 1.84733 45.0301 59.0408
19380 2 2.75129 46.6149 57.7361
19391 2 0.0238549 45.0039 57.7661
13423 1 0.927952 46.5931 56.4636
13730 1 4.57487 46.6415 59.0103
19379 2 5.48009 45.0039 57.7661
13402 1 6.38419 46.5931 56.4636
13436 1 3.65665 44.9819 56.4936
13690 1 10.0311 46.6415 59.0103
13739 1 7.30356 45.0301 59.0408
19344 2 8.20753 46.6149 57.7361
13401 1 9.11289 44.9819 56.4936
13749 1 1.84604 48.2535 58.9786
19370 2 2.74946 49.8392 57.6725
19388 2 0.0223485 48.2266 57.7048
13422 1 0.926425 49.8184 56.3997
13729 1 4.57325 49.8662 58.9459
19382 2 5.47859 48.2266 57.7048
13396 1 6.38266 49.8184 56.3997
13421 1 3.65539 48.2052 56.4323
13683 1 10.0295 49.8662 58.9459
13728 1 7.30227 48.2535 58.9786
19343 2 8.20569 49.8392 57.6725
13404 1 9.11162 48.2052 56.4323
13744 1 1.84399 51.4793 58.9123
19369 2 2.74665 53.0665 57.605
19389 2 0.0200823 51.4525 57.6392
13419 1 0.923983 53.0474 56.331
13716 1 4.57066 53.0929 58.8781
19368 2 5.47632 51.4525 57.6392
13395 1 6.38022 53.0474 56.331
13424 1 3.65348 51.4325 56.3659
13682 1 10.0269 53.0929 58.8781
13731 1 7.30023 51.4793 58.9123
19330 2 8.20288 53.0665 57.605
13394 1 9.10972 51.4325 56.3659
13745 1 1.84075 54.7068 58.8434
19359 2 2.74245 56.296 57.5355
19387 2 0.0166187 54.681 57.5703
13418 1 0.919962 56.2791 56.2592
13715 1 4.56669 56.3209 58.8088
19371 2 5.47286 54.681 57.5703
13393 1 6.3762 56.2791 56.2592
13417 1 3.65033 54.663 56.2953
13667 1 10.0229 56.3209 58.8088
13714 1 7.29698 54.7068 58.8434
19329 2 8.19868 56.296 57.5355
13397 1 9.10657 54.663 56.2953
13734 1 2.76723 40.2444 61.6747
13750 1 0.0394458 38.6348 61.7008
19377 2 0.943953 40.2212 60.3985
13733 1 5.49568 38.6348 61.7008
19347 2 6.40019 40.2212 60.3985
19383 2 3.67248 38.6121 60.4242
13689 1 8.22347 40.2444 61.6747
19346 2 9.12872 38.6121 60.4242
13726 1 2.76643 43.4649 61.6189
13746 1 0.0387419 41.8545 61.6474
19376 2 0.943006 43.4408 60.3434
13735 1 5.49498 41.8545 61.6474
19341 2 6.39924 43.4408 60.3434
19375 2 3.67163 41.8308 60.3715
13688 1 8.22267 43.4649 61.6189
19348 2 9.12787 41.8308 60.3715
13725 1 2.76529 46.687 61.5585
13747 1 0.0377993 45.0758 61.5892
19366 2 0.941711 46.6626 60.2837
13724 1 5.49404 45.0758 61.5892
19340 2 6.39795 46.6626 60.2837
19378 2 3.67054 45.0514 60.3141
13681 1 8.22153 46.687 61.5585
19339 2 9.12677 45.0514 60.3141
13712 1 2.76352 49.9105 61.4943
13742 1 0.0363809 48.2986 61.5268
19365 2 0.939797 49.8862 60.22
13727 1 5.49262 48.2986 61.5268
19327 2 6.39603 49.8862 60.22
19364 2 3.66897 48.2742 60.2523
13680 1 8.21976 49.9105 61.4943
19342 2 9.12521 48.2742 60.2523
13711 1 2.76081 53.1347 61.4277
13743 1 0.0341817 51.5225 61.4612
19358 2 0.936951 53.1114 60.1535
13710 1 5.49042 51.5225 61.4612
19326 2 6.39319 53.1114 60.1535
19367 2 3.66663 51.4987 60.187
13666 1 8.21705 53.1347 61.4277
19325 2 9.12287 51.4987 60.187
13701 1 2.75695 56.3589 61.3609
13741 1 0.0309117 54.7468 61.3942
19357 2 0.932938 56.3373 60.0863
13713 1 5.48715 54.7468 61.3942
19309 2 6.38918 56.3373 60.0863
19356 2 3.66322 54.7244 60.1198
13665 1 8.21319 56.3589 61.3609
19328 2 9.11945 54.7244 60.1198
13722 1 0.957602 40.2876 64.2254
19333 2 2.78097 40.3084 65.4985
19372 2 0.0533219 38.6978 65.5248
19373 2 1.86291 38.6554 62.9745
13686 1 6.41384 40.2876 64.2254
13732 1 3.68609 38.6773 64.2518
19332 2 5.50956 38.6978 65.5248
19337 2 4.59061 40.2653 62.9484
13685 1 9.14233 38.6773 64.2518
19281 2 8.23721 40.3084 65.4985
19284 2 10.0468 40.2653 62.9484
19345 2 7.31915 38.6554 62.9745
13721 1 0.956697 43.5087 64.1691
19319 2 2.77982 43.5299 65.4425
19360 2 0.0523149 41.9191 65.471
19374 2 1.86203 41.8755 62.9211
13678 1 6.41293 43.5087 64.1691
13720 1 3.68531 41.8981 64.1978
19334 2 5.50855 41.9191 65.471
19336 2 4.58961 43.486 62.8926
13687 1 9.14155 41.8981 64.1978
19280 2 8.23606 43.5299 65.4425
19283 2 10.0458 43.486 62.8926
19335 2 7.31826 41.8755 62.9211
13708 1 0.955385 46.7305 64.1087
19318 2 2.77825 46.7516 65.3827
19361 2 0.0509833 45.1408 65.413
19362 2 1.86085 45.0968 62.8631
13677 1 6.41162 46.7305 64.1087
13723 1 3.68423 45.1196 64.1393
19317 2 5.50722 45.1408 65.413
19323 2 4.5882 46.7078 62.8327
13676 1 9.14046 45.1196 64.1393
19273 2 8.23449 46.7516 65.3827
19282 2 10.0444 46.7078 62.8327
19338 2 7.31709 45.0968 62.8631
13707 1 0.953439 49.9525 64.0451
19304 2 2.77607 49.9729 65.32
19352 2 0.0491301 48.3623 65.3516
19363 2 1.85916 48.319 62.8013
13663 1 6.40968 49.9525 64.0451
13706 1 3.68262 48.3415 64.0772
19320 2 5.50537 48.3623 65.3516
19322 2 4.58617 49.9304 62.7693
13679 1 9.13886 48.3415 64.0772
19272 2 8.23231 49.9729 65.32
19275 2 10.0424 49.9304 62.7693
19321 2 7.3154 48.319 62.8013
13700 1 0.95065 53.1741 63.9799
19303 2 2.77315 53.1934 65.2562
19353 2 0.0465903 51.5833 65.2881
19354 2 1.85673 51.5418 62.7368
13662 1 6.40689 53.1741 63.9799
13709 1 3.68028 51.5634 64.0126
19302 2 5.50283 51.5833 65.2881
19308 2 4.5833 53.1532 62.7041
13661 1 9.13652 51.5634 64.0126
19258 2 8.22939 53.1934 65.2562
19274 2 10.0395 53.1532 62.7041
19324 2 7.31297 51.5418 62.7368
13699 1 0.946914 56.3948 63.9152
19293 2 2.76943 56.4123 65.1931
19351 2 0.0432666 54.8031 65.2244
19355 2 1.85337 54.7645 62.6714
13646 1 6.40315 56.3948 63.9152
13698 1 3.67702 54.7846 63.9473
19305 2 5.4995 54.8031 65.2244
19307 2 4.57945 56.3756 62.639
13664 1 9.13326 54.7846 63.9473
19257 2 8.22567 56.4123 65.1931
19259 2 10.0357 56.3756 62.639
19306 2 7.30961 54.7645 62.6714
13718 1 1.87621 38.7194 66.8046
19315 2 0.971157 40.351 68.048
13674 1 4.60389 40.3301 66.7781
19278 2 6.4274 40.351 68.048
19331 2 3.69984 38.7396 68.0744
13626 1 10.0601 40.3301 66.7781
13684 1 7.33245 38.7194 66.8046
19277 2 9.15608 38.7396 68.0744
13719 1 1.87526 41.9409 66.7504
19314 2 0.969817 43.5734 67.9922
13673 1 4.60279 43.5517 66.7217
19270 2 6.42606 43.5734 67.9922
19313 2 3.69865 41.9623 68.0206
13625 1 10.059 43.5517 66.7217
13672 1 7.3315 41.9409 66.7504
19279 2 9.15489 41.9623 68.0206
13704 1 1.87398 45.1624 66.6921
19300 2 0.968038 46.795 67.9328
13654 1 2.79002 46.8158 69.2203
13703 1 0.0628125 45.2055 69.2505
13659 1 4.60127 46.773 66.6616
19269 2 6.42428 46.795 67.9328
19316 2 3.69712 45.1843 67.9629
13653 1 5.51905 45.2055 69.2505
13624 1 10.0575 46.773 66.6616
13675 1 7.33022 45.1624 66.6921
19268 2 9.15335 45.1843 67.9629
13615 1 8.24626 46.8158 69.2203
13705 1 1.87217 48.3834 66.6304
19299 2 0.965658 50.0152 67.8711
13641 1 2.78776 50.0349 69.1583
13694 1 0.0608268 48.4255 69.1895
13658 1 4.59914 49.9936 66.5988
19255 2 6.4219 50.0152 67.8711
19298 2 3.69504 48.4053 67.9021
13656 1 5.51707 48.4255 69.1895
13617 1 10.0554 49.9936 66.5988
13657 1 7.32841 48.3834 66.6304
19271 2 9.15128 48.4053 67.9021
13614 1 8.244 50.0349 69.1583
13696 1 1.86969 51.6034 66.5669
19292 2 0.962657 53.2334 67.8086
13640 1 2.78491 53.2518 69.0959
13695 1 0.0582726 51.6437 69.127
13645 1 4.59629 53.2128 66.535
19254 2 6.4189 53.2334 67.8086
19301 2 3.69236 51.6246 67.8398
13639 1 5.51451 51.6437 69.127
13616 1 10.0525 53.2128 66.535
13660 1 7.32593 51.6034 66.5669
19253 2 9.14859 51.6246 67.8398
13604 1 8.24115 53.2518 69.0959
13697 1 1.86645 54.8216 66.5034
19291 2 0.958996 56.4492 67.7474
13632 1 2.78145 56.4659 69.0349
13693 1 0.0551379 54.8592 69.0652
13644 1 4.59267 56.43 66.4723
19240 2 6.41523 56.4492 67.7474
19290 2 3.68903 54.8416 67.7777
13642 1 5.51138 54.8592 69.0652
13605 1 10.0489 56.43 66.4723
13643 1 7.32269 54.8216 66.5034
19256 2 9.14527 54.8416 67.7777
13603 1 8.23769 56.4659 69.0349
13651 1 0.977284 40.4149 71.9113
13670 1 2.793 40.3727 69.3361
13717 1 0.0654366 38.7613 69.3625
19311 2 1.89006 38.7806 70.62
13620 1 6.43352 40.4149 71.9113
13668 1 3.706 38.8028 71.9378
13669 1 5.52168 38.7613 69.3625
19266 2 4.61754 40.3928 70.5937
13619 1 9.16224 38.8028 71.9378
13623 1 8.24924 40.3727 69.3361
19224 2 10.0738 40.3928 70.5937
19276 2 7.3463 38.7806 70.62
13650 1 0.975955 43.6378 71.8555
13655 1 2.79171 43.5949 69.28
13702 1 0.0642782 41.9839 69.3085
19312 2 1.88873 42.0048 70.5663
13612 1 6.43219 43.6378 71.8555
13649 1 3.70477 42.0266 71.8839
13671 1 5.52052 41.9839 69.3085
19265 2 4.61607 43.6165 70.538
13621 1 9.16101 42.0266 71.8839
13622 1 8.24795 43.5949 69.28
19223 2 10.0723 43.6165 70.538
19264 2 7.34496 42.0048 70.5663
13637 1 0.974315 46.8586 71.7962
19296 2 1.88706 45.2276 70.5088
13611 1 6.43055 46.8586 71.7962
13652 1 3.7033 45.2485 71.8262
19251 2 4.61417 46.8383 70.479
13610 1 9.15954 45.2485 71.8262
19222 2 10.0704 46.8383 70.479
19267 2 7.3433 45.2276 70.5088
13636 1 0.972309 50.0764 71.7339
19297 2 1.88488 48.4483 70.4486
13601 1 6.42855 50.0764 71.7339
13635 1 3.70148 48.4679 71.7654
19250 2 4.61164 50.0576 70.4179
13613 1 9.15772 48.4679 71.7654
19216 2 10.0679 50.0576 70.4179
19249 2 7.34112 48.4483 70.4486
13631 1 0.969644 53.291 71.673
19288 2 1.88213 51.6663 70.387
13600 1 6.42588 53.291 71.673
13638 1 3.69916 51.6841 71.7035
19239 2 4.6087 53.274 70.3564
13599 1 9.1554 51.6841 71.7035
19215 2 10.0649 53.274 70.3564
19252 2 7.33837 51.6663 70.387
13630 1 0.966524 56.502 71.6133
19289 2 1.87889 54.8809 70.326
13594 1 6.42276 56.502 71.6133
13629 1 3.69626 54.897 71.6429
19238 2 4.60517 56.4868 70.2962
13602 1 9.15249 54.897 71.6429
19208 2 10.0614 56.4868 70.2962
19237 2 7.33513 54.8809 70.326
13647 1 1.83243 38.849 74.5898
19243 2 0.967177 40.4762 75.6017
19262 2 2.80582 40.4343 73.1257
19310 2 0.0783921 38.8209 73.1519
13608 1 4.56048 40.4607 74.5637
19218 2 6.42342 40.4762 75.6017
19260 2 3.69581 38.8627 75.6275
19261 2 5.53463 38.8209 73.1519
13590 1 10.0167 40.4607 74.5637
13618 1 7.28867 38.849 74.5898
19217 2 9.15205 38.8627 75.6275
19221 2 8.26206 40.4343 73.1257
13648 1 1.83239 42.0719 74.5365
19242 2 0.966159 43.7013 75.5475
19247 2 2.80426 43.6595 73.0706
19294 2 0.0769569 42.0471 73.0986
13607 1 4.56062 43.6825 74.5085
19211 2 6.4224 43.7013 75.5475
19241 2 3.69479 42.0891 75.575
19263 2 5.5332 42.0471 73.0986
13589 1 10.0169 43.6825 74.5085
13606 1 7.28863 42.0719 74.5365
19219 2 9.15103 42.0891 75.575
19220 2 8.2605 43.6595 73.0706
13633 1 1.83269 45.2926 74.4797
19231 2 0.964964 46.9232 75.4909
19246 2 2.80232 46.882 73.0124
19295 2 0.0752141 45.2711 73.0418
13597 1 4.56103 46.9018 74.4504
19210 2 6.4212 46.9232 75.4909
19244 2 3.69371 45.3127 75.5195
19245 2 5.53145 45.2711 73.0418
13588 1 10.0173 46.9018 74.4504
13609 1 7.28893 45.2926 74.4797
19209 2 9.14994 45.3127 75.5195
19214 2 8.25855 46.882 73.0124
13634 1 1.83325 48.5104 74.4206
19230 2 0.9635 50.141 75.4335
19235 2 2.79966 50.101 72.9524
19286 2 0.0729949 48.4921 72.9825
13596 1 4.56185 50.1175 74.3904
19204 2 6.41974 50.141 75.4335
19229 2 3.69242 48.5326 75.4622
19248 2 5.52923 48.4921 72.9825
13587 1 10.0181 50.1175 74.3904
13595 1 7.28949 48.5104 74.4206
19212 2 9.14866 48.5326 75.4622
19213 2 8.2559 50.101 72.9524
13627 1 1.83386 51.7237 74.3602
19227 2 0.961791 53.354 75.3741
19234 2 2.79684 53.3157 72.8918
19287 2 0.0702267 51.7088 72.9221
13593 1 4.5622 53.3292 74.3298
19203 2 6.41803 53.354 75.3741
19232 2 3.69083 51.7481 75.4037
19233 2 5.52647 51.7088 72.9221
13586 1 10.0184 53.3292 74.3298
13598 1 7.2901 51.7237 74.3602
19202 2 9.14706 51.7481 75.4037
19207 2 8.25308 53.3157 72.8918
13628 1 1.8343 54.9337 74.2997
19226 2 0.959789 56.5617 75.3163
19228 2 2.79342 56.5259 72.8326
19285 2 0.0670713 54.9214 72.8619
13592 1 4.56262 56.5374 74.2703
19201 2 6.41603 56.5617 75.3163
19225 2 3.68895 54.9586 75.3449
19236 2 5.52331 54.9214 72.8619
13585 1 10.0189 56.5374 74.2703
13591 1 7.29054 54.9337 74.2997
19205 2 9.14519 54.9586 75.3449
19206 2 8.24966 56.5259 72.8326
7545 2 0.927106 58.0657 -1.46014
7553 2 2.75303 58.0413 -3.95682
1344 1 1.86117 59.6455 -2.92152
7558 2 0.0266502 59.6266 -3.97549
1330 1 4.58626 58.0614 -2.90239
7515 2 6.38334 58.0657 -1.46014
7543 2 3.65626 59.6494 -1.47934
7554 2 5.48289 59.6266 -3.97549
1284 1 10.0425 58.0614 -2.90239
7518 2 8.20926 58.0413 -3.95682
1328 1 7.31741 59.6455 -2.92152
7516 2 9.1125 59.6494 -1.47934
7544 2 0.929155 61.234 -1.49718
7549 2 2.75644 61.213 -3.99285
1340 1 1.86666 62.8161 -2.95558
7559 2 0.0298943 62.8003 -4.00876
1329 1 4.59213 61.2305 -2.93929
7509 2 6.38539 61.234 -1.49718
7546 2 3.65824 62.8195 -1.51355
7547 2 5.48613 62.8003 -4.00876
1283 1 10.0484 61.2305 -2.93929
7517 2 8.21268 61.213 -3.99285
1331 1 7.3229 62.8161 -2.95558
7507 2 9.11448 62.8195 -1.51355
7534 2 0.93104 64.4058 -1.5283
7548 2 2.75948 64.3884 -4.02312
1341 1 1.87125 65.9891 -2.98322
7556 2 0.0326847 65.9772 -4.0358
1322 1 4.5972 64.4023 -2.97026
7508 2 6.38728 64.4058 -1.5283
7532 2 3.66 65.9928 -1.54134
7550 2 5.48892 65.9772 -4.0358
1282 1 10.0534 64.4023 -2.97026
7512 2 8.21571 64.3884 -4.02312
1320 1 7.32749 65.9891 -2.98322
7510 2 9.11624 65.9928 -1.54134
7533 2 0.932637 67.5805 -1.55254
7538 2 2.76198 67.5667 -4.0467
1336 1 1.87472 69.1641 -3.0036
7557 2 0.034851 69.1568 -4.05575
1321 1 4.60125 67.5764 -2.99436
7495 2 6.38888 67.5805 -1.55254
7535 2 3.6614 69.1687 -1.56184
7536 2 5.49109 69.1568 -4.05575
1275 1 10.0575 67.5764 -2.99436
7511 2 8.21821 67.5667 -4.0467
1323 1 7.33096 69.1641 -3.0036
7493 2 9.11764 69.1687 -1.56184
7526 2 0.933807 70.7574 -1.56915
7537 2 2.76377 70.7473 -4.06287
1337 1 1.87689 72.3403 -3.01609
7555 2 0.0362309 72.3382 -4.06799
1308 1 4.60409 70.7521 -3.01086
7494 2 6.39005 70.7574 -1.56915
7524 2 3.66231 72.3464 -1.57441
7539 2 5.49247 72.3382 -4.06799
1274 1 10.0603 70.7521 -3.01086
7498 2 8.22001 70.7473 -4.06287
1306 1 7.33312 72.3403 -3.01609
7496 2 9.11855 72.3464 -1.57441
7525 2 0.934428 73.9356 -1.57758
7527 2 2.76471 73.9293 -4.07108
1727 1 1.87762 75.5173 -3.02029
7968 2 0.0367055 75.5205 -4.07212
1307 1 4.60556 73.9287 -3.01924
7477 2 6.39067 73.9356 -1.57758
7959 2 3.66263 75.5249 -1.57864
7960 2 5.49294 75.5205 -4.07212
1259 1 10.0618 73.9287 -3.01924
7497 2 8.22094 73.9293 -4.07108
1716 1 7.33386 75.5173 -3.02029
7922 2 9.11886 75.5249 -1.57864
1314 1 0.930774 58.1082 2.35003
1326 1 2.74932 58.0824 -0.240577
1338 1 0.0225051 59.6651 -0.259899
7542 2 1.83963 59.6756 1.06838
1278 1 6.38701 58.1082 2.35003
7505 2 4.5666 58.0937 1.08796
1312 1 3.66016 59.6892 2.33022
1327 1 5.47874 59.6651 -0.259899
1281 1 8.20556 58.0824 -0.240577
7452 2 10.0228 58.0937 1.08796
1279 1 9.1164 59.6892 2.33022
7503 2 7.29586 59.6756 1.06838
1313 1 0.93325 61.2709 2.3118
1318 1 2.75188 61.2485 -0.277857
1339 1 0.02494 62.8327 -0.294315
7530 2 1.84178 62.8418 1.03347
1270 1 6.38949 61.2709 2.3118
7504 2 4.56885 61.2584 1.05017
1315 1 3.66252 62.8533 2.29491
1316 1 5.48118 62.8327 -0.294315
1280 1 8.20811 61.2485 -0.277857
7451 2 10.0251 61.2584 1.05017
1268 1 9.11876 62.8533 2.29491
7506 2 7.29802 62.8418 1.03347
1300 1 0.935468 64.4362 2.27968
1317 1 2.75416 64.4175 -0.309148
1334 1 0.0270447 66.003 -0.322244
7531 2 1.84366 66.0107 1.0051
1269 1 6.39171 64.4362 2.27968
7491 2 4.57088 64.426 1.01841
1298 1 3.66456 66.0197 2.26623
1319 1 5.48328 66.003 -0.322244
1273 1 8.2104 64.4175 -0.309148
7450 2 10.0271 64.426 1.01841
1271 1 9.1208 66.0197 2.26623
7489 2 7.2999 66.0107 1.0051
1299 1 0.93731 67.6036 2.25467
1304 1 2.75605 67.5889 -0.333501
1335 1 0.0286866 69.1754 -0.342833
7522 2 1.84514 69.1818 0.984173
1255 1 6.39355 67.6036 2.25467
7490 2 4.57258 67.596 0.993662
1301 1 3.66617 69.188 2.24508
1302 1 5.48492 69.1754 -0.342833
1272 1 8.21229 67.5889 -0.333501
7443 2 10.0288 67.596 0.993662
1253 1 9.1224 69.188 2.24508
7492 2 7.30138 69.1818 0.984173
1292 1 0.938641 70.7726 2.23755
1303 1 2.75741 70.7621 -0.350168
1333 1 0.0297362 72.3492 -0.355448
7523 2 1.8461 72.3543 0.971339
1254 1 6.39488 70.7726 2.23755
7476 2 4.57382 70.7679 0.976712
1290 1 3.6672 72.3575 2.23212
1305 1 5.48597 72.3492 -0.355448
1258 1 8.21365 70.7621 -0.350168
7442 2 10.0301 70.7679 0.976712
1256 1 9.12343 72.3575 2.23212
7474 2 7.30234 72.3543 0.971339
1291 1 0.939342 73.9426 2.22885
1293 1 2.75813 73.9364 -0.358632
1726 1 0.0300979 75.5238 -0.359697
7949 2 1.84643 75.5276 0.967015
1237 1 6.39558 73.9426 2.22885
7475 2 4.57447 73.9409 0.968099
1708 1 3.66755 75.5277 2.22775
1709 1 5.48634 75.5238 -0.359697
1257 1 8.21436 73.9364 -0.358632
7427 2 10.0307 73.9409 0.968099
1661 1 9.12379 75.5277 2.22775
7921 2 7.30267 75.5276 0.967015
7501 2 2.74987 58.1203 3.64971
1311 1 1.8431 59.7128 4.90528
7528 2 0.0230486 59.7006 3.62971
1266 1 4.56983 58.1333 4.92562
7502 2 5.47929 59.7006 3.62971
1212 1 10.0261 58.1333 4.92562
7449 2 8.20611 58.1203 3.64971
1264 1 7.29934 59.7128 4.90528
7487 2 2.75242 61.2815 3.6111
1296 1 1.8457 62.8735 4.86898
7529 2 0.0254817 62.8631 3.59402
1265 1 4.57255 61.2928 4.88635
7485 2 5.48172 62.8631 3.59402
1211 1 10.0288 61.2928 4.88635
7448 2 8.20865 61.2815 3.6111
1267 1 7.30194 62.8735 4.86898
7486 2 2.75471 64.4453 3.57862
1297 1 1.84798 66.0364 4.83948
7520 2 0.0276034 66.028 3.56501
1251 1 4.57501 64.4547 4.85332
7488 2 5.48384 66.028 3.56501
1210 1 10.0312 64.4547 4.85332
7441 2 8.21095 64.4453 3.57862
1249 1 7.30421 66.0364 4.83948
7472 2 2.75662 67.6112 3.5533
1288 1 1.84977 69.2009 4.81771
7521 2 0.0292758 69.1947 3.54359
1250 1 4.57706 67.6185 4.82758
7470 2 5.48551 69.1947 3.54359
1203 1 10.0333 67.6185 4.82758
7440 2 8.21286 67.6112 3.5533
1252 1 7.30601 69.2009 4.81771
7519 2 0.0303543 72.3627 3.53046
1289 1 1.85093 72.3666 4.80436
7471 2 2.75802 70.7786 3.53596
7473 2 5.48659 72.3627 3.53046
1236 1 4.57856 70.7836 4.80995
1234 1 7.30717 72.3666 4.80436
7426 2 8.21426 70.7786 3.53596
1202 1 10.0348 70.7836 4.80995
7461 2 2.75875 73.947 3.52714
7948 2 0.0307277 75.5313 3.52603
1694 1 1.85134 75.5327 4.79986
1235 1 4.57935 73.9496 4.80099
7908 2 5.48697 75.5313 3.52603
7425 2 8.21499 73.947 3.52714
1188 1 10.0356 73.9496 4.80099
1660 1 7.30757 75.5327 4.79986
1262 1 2.75223 58.1582 7.495
7483 2 0.932624 58.1458 6.21497
1294 1 0.0255552 59.7362 7.47395
7480 2 1.84482 59.7473 8.76064
7434 2 4.57142 58.1701 8.78193
7446 2 6.38886 58.1458 6.21497
1263 1 5.48179 59.7362 7.47395
7481 2 3.66213 59.7245 6.19439
1209 1 8.20847 58.1582 7.495
7392 2 10.0277 58.1701 8.78193
7432 2 7.30105 59.7473 8.76064
7447 2 9.11837 59.7245 6.19439
1247 1 2.75504 61.3147 7.45435
7482 2 0.935339 61.3038 6.17524
1295 1 0.0282114 62.8938 7.43638
7464 2 1.84761 62.9032 8.72263
7433 2 4.57438 61.325 8.74082
7438 2 6.39158 61.3038 6.17524
1245 1 5.48445 62.8938 7.43638
7484 2 3.66471 62.8837 6.15767
1208 1 8.21128 61.3147 7.45435
7391 2 10.0306 61.325 8.74082
7435 2 7.30385 62.9032 8.72263
7436 2 9.12094 62.8837 6.15767
1246 1 2.75752 64.4733 7.42019
7468 2 0.937742 64.4641 6.14183
1286 1 0.0304807 66.0533 7.40591
7465 2 1.85 66.061 8.6918
7419 2 4.57699 64.4819 8.70625
7437 2 6.39398 64.4641 6.14183
1248 1 5.48672 66.0533 7.40591
7466 2 3.66691 66.045 6.12785
1201 1 8.21376 64.4733 7.42019
7390 2 10.0332 64.4819 8.70625
7417 2 7.30624 66.061 8.6918
7439 2 9.12315 66.045 6.12785
1232 1 2.75954 67.6336 7.39366
7467 2 0.939711 67.6262 6.11586
1287 1 0.0322171 69.2143 7.38355
7456 2 1.85181 69.2203 8.66924
7418 2 4.57911 67.6405 8.67943
7423 2 6.39595 67.6262 6.11586
1230 1 5.48846 69.2143 7.38355
7469 2 3.66861 69.2078 6.10594
1200 1 8.21578 67.6336 7.39366
7384 2 10.0353 67.6405 8.67943
7420 2 7.30805 69.2203 8.66924
7421 2 9.12484 69.2078 6.10594
1231 1 2.76095 70.7952 7.37566
7460 2 0.941097 70.7897 6.09818
1285 1 0.0332632 72.3763 7.37006
7457 2 1.85287 72.3805 8.65575
7407 2 4.58057 70.8003 8.66133
7422 2 6.39734 70.7897 6.09818
1233 1 5.4895 72.3763 7.37006
7458 2 3.66965 72.3718 6.09265
1187 1 8.21719 70.7952 7.37566
7383 2 10.0368 70.8003 8.66133
7405 2 7.30911 72.3805 8.65575
7424 2 9.12589 72.3718 6.09265
1221 1 2.76161 73.9575 7.3668
7459 2 0.941766 73.954 6.0894
1693 1 0.0335055 75.5387 7.3659
7887 2 1.85305 75.5411 8.65179
7406 2 4.58119 73.9608 8.65256
7408 2 6.398 73.954 6.0894
1645 1 5.48974 75.5387 7.3659
7907 2 3.66992 75.5363 6.08844
1186 1 8.21785 73.9575 7.3668
7376 2 10.0374 73.9608 8.65256
7852 2 7.30929 75.5411 8.65179
7853 2 9.12616 75.5363 6.08844
1243 1 0.934668 58.1817 10.0634
7430 2 2.75383 58.1938 11.3497
7462 2 0.0274257 59.7694 11.3275
1206 1 6.39091 58.1817 10.0634
1241 1 3.66437 59.7582 10.0415
7431 2 5.48366 59.7694 11.3275
7389 2 8.21007 58.1938 11.3497
1207 1 9.12061 59.7582 10.0415
1242 1 0.937762 61.3352 10.0211
7415 2 2.75718 61.3455 11.3069
7463 2 0.030616 62.9221 11.2879
1224 1 1.85033 62.931 12.568
1198 1 6.394 61.3352 10.0211
1244 1 3.6673 62.9126 10.0025
7413 2 5.48685 62.9221 11.2879
1193 1 4.57678 61.3553 12.5876
7388 2 8.21342 61.3455 11.3069
1196 1 9.12354 62.9126 10.0025
1195 1 7.30657 62.931 12.568
1163 1 10.033 61.3553 12.5876
1228 1 0.940501 64.4905 9.98563
7414 2 2.76018 64.499 11.2709
7454 2 0.0333683 66.0764 11.2559
1225 1 1.85331 66.0838 12.5349
1197 1 6.39674 64.4905 9.98563
1226 1 3.66981 66.0687 9.9708
7416 2 5.48961 66.0764 11.2559
1180 1 4.58 64.5072 12.5504
1178 1 7.30955 66.0838 12.5349
7382 2 8.21642 64.499 11.2709
1199 1 9.12605 66.0687 9.9708
1162 1 10.0362 64.5072 12.5504
1216 1 1.85559 69.2378 12.5108
1227 1 0.942735 67.6474 9.95812
7403 2 2.76263 67.6541 11.243
7455 2 0.035459 69.2321 11.2325
1184 1 6.39897 67.6474 9.95812
1229 1 3.67172 69.2263 9.94769
7401 2 5.4917 69.2321 11.2325
1179 1 4.58268 67.6606 12.5216
1181 1 7.31183 69.2378 12.5108
7381 2 8.21887 67.6541 11.243
1182 1 9.12796 69.2263 9.94769
1159 1 10.0389 67.6606 12.5216
1220 1 0.944256 70.8054 9.93961
7402 2 2.76429 70.8103 11.2243
1217 1 1.85687 72.3926 12.4967
7453 2 0.036633 72.3887 11.2187
1172 1 4.58449 70.8151 12.5025
1183 1 6.40049 70.8054 9.93961
1218 1 3.67281 72.3847 9.93396
7404 2 5.49287 72.3887 11.2187
1158 1 10.0407 70.8151 12.5025
7375 2 8.22053 70.8103 11.2243
1185 1 9.12905 72.3847 9.93396
1170 1 7.31311 72.3926 12.4967
1219 1 0.944878 73.9641 9.93078
7396 2 2.76493 73.9671 11.2155
7886 2 0.0367141 75.5456 11.215
1623 1 1.8569 75.5478 12.4931
1171 1 4.58516 73.9702 12.4936
1173 1 6.40112 73.9641 9.93078
1644 1 3.67294 75.5435 9.93009
7837 2 5.49295 75.5456 11.215
1155 1 10.0414 73.9702 12.4936
7374 2 8.22117 73.9671 11.2155
1589 1 9.12918 75.5435 9.93009
1588 1 7.31314 75.5478 12.4931
1190 1 2.75533 58.2291 15.2005
7411 2 0.936068 58.2178 13.918
1240 1 1.84692 59.7799 12.6089
1222 1 0.0293639 59.8023 15.1764
1194 1 4.57322 58.2051 12.6317
7386 2 6.39231 58.2178 13.918
1191 1 5.4856 59.8023 15.1764
7409 2 3.66619 59.7918 13.8948
1161 1 8.21157 58.2291 15.2005
1164 1 10.0295 58.2051 12.6317
1192 1 7.30316 59.7799 12.6089
7387 2 9.12243 59.7918 13.8948
1176 1 2.75958 61.3759 15.1539
7410 2 0.940012 61.3662 13.8732
1223 1 0.0334915 62.9499 15.1333
7379 2 6.39625 61.3662 13.8732
1174 1 5.48973 62.9499 15.1333
7412 2 3.66999 62.941 13.8533
1160 1 8.21582 61.3759 15.1539
7377 2 9.12623 62.941 13.8533
1175 1 2.76355 64.5243 15.1147
7399 2 0.943621 64.5162 13.8354
1214 1 0.0372303 66.099 15.0983
7378 2 6.39986 64.5162 13.8354
1177 1 5.49347 66.099 15.0983
7397 2 3.67335 66.0917 13.8196
1157 1 8.21979 64.5243 15.1147
7380 2 9.12959 66.0917 13.8196
1168 1 2.76696 67.674 15.0844
7398 2 0.946652 67.6676 13.8062
1215 1 0.0401857 69.2493 15.0731
7372 2 6.40289 67.6676 13.8062
7400 2 3.67595 69.2437 13.7952
1166 1 5.49642 69.2493 15.0731
1156 1 8.2232 67.674 15.0844
7370 2 9.13219 69.2437 13.7952
1167 1 2.76932 70.8247 15.0644
7395 2 0.948718 70.82 13.7868
1213 1 0.0418274 72.4003 15.0585
1169 1 5.49807 72.4003 15.0585
7393 2 3.67739 72.3965 13.781
7371 2 6.40496 70.82 13.7868
7373 2 9.13363 72.3965 13.781
1154 1 8.22556 70.8247 15.0644
1165 1 2.77014 73.9759 15.0554
7394 2 0.949452 73.973 13.7779
1622 1 0.04177 75.5515 15.0552
7369 2 6.40569 73.973 13.7779
7836 2 3.67738 75.5495 13.7776
1573 1 5.49801 75.5515 15.0552
1153 1 8.22638 73.9759 15.0554
7793 2 9.13362 75.5495 13.7776
7734 2 2.75585 58.271 19.0568
1534 1 0.937112 58.255 17.7698
7752 2 1.84857 59.8153 16.4625
7746 2 0.0306479 59.8412 19.0307
7738 2 4.57428 58.2431 16.487
1511 1 6.39335 58.255 17.7698
1532 1 3.66783 59.8263 17.7442
7735 2 5.48689 59.8412 19.0307
7689 2 8.21209 58.271 19.0568
7692 2 10.0305 58.2431 16.487
7736 2 7.30481 59.8153 16.4625
1512 1 9.12407 59.8263 17.7442
1533 1 0.942293 61.398 17.7203
7726 2 2.76169 61.4117 19.0063
7748 2 1.85323 62.9608 16.4186
7747 2 0.0364887 62.9825 18.9838
7737 2 4.57905 61.3879 16.4396
1507 1 6.39853 61.398 17.7203
1535 1 3.67296 62.9701 17.6983
7724 2 5.49273 62.9825 18.9838
7688 2 8.21793 61.4117 19.0063
7691 2 10.0353 61.3879 16.4396
7739 2 7.30947 62.9608 16.4186
1505 1 9.1292 62.9701 17.6983
1527 1 0.947339 64.5425 17.6786
7725 2 2.76749 64.5537 18.9637
7749 2 1.85753 66.1077 16.383
7742 2 0.0421369 66.1251 18.946
7730 2 4.58357 64.5341 16.3996
1506 1 6.40358 64.5425 17.6786
1525 1 3.67784 66.1152 17.6612
7727 2 5.49838 66.1251 18.946
7681 2 8.22373 64.5537 18.9637
7690 2 10.0398 64.5341 16.3996
1508 1 9.13408 66.1152 17.6612
7728 2 7.31376 66.1077 16.383
1526 1 0.951893 67.6882 17.6465
7712 2 2.7728 67.6967 18.9311
7744 2 1.86096 69.2556 16.3574
7743 2 0.0468711 69.2684 18.919
7729 2 4.58751 67.6816 16.3689
1495 1 6.40813 67.6882 17.6465
1528 1 3.68187 69.2613 17.6346
7710 2 5.50311 69.2684 18.919
7680 2 8.22904 67.6967 18.9311
7683 2 10.0437 67.6816 16.3689
7731 2 7.3172 69.2556 16.3574
1493 1 9.13811 69.2613 17.6346
1520 1 0.955165 70.8345 17.6255
7711 2 2.77666 70.8401 18.9098
7745 2 1.86287 72.4041 16.3427
7741 2 0.0495735 72.4119 18.9037
1494 1 6.4114 70.8345 17.6255
7716 2 4.59027 70.8298 16.3486
1518 1 3.68415 72.4078 17.6194
7713 2 5.50581 72.4119 18.9037
7666 2 8.2329 70.8401 18.9098
7682 2 10.0465 70.8298 16.3486
1496 1 9.14039 72.4078 17.6194
7714 2 7.31911 72.4041 16.3427
1519 1 0.956284 73.9812 17.6164
7701 2 2.77798 73.9837 18.9007
8159 2 1.86278 75.5528 16.3395
8158 2 0.0493884 75.5554 18.9008
1477 1 6.41252 73.9812 17.6164
7715 2 4.59121 73.9785 16.3396
8141 2 5.50563 75.5554 18.9008
1920 1 3.68401 75.5545 17.6163
7665 2 8.23422 73.9837 18.9007
7667 2 10.0474 73.9785 16.3396
8148 2 7.31901 75.5528 16.3395
1894 1 9.14024 75.5545 17.6163
1530 1 1.84333 56.7151 20.3687
7722 2 0.936749 58.3027 21.6276
7732 2 3.66135 56.735 21.6568
1503 1 4.57461 58.2839 20.3401
7686 2 6.39299 58.3027 21.6276
1452 1 10.0308 58.2839 20.3401
1509 1 7.29957 56.7151 20.3687
7685 2 9.11759 56.735 21.6568
1531 1 1.84966 59.8532 20.3126
7721 2 0.94396 61.4389 21.5733
1523 1 1.85612 62.9926 20.2633
1502 1 4.58099 61.4227 20.2869
7678 2 6.4002 61.4389 21.5733
7720 2 3.66844 59.8707 21.5996
1451 1 10.0372 61.4227 20.2869
1501 1 7.3059 59.8532 20.3126
7687 2 9.12468 59.8707 21.5996
1504 1 7.31236 62.9926 20.2633
7708 2 0.951474 64.5761 21.5275
1524 1 1.86261 66.1333 20.2237
1491 1 4.58751 64.5629 20.2421
7677 2 6.40771 64.5761 21.5275
7723 2 3.67581 63.0074 21.5491
7706 2 3.68335 66.145 21.5087
1450 1 10.0438 64.5629 20.2421
7676 2 9.13205 63.0074 21.5491
1489 1 7.31885 66.1333 20.2237
7679 2 9.13959 66.145 21.5087
7707 2 0.958793 67.714 21.4929
1516 1 1.86831 69.2745 20.1955
1490 1 4.59377 67.7039 20.2081
7663 2 6.41503 67.714 21.4929
7709 2 3.69005 69.2828 21.4803
1443 1 10.05 67.7039 20.2081
1492 1 7.32454 69.2745 20.1955
7661 2 9.14629 69.2828 21.4803
7700 2 0.964385 70.8515 21.4709
1517 1 1.87166 72.4157 20.1798
1476 1 4.59849 70.8451 20.1861
7662 2 6.42062 70.8515 21.4709
7698 2 3.69403 72.4201 21.4647
1442 1 10.0547 70.8451 20.1861
1474 1 7.3279 72.4157 20.1798
7664 2 9.15027 72.4201 21.4647
7699 2 0.966347 73.9885 21.4617
1914 1 1.87142 75.5567 20.177
1475 1 4.60014 73.9862 20.1768
7645 2 6.42259 73.9885 21.4617
8140 2 3.69375 75.557 21.462
1427 1 10.0564 73.9862 20.1768
1893 1 7.32765 75.5567 20.177
8093 2 9.14999 75.557 21.462
1483 1 0.934177 58.358 25.4856
1499 1 2.75504 58.3175 22.9117
1529 1 0.0231045 56.7511 22.9426
7718 2 1.8405 56.7751 24.2314
1446 1 6.39042 58.358 25.4856
1497 1 3.65772 56.7944 25.5191
1498 1 5.47934 56.7511 22.9426
7674 2 4.57286 58.3403 24.1999
1445 1 9.11395 56.7944 25.5191
1449 1 8.21128 58.3175 22.9117
7620 2 10.0291 58.3403 24.1999
7684 2 7.29674 56.7751 24.2314
1482 1 0.943875 61.4858 25.4219
1487 1 2.76291 61.4514 22.854
1521 1 0.0308003 59.8843 22.882
7719 2 1.8491 59.9056 24.1695
1438 1 6.40011 61.4858 25.4219
1481 1 3.66702 59.9217 25.4529
1500 1 5.48704 59.8843 22.882
7673 2 4.58175 61.471 24.1408
1447 1 9.12326 59.9217 25.4529
1448 1 8.21915 61.4514 22.854
7619 2 10.038 61.471 24.1408
7672 2 7.30534 59.9056 24.1695
1468 1 0.954889 64.6152 25.3685
1486 1 2.7714 64.5866 22.8054
1522 1 0.0389517 63.0189 22.8283
7704 2 1.85839 63.0368 24.1145
1437 1 6.41113 64.6152 25.3685
1484 1 3.67728 63.0503 25.3935
1485 1 5.49519 63.0189 22.8283
7659 2 4.5915 64.6027 24.0912
1436 1 9.13352 63.0503 25.3935
1441 1 8.22763 64.5866 22.8054
7618 2 10.0477 64.6027 24.0912
7675 2 7.31462 63.0368 24.1145
1467 1 0.967123 67.7448 25.3305
1472 1 2.78011 67.7223 22.7693
1514 1 0.0476832 66.1545 22.7857
7705 2 1.86851 66.1687 24.0711
1515 1 0.055878 69.2899 22.7563
7696 2 1.87813 69.2998 24.0418
1423 1 6.42336 67.7448 25.3305
1466 1 3.68906 66.1801 25.3474
1488 1 5.50392 66.1545 22.7857
7658 2 4.60167 67.7345 24.0547
1470 1 5.51212 69.2899 22.7563
1439 1 9.14529 66.1801 25.3474
1440 1 8.23635 67.7223 22.7693
7611 2 10.0579 67.7345 24.0547
7657 2 7.32475 66.1687 24.0711
7660 2 7.33437 69.2998 24.0418
1460 1 0.977649 70.8717 25.3086
1471 1 2.78712 70.8572 22.7467
7697 2 1.88415 72.4291 24.0264
1513 1 0.0609612 72.4241 22.7405
1473 1 5.5172 72.4241 22.7405
1458 1 3.70882 72.4338 25.3029
1422 1 6.43389 70.8717 25.3086
1469 1 3.70099 69.3087 25.3177
7644 2 4.60993 70.8647 24.0324
1424 1 9.16506 72.4338 25.3029
7642 2 7.34038 72.4291 24.0264
1421 1 9.15723 69.3087 25.3177
1426 1 8.24335 70.8572 22.7467
7610 2 10.0662 70.8647 24.0324
1459 1 0.981625 73.9953 25.3002
1461 1 2.78964 73.9909 22.7375
8126 2 1.88375 75.5572 24.0238
1913 1 0.0606089 75.5577 22.7378
7643 2 4.61294 73.9931 24.0235
1406 1 6.43786 73.9953 25.3002
1882 1 5.51685 75.5577 22.7378
1881 1 3.70833 75.5568 25.3004
7596 2 10.0692 73.9931 24.0235
1425 1 8.24588 73.9909 22.7375
8092 2 7.33999 75.5572 24.0238
1829 1 9.16457 75.5568 25.3004
1479 1 1.83404 56.8485 28.0995
7670 2 2.75115 58.3865 26.7745
7717 2 0.0179605 56.824 26.8086
1434 1 4.5676 58.4088 28.0633
7669 2 5.4742 56.824 26.8086
1386 1 10.0238 58.4088 28.0633
1444 1 7.29028 56.8485 28.0995
7617 2 8.20739 58.3865 26.7745
1480 1 1.84516 59.9686 28.0269
7655 2 2.76203 61.5105 26.7091
7702 2 0.0283154 59.9485 26.741
1433 1 4.57936 61.5285 27.9917
7671 2 5.48455 59.9485 26.741
1385 1 10.0356 61.5285 27.9917
1432 1 7.30139 59.9686 28.0269
7616 2 8.21827 61.5105 26.7091
1464 1 1.85796 63.0892 27.9595
7654 2 2.7746 64.6352 26.6544
7703 2 0.0399385 63.0727 26.6799
7636 2 0.956175 64.6759 29.2164
1419 1 4.59362 64.6505 27.9315
7653 2 5.49618 63.0727 26.6799
7605 2 6.41241 64.6759 29.2164
7652 2 3.67581 63.1183 29.2452
1384 1 10.0499 64.6505 27.9315
1435 1 7.3142 63.0892 27.9595
7609 2 8.23084 64.6352 26.6544
7604 2 9.13205 63.1183 29.2452
1465 1 1.8739 66.212 27.909
7640 2 2.78878 67.7596 26.6162
7694 2 0.0535108 66.1976 26.633
7635 2 0.976058 67.7906 29.1772
1418 1 4.61102 67.7728 27.8921
7656 2 5.50975 66.1976 26.633
7592 2 6.4323 67.7906 29.1772
7634 2 3.69395 66.2336 29.1935
1377 1 10.0673 67.7728 27.8921
1417 1 7.33014 66.212 27.909
7608 2 8.24502 67.7596 26.6162
7607 2 9.15019 66.2336 29.1935
1456 1 1.89146 69.3323 27.8809
7639 2 2.80109 70.8805 26.5955
7695 2 0.0674294 69.3206 26.6039
7628 2 0.994494 70.8992 29.1616
1457 1 1.90365 72.4453 27.8702
7693 2 0.0765988 72.4393 26.5904
1405 1 4.62685 70.8899 27.8737
7638 2 5.52367 69.3206 26.6039
7591 2 6.45073 70.8992 29.1616
7637 2 3.71428 69.3459 29.1668
7641 2 5.53284 72.4393 26.5904
7626 2 3.72824 72.4506 29.1596
1376 1 10.0831 70.8899 27.8737
1420 1 7.34769 69.3323 27.8809
7595 2 8.25733 70.8805 26.5955
7590 2 9.17052 69.3459 29.1668
1403 1 7.35989 72.4453 27.8702
7593 2 9.18448 72.4506 29.1596
7629 2 2.80584 73.9973 26.5881
7627 2 1.00178 74.0012 29.1583
1863 1 1.90296 75.5534 27.8677
8125 2 0.0760584 75.5554 26.588
1404 1 4.63338 73.9993 27.8686
7581 2 6.45802 74.0012 29.1583
8077 2 5.5323 75.5554 26.588
8076 2 3.72749 75.552 29.157
1365 1 10.0896 73.9993 27.8686
7594 2 8.26208 73.9973 26.5881
1828 1 7.3592 75.5534 27.8677
8021 2 9.18373 75.552 29.157
1430 1 2.74185 58.4759 30.6472
1478 1 0.00747678 56.9185 30.685
7647 2 1.82086 56.9631 31.972
7651 2 0.926972 58.4451 29.3522
1429 1 5.46372 56.9185 30.685
7602 2 4.55535 58.5215 31.9336
7614 2 6.38321 58.4451 29.3522
7668 2 3.64917 56.8853 29.3888
1383 1 8.19809 58.4759 30.6472
7572 2 10.0116 58.5215 31.9336
7612 2 7.2771 56.9631 31.972
7613 2 9.10541 56.8853 29.3888
1415 1 2.75569 61.5845 30.5667
1462 1 0.0204559 60.0308 30.6074
7648 2 1.83452 60.0764 31.8927
7650 2 0.940128 61.5608 29.2786
1431 1 5.47669 60.0308 30.6074
7601 2 4.57078 61.6282 31.8503
7606 2 6.39637 61.5608 29.2786
7649 2 3.66145 60.0033 29.315
1382 1 8.21193 61.5845 30.5667
7571 2 10.027 61.6282 31.8503
7600 2 7.29076 60.0764 31.8927
7615 2 9.11769 60.0033 29.315
1414 1 2.774 64.6955 30.4961
1463 1 0.0356298 63.1393 30.5286
7632 2 1.85177 63.1782 31.8095
1413 1 5.49187 63.1393 30.5286
7588 2 4.591 64.7287 31.7757
1375 1 8.23023 64.6955 30.4961
7570 2 10.0472 64.7287 31.7757
7603 2 7.308 63.1782 31.8095
1401 1 2.79941 67.8082 30.4555
1454 1 0.0573584 66.2522 30.4711
7633 2 1.87581 66.2787 31.75
1416 1 5.5136 66.2522 30.4711
7587 2 4.61925 67.8279 31.7359
1374 1 8.25565 67.8082 30.4555
7567 2 10.0755 67.8279 31.7359
7586 2 7.33205 66.2787 31.75
1400 1 2.82382 70.9118 30.4465
1455 1 0.0833772 69.3623 30.4477
7624 2 1.90643 69.3746 31.7305
1399 1 5.53962 69.3623 30.4477
7580 2 4.64764 70.9179 31.7345
1364 1 8.28006 70.9118 30.4465
7566 2 10.1039 70.9179 31.7345
7589 2 7.36266 69.3746 31.7305
1392 1 2.83357 74.003 30.4469
1453 1 0.103485 72.4574 30.4477
7625 2 1.92759 72.4613 31.7373
1862 1 0.102478 75.5488 30.4448
8055 2 1.92659 75.5485 31.7343
1402 1 5.55972 72.4574 30.4477
7579 2 4.65815 74.0049 31.7371
1813 1 5.55872 75.5488 30.4448
1363 1 8.28981 74.003 30.4469
7563 2 10.1144 74.0049 31.7371
7578 2 7.38383 72.4613 31.7373
8020 2 7.38283 75.5485 31.7343
1411 1 0.911742 58.5683 33.239
7598 2 2.72329 58.6217 34.5169
1428 1 3.63341 57.0104 33.2752
1407 1 1.79876 57.13 35.8658
1380 1 6.36798 58.5683 33.239
7597 2 5.44585 57.0611 34.5553
1368 1 4.53095 58.6977 35.8356
1378 1 7.255 57.13 35.8658
1379 1 9.08965 57.0104 33.2752
7569 2 8.17953 58.6217 34.5169
10910 2 10.9021 57.0611 34.5553
1350 1 9.98719 58.6977 35.8356
1410 1 0.927531 61.6666 33.1554
7584 2 2.73898 61.7236 34.4255
7630 2 0.0021547 60.1764 34.4738
1408 1 1.80796 60.2585 35.8024
1372 1 6.38377 61.6666 33.1554
1409 1 3.64737 60.1202 33.199
7599 2 5.45839 60.1764 34.4738
1367 1 4.54223 61.8077 35.7647
1366 1 7.2642 60.2585 35.8024
1381 1 9.10361 60.1202 33.199
7568 2 8.19522 61.7236 34.4255
1349 1 9.99846 61.8077 35.7647
1397 1 0.947599 64.7562 33.0673
7583 2 2.76121 64.7996 34.3258
7631 2 0.0216113 63.264 34.3735
1393 1 1.82213 63.3455 35.7226
1371 1 6.40384 64.7562 33.0673
1412 1 3.66373 63.2099 33.1087
7582 2 5.47785 63.264 34.3735
1357 1 4.55802 64.8631 35.668
1370 1 9.11997 63.2099 33.1087
7565 2 8.21745 64.7996 34.3258
1369 1 7.27837 63.3455 35.7226
1348 1 10.0143 64.8631 35.668
1396 1 0.984895 67.8552 33.0221
7576 2 2.80178 67.8687 34.2867
7622 2 0.0542598 66.336 34.2976
1394 1 1.84365 66.4033 35.6291
1361 1 6.44113 67.8552 33.0221
1395 1 3.69234 66.3052 33.0403
7585 2 5.5105 66.336 34.2976
1356 1 4.63976 67.8955 35.6316
1373 1 9.14858 66.3052 33.0403
7564 2 8.25802 67.8687 34.2867
1355 1 7.29989 66.4033 35.6291
1347 1 10.096 67.8955 35.6316
1391 1 1.02835 70.9272 33.0366
7575 2 2.85057 70.9296 34.3176
7623 2 0.101862 69.395 34.3037
1387 1 1.93915 69.3908 35.658
1360 1 6.48459 70.9272 33.0366
1398 1 3.73605 69.3948 33.0297
7574 2 5.5581 69.395 34.3037
1353 1 4.68509 70.9334 35.6353
1359 1 9.19229 69.3948 33.0297
7562 2 8.3068 70.9296 34.3176
1358 1 7.39539 69.3908 35.658
1346 1 10.1413 70.9334 35.6353
7621 2 0.137075 72.4686 34.3238
1388 1 1.96679 72.4699 35.6296
7573 2 2.87006 74.0086 34.3255
1390 1 1.03881 74.0067 33.0359
1791 1 1.96654 75.5499 35.6281
8054 2 0.135676 75.5485 34.3204
1352 1 4.69591 74.0109 35.6324
7577 2 5.59331 72.4686 34.3238
1389 1 3.76472 72.4663 33.0364
1354 1 6.49505 74.0067 33.0359
8005 2 5.59191 75.5485 34.3204
1812 1 3.7637 75.5471 33.0336
1345 1 10.1522 74.0109 35.6324
1351 1 7.42302 72.4699 35.6296
1362 1 9.22096 72.4663 33.0364
7561 2 8.3263 74.0086 34.3255
1762 1 7.42278 75.5499 35.6281
1763 1 9.21994 75.5471 33.0336
7774 2 0.889563 58.7505 37.0951
13937 1 2.68024 58.8791 38.4212
7776 2 3.61433 57.1806 37.1326
7763 2 6.3458 58.7505 37.0951
13936 1 5.41494 57.2808 38.4451
7762 2 9.07057 57.1806 37.1326
13902 1 8.13647 58.8791 38.4212
16764 1 10.8712 57.2808 38.4451
7773 2 0.900498 61.8652 37.0001
13933 1 2.6514 62.095 38.37
7772 2 3.62286 60.3126 37.0514
7760 2 6.35674 61.8652 37.0001
13938 1 5.39883 60.4804 38.398
7764 2 9.07909 60.3126 37.0514
13901 1 8.10763 62.095 38.37
16762 1 10.8551 60.4804 38.398
7770 2 0.923091 64.9193 36.8691
13932 1 2.38235 65.5407 38.4279
7759 2 6.37933 64.9193 36.8691
7775 2 3.64086 63.3985 36.9341
13931 1 5.33412 63.7183 38.3522
7758 2 9.0971 63.3985 36.9341
13896 1 7.83859 65.5407 38.4279
16763 1 10.7904 63.7183 38.3522
7769 2 0.964834 67.8827 36.8749
13922 1 2.17923 69.1137 38.3002
7756 2 6.42107 67.8827 36.8749
7768 2 3.64277 66.4074 36.8133
13934 1 4.86929 67.2651 38.3694
7761 2 9.099 66.4074 36.8133
13895 1 7.63547 69.1137 38.3002
16760 1 10.3255 67.2651 38.3694
7767 2 1.09308 70.9216 36.8972
13921 1 2.17818 72.4245 38.2397
7755 2 6.54932 70.9216 36.8972
7771 2 3.77611 69.3827 36.876
13920 1 4.90656 70.7923 38.24
7754 2 9.23234 69.3827 36.876
13882 1 7.63442 72.4245 38.2397
16761 1 10.3628 70.7923 38.24
7766 2 1.10933 74.0126 36.9062
7753 2 6.56557 74.0126 36.9062
7765 2 3.83438 72.4639 36.9091
13923 1 4.90998 74.0211 38.2428
8184 2 3.83137 75.5619 36.9063
7757 2 9.29062 72.4639 36.9091
16759 1 10.3662 74.0211 38.2428
8170 2 9.2876 75.5619 36.9063
19559 2 1.78663 57.3204 39.6966
19542 2 2.69035 59.0689 42.2043
13929 1 0.851212 59.0502 40.9688
13935 1 3.58801 57.4292 40.9988
19546 2 4.51377 58.9139 39.6595
19541 2 5.42184 57.4561 42.2446
13899 1 6.30745 59.0502 40.9688
19548 2 7.24287 57.3204 39.6966
22378 2 10.8781 57.4561 42.2446
13898 1 9.04425 57.4292 40.9988
19497 2 8.14659 59.0689 42.2043
19500 2 9.97001 58.9139 39.6595
19560 2 1.78412 60.5135 39.6172
13928 1 0.816921 62.33 40.9033
19534 2 2.675 62.3255 42.1047
13927 1 3.56544 60.6791 40.937
19545 2 4.50676 62.1176 39.5706
19543 2 5.41295 60.6902 42.1587
13893 1 6.27316 62.33 40.9033
19544 2 7.24036 60.5135 39.6172
22374 2 10.8692 60.6902 42.1587
13900 1 9.02168 60.6791 40.937
19496 2 8.13124 62.3255 42.1047
19499 2 9.963 62.1176 39.5706
19556 2 1.77078 63.7474 39.5086
13918 1 0.828374 65.6418 40.6841
19533 2 2.63025 65.671 41.9732
13930 1 3.53014 63.987 40.8477
19538 2 4.45856 65.4056 39.4333
13892 1 6.28461 65.6418 40.6841
19532 2 5.38485 63.9924 42.0427
19547 2 7.22702 63.7474 39.5086
22375 2 10.8411 63.9924 42.0427
13891 1 8.98638 63.987 40.8477
19489 2 8.08648 65.671 41.9732
19498 2 9.9148 65.4056 39.4333
19557 2 1.6184 67.2889 39.3862
13917 1 0.74342 68.9634 40.6473
19520 2 2.55708 69.0136 41.9482
13916 1 3.55054 67.2397 40.568
19537 2 4.29461 69.0655 39.4223
13879 1 6.19966 68.9634 40.6473
19535 2 5.32295 67.335 41.9437
19536 2 7.07464 67.2889 39.3862
22370 2 10.7792 67.335 41.9437
13894 1 9.00678 67.2397 40.568
19488 2 8.01331 69.0136 41.9482
19491 2 9.75085 69.0655 39.4223
19552 2 1.5268 70.7536 39.4618
13910 1 0.642905 72.3519 40.7673
19519 2 2.51502 72.371 41.9951
13919 1 3.40509 70.6597 40.7295
13878 1 6.09914 72.3519 40.7673
19518 2 5.2582 70.6962 41.9773
19524 2 4.23768 72.3893 39.4827
19539 2 6.98304 70.7536 39.4618
22371 2 10.7144 70.6962 41.9773
13877 1 8.86133 70.6597 40.7295
19474 2 7.97126 72.371 41.9951
19490 2 9.69392 72.3893 39.4827
19553 2 1.50173 74.0238 39.4931
13908 1 3.36757 74.0326 40.7642
19521 2 5.23676 74.0338 41.9997
19522 2 6.95797 74.0238 39.4931
22369 2 10.693 74.0338 41.9997
13880 1 8.82381 74.0326 40.7642
13925 1 1.77417 57.5543 43.5323
19530 2 0.873906 59.1984 44.74
19540 2 3.60624 57.5751 44.7832
13889 1 4.49591 59.1834 43.4945
19494 2 6.33014 59.1984 44.74
13897 1 7.2304 57.5543 43.5323
13836 1 9.95215 59.1834 43.4945
19493 2 9.06248 57.5751 44.7832
13926 1 1.76184 60.8206 43.4494
19529 2 0.857526 62.4707 44.6389
19528 2 3.59559 60.8302 44.6919
13871 1 2.67917 62.552 45.9105
13888 1 4.48777 62.4647 43.3857
19486 2 6.31376 62.4707 44.6389
13887 1 7.21808 60.8206 43.4494
13835 1 9.94401 62.4647 43.3857
19495 2 9.05183 60.8302 44.6919
13832 1 8.13541 62.552 45.9105
13914 1 1.75099 64.1117 43.3088
19516 2 0.826084 65.7596 44.543
19531 2 3.57059 64.1153 44.5862
13870 1 2.65205 65.8161 45.822
13875 1 4.45495 65.7512 43.259
19485 2 6.28232 65.7596 44.543
13890 1 7.20723 64.1117 43.3088
13869 1 5.39527 64.1848 45.8616
16733 1 10.8515 64.1848 45.8616
13834 1 9.91119 65.7512 43.259
19484 2 9.02682 64.1153 44.5862
13825 1 8.10829 65.8161 45.822
13915 1 1.70255 67.3853 43.2222
19515 2 0.785289 69.0549 44.5042
19514 2 3.53343 67.4054 44.516
13856 1 2.62473 69.0858 45.7735
13874 1 4.41129 69.0133 43.1971
19471 2 6.24153 69.0549 44.5042
13873 1 7.15879 67.3853 43.2222
13872 1 5.36566 67.449 45.7921
16724 1 10.8219 67.449 45.7921
13827 1 9.86753 69.0133 43.1971
19487 2 8.98967 67.4054 44.516
13824 1 8.08097 69.0858 45.7735
13906 1 1.67025 70.6755 43.2123
19508 2 0.762385 72.3726 44.5097
19517 2 3.49828 70.7097 44.5054
13855 1 2.61348 72.3815 45.7583
13860 1 4.37969 72.3531 43.2409
19470 2 6.21862 72.3726 44.5097
13876 1 7.12649 70.6755 43.2123
13854 1 5.34476 70.7283 45.7615
16725 1 10.801 70.7283 45.7615
13826 1 9.83593 72.3531 43.2409
19469 2 8.95452 70.7097 44.5054
13810 1 8.06971 72.3815 45.7583
13907 1 1.64428 74.0378 43.2512
19506 2 3.48827 74.0395 44.5105
13857 1 5.34097 74.0409 45.7567
13858 1 7.10052 74.0378 43.2512
19472 2 8.94451 74.0395 44.5105
16723 1 10.7972 74.0409 45.7567
13867 1 0.884205 59.36 48.547
13885 1 2.69179 59.2838 46.0154
19526 2 1.79408 57.6736 47.32
13883 1 3.61605 57.7338 48.5914
13830 1 6.34044 59.36 48.547
13884 1 5.42331 57.6542 46.0601
19482 2 4.51767 59.2995 47.2765
19492 2 7.25031 57.6736 47.32
16744 1 10.8796 57.6542 46.0601
13829 1 9.07229 57.7338 48.5914
13833 1 8.14803 59.2838 46.0154
19434 2 9.97391 59.2995 47.2765
13866 1 0.871029 62.6148 48.4574
19527 2 1.78304 60.9293 47.2307
13865 1 3.60679 60.9874 48.5014
13822 1 6.32727 62.6148 48.4574
13886 1 5.41529 60.9171 45.9644
19481 2 4.50252 62.5615 47.1849
19480 2 7.23928 60.9293 47.2307
16732 1 10.8715 60.9171 45.9644
13831 1 9.06303 60.9874 48.5014
19433 2 9.95876 62.5615 47.1849
13852 1 0.851772 65.8694 48.3832
19512 2 1.76409 64.1944 47.1428
13868 1 3.58995 64.2419 48.4175
13821 1 6.30801 65.8694 48.3832
19467 2 4.48057 65.8276 47.1068
19483 2 7.22033 64.1944 47.1428
13820 1 9.04619 64.2419 48.4175
19432 2 9.93681 65.8276 47.1068
13851 1 0.835351 69.1302 48.3333
19513 2 1.74036 67.4623 47.0799
13850 1 3.57078 67.4984 48.3551
13807 1 6.29159 69.1302 48.3333
19466 2 4.45746 69.1005 47.062
19465 2 7.19659 67.4623 47.0799
13823 1 9.02702 67.4984 48.3551
19425 2 9.9137 69.1005 47.062
13844 1 0.82798 72.404 48.3066
19504 2 1.72042 70.7437 47.0514
13853 1 3.55867 70.7656 48.3173
13806 1 6.28422 72.404 48.3066
19453 2 4.44347 72.3919 47.0455
19468 2 7.17665 70.7437 47.0514
13805 1 9.01491 70.7656 48.3173
19424 2 9.89971 72.3919 47.0455
19505 2 1.71369 74.0435 47.0425
13842 1 3.55541 74.0448 48.3017
19451 2 7.16993 74.0435 47.0425
13808 1 9.01164 74.0448 48.3017
13863 1 1.80738 57.7978 51.13
19478 2 2.70717 59.3761 49.8183
19459 2 0.897942 59.436 52.3648
19476 2 3.63002 57.8151 52.4033
13818 1 4.53156 59.4203 51.089
19477 2 5.43971 57.7522 49.8596
13828 1 7.26362 57.7978 51.13
19428 2 6.35418 59.436 52.3648
22345 2 10.896 57.7522 49.8596
13776 1 9.9878 59.4203 51.089
19431 2 8.16341 59.3761 49.8183
19427 2 9.08626 57.8151 52.4033
13864 1 1.79833 61.0431 51.0485
19463 2 2.69481 62.6274 49.7368
19458 2 0.887958 62.6791 52.291
19457 2 3.62137 61.0574 52.327
13817 1 4.52029 62.6661 51.01
19479 2 5.42965 61.0014 49.7768
13816 1 7.25457 61.0431 51.0485
19420 2 6.3442 62.6791 52.291
22330 2 10.8859 61.0014 49.7768
13775 1 9.97653 62.6661 51.01
19430 2 8.15105 62.6274 49.7368
19429 2 9.07761 61.0574 52.327
13848 1 1.78542 64.2892 50.9746
19462 2 2.67931 65.881 49.6679
19445 2 0.876673 65.9236 52.2282
19460 2 3.61044 64.3011 52.2578
13803 1 4.50677 65.9128 50.9433
19461 2 5.41533 64.2539 49.7001
13819 1 7.24165 64.2892 50.9746
19419 2 6.33291 65.9236 52.2282
22331 2 10.8716 64.2539 49.7001
13774 1 9.96301 65.9128 50.9433
19423 2 8.13555 65.881 49.6679
19418 2 9.06668 64.3011 52.2578
19443 2 3.59948 67.547 52.2029
13849 1 1.77259 67.5374 50.9164
19449 2 2.66476 69.1402 49.621
19444 2 0.86676 69.1716 52.1824
19409 2 6.323 69.1716 52.1824
13802 1 4.49582 69.1634 50.8944
19464 2 5.39971 67.5094 49.6415
13801 1 7.22883 67.5374 50.9164
22322 2 10.856 67.5094 49.6415
19421 2 9.05572 67.547 52.2029
13768 1 9.95205 69.1634 50.8944
19422 2 8.121 69.1402 49.621
19446 2 3.59128 70.7975 52.167
19439 2 0.860855 72.4245 52.1569
13840 1 1.76425 70.7909 50.8776
19448 2 2.65598 72.41 49.597
19408 2 6.31709 72.4245 52.1569
13791 1 4.49026 72.4197 50.8665
19447 2 5.38752 70.7738 49.6064
13804 1 7.22049 70.7909 50.8776
22323 2 10.8438 70.7738 49.6064
19407 2 9.04752 70.7975 52.167
13767 1 9.9465 72.4197 50.8665
19412 2 8.11222 72.41 49.597
19437 2 3.58808 74.0521 52.1522
13841 1 1.76134 74.0491 50.8614
19450 2 5.38287 74.0476 49.5926
13789 1 7.21758 74.0491 50.8614
19410 2 9.04432 74.0521 52.1522
22321 2 10.8391 74.0476 49.5926
13814 1 2.72272 59.4699 53.6367
19455 2 1.82079 57.8669 54.9507
13813 1 5.4545 57.8506 53.6746
19416 2 4.54544 59.4849 54.9147
19426 2 7.27702 57.8669 54.9507
16682 1 10.9107 57.8506 53.6746
13773 1 8.17896 59.4699 53.6367
19398 2 10.0017 59.4849 54.9147
13799 1 2.71351 62.7088 53.5649
19456 2 1.81341 61.103 54.8798
13815 1 5.44649 61.0893 53.5998
19415 2 4.53729 62.7212 54.8467
19414 2 7.26964 61.103 54.8798
16666 1 10.9027 61.0893 53.5998
13772 1 8.16975 62.7088 53.5649
19397 2 9.99353 62.7212 54.8467
13798 1 2.70355 65.9481 53.5036
19441 2 1.80482 64.3396 54.8161
13797 1 5.43657 64.3283 53.5326
19405 2 4.52868 65.9581 54.7886
19417 2 7.26105 64.3396 54.8161
16667 1 10.8928 64.3283 53.5326
13766 1 8.15979 65.9481 53.5036
19396 2 9.98491 65.9581 54.7886
19442 2 1.79663 67.577 54.7649
13787 1 2.69551 69.1891 53.4575
19403 2 7.25287 67.577 54.7649
19404 2 4.52138 69.1964 54.7454
13800 1 5.42727 67.5683 53.4784
16658 1 10.8835 67.5683 53.4784
19395 2 9.97762 69.1964 54.7454
13765 1 8.15175 69.1891 53.4575
19435 2 1.79065 70.8162 54.7305
13786 1 2.69106 72.432 53.4309
19406 2 7.24689 70.8162 54.7305
19401 2 4.51706 72.4365 54.7206
13785 1 5.42091 70.8103 53.4415
16659 1 10.8772 70.8103 53.4415
19394 2 9.9733 72.4365 54.7206
13759 1 8.1473 72.432 53.4309
19436 2 1.78823 74.057 54.7158
19399 2 7.24447 74.057 54.7158
13788 1 5.41848 74.0539 53.426
16657 1 10.8747 74.0539 53.426
13795 1 0.913935 59.512 56.1878
14111 1 1.83601 57.9349 58.7746
19752 2 0.011645 57.9111 57.5009
19745 2 2.73673 59.5264 57.467
13812 1 3.64532 57.8955 56.2232
13770 1 6.37017 59.512 56.1878
14098 1 4.56123 59.5488 58.7412
19744 2 5.46788 57.9111 57.5009
14052 1 10.0175 59.5488 58.7412
13769 1 9.10155 57.8955 56.2232
14100 1 7.29225 57.9349 58.7746
19710 2 8.19296 59.5264 57.467
13794 1 0.906339 62.7448 56.1214
14112 1 1.82996 61.1625 58.7092
19750 2 0.00528589 61.1416 57.4344
19741 2 2.72991 62.7567 57.4036
13793 1 3.63838 61.1284 56.1536
14097 1 4.5548 62.776 58.6791
13763 1 6.36258 62.7448 56.1214
19746 2 5.46152 61.1416 57.4344
14051 1 10.011 62.776 58.6791
13771 1 9.09462 61.1284 56.1536
14096 1 7.2862 61.1625 58.7092
19709 2 8.18615 62.7567 57.4036
13783 1 0.898548 65.9773 56.0646
14108 1 1.82339 64.3892 58.6512
19740 2 2.72301 65.9868 57.3496
13796 1 3.63048 64.361 56.0915
14090 1 4.54838 66.0022 58.6262
13762 1 6.35479 65.9773 56.0646
19739 2 5.45451 64.3718 57.3751
14099 1 7.27963 64.3892 58.6512
14050 1 10.0046 66.0022 58.6262
13761 1 9.08672 64.361 56.0915
19704 2 8.17925 65.9868 57.3496
22571 2 10.9108 64.3718 57.3751
13782 1 0.892207 69.2098 56.0218
14109 1 1.81742 67.615 58.6044
19730 2 2.71728 69.2168 57.3091
13781 1 3.62323 67.5935 56.0412
14089 1 4.54313 69.2275 58.5864
13756 1 6.34845 69.2098 56.0218
19742 2 5.44804 67.6017 57.3274
14088 1 7.27366 67.615 58.6044
14043 1 9.99937 69.2275 58.5864
13764 1 9.07946 67.5935 56.0412
19703 2 8.17352 69.2168 57.3091
22568 2 10.9043 67.6017 57.3274
13779 1 0.888532 72.4426 55.9969
14104 1 1.81314 70.84 58.5725
19729 2 2.71386 72.4471 57.2855
13784 1 3.61811 70.8261 56.0069
14076 1 4.54 72.4523 58.563
13755 1 6.34477 72.4426 55.9969
19728 2 5.44334 70.8319 57.295
14091 1 7.26937 70.84 58.5725
14042 1 9.99624 72.4523 58.563
13754 1 9.07434 70.8261 56.0069
19690 2 8.17009 72.4471 57.2855
22569 2 10.8996 70.8319 57.295
14105 1 1.8113 74.0646 58.5582
13777 1 3.61602 74.059 55.9921
19731 2 5.44136 74.0623 57.2808
14074 1 7.26754 74.0646 58.5582
13757 1 9.07226 74.059 55.9921
22567 2 10.8976 74.0623 57.2808
14094 1 2.75199 59.5822 61.2965
14110 1 0.0264676 57.9707 61.3282
19737 2 0.927787 59.563 60.0211
14093 1 5.48271 57.9707 61.3282
19707 2 6.38403 59.563 60.0211
19743 2 3.65861 57.9503 60.0532
19697 2 4.57474 59.5968 62.5767
14049 1 8.20823 59.5822 61.2965
19706 2 9.11485 57.9503 60.0532
19644 2 10.031 59.5968 62.5767
14086 1 2.74638 62.8042 61.2378
14106 1 0.0211016 61.1934 61.2662
19736 2 0.921925 62.7879 59.9614
19734 2 1.84405 61.2068 62.5474
14095 1 5.47734 61.1934 61.2662
19701 2 6.37816 62.7879 59.9614
19735 2 3.65302 61.1756 59.9904
19696 2 4.56955 62.8164 62.52
14048 1 8.20262 62.8042 61.2378
19708 2 9.10926 61.1756 59.9904
19643 2 10.0258 62.8164 62.52
19695 2 7.30029 61.2068 62.5474
14085 1 2.74088 66.0246 61.1882
14107 1 0.0154407 64.4146 61.2116
19726 2 0.916142 66.0116 59.9109
19722 2 1.83885 64.4256 62.4949
14084 1 5.47168 64.4146 61.2116
19700 2 6.37238 66.0116 59.9109
19738 2 3.64708 64.3999 59.9348
19683 2 4.56452 66.0345 62.4723
14041 1 8.19712 66.0246 61.1882
19699 2 9.10332 64.3999 59.9348
19642 2 10.0208 66.0345 62.4723
19698 2 7.29509 64.4256 62.4949
14072 1 2.73638 69.2437 61.1508
14102 1 0.0103334 67.6343 61.1678
19725 2 0.911389 69.2346 59.8729
19723 2 1.83418 67.6429 62.4527
19724 2 3.6417 67.6232 59.8901
14087 1 5.46657 67.6343 61.1678
19687 2 6.36763 69.2346 59.8729
19682 2 4.5604 69.2511 62.4363
14040 1 8.19262 69.2437 61.1508
19702 2 9.09794 67.6232 59.8901
19635 2 10.0166 69.2511 62.4363
19681 2 7.29042 67.6429 62.4527
14103 1 0.00662692 70.8528 61.1377
19714 2 1.83078 70.8591 62.4236
19727 2 3.63779 70.8458 59.8596
14070 1 5.46287 70.8528 61.1377
19685 2 9.09403 70.8458 59.8596
19684 2 7.28701 70.8591 62.4236
14071 1 2.73363 72.4618 61.1286
19718 2 0.908508 72.457 59.8504
19716 2 3.63607 74.0682 59.8457
19715 2 1.82919 74.0746 62.4098
14101 1 0.00495699 74.0707 61.1237
19686 2 6.36475 72.457 59.8504
19668 2 4.55785 72.4669 62.4147
14073 1 5.4612 74.0707 61.1237
14026 1 8.18987 72.4618 61.1286
19634 2 10.0141 72.4669 62.4147
19688 2 9.0923 74.0682 59.8457
19666 2 7.28543 74.0746 62.4098
14082 1 0.94234 59.6138 63.8535
19693 2 2.76503 59.6293 65.1331
19732 2 0.0391776 58.0211 65.1625
19733 2 1.84907 57.9863 62.6073
14046 1 6.39858 59.6138 63.8535
14092 1 3.67283 58.0045 63.8838
19692 2 5.49542 58.0211 65.1625
14045 1 9.12907 58.0045 63.8838
19641 2 8.22127 59.6293 65.1331
19705 2 7.3053 57.9863 62.6073
14081 1 0.937324 62.8309 63.7976
19679 2 2.7603 62.8441 65.079
19720 2 0.0345571 61.237 65.1052
14038 1 6.39356 62.8309 63.7976
14080 1 3.66797 61.2226 63.8247
19694 2 5.4908 61.237 65.1052
14047 1 9.12421 61.2226 63.8247
19640 2 8.21654 62.8441 65.079
14068 1 0.932477 66.046 63.7506
19678 2 2.75578 66.0567 65.0334
19721 2 0.0298579 64.4506 65.055
14037 1 6.38872 66.046 63.7506
14083 1 3.66296 64.4386 63.7728
19677 2 5.4861 64.4506 65.055
14036 1 9.11919 64.4386 63.7728
19633 2 8.21202 66.0567 65.0334
14067 1 0.928496 69.2593 63.7151
19664 2 2.75206 69.2675 64.9991
19712 2 0.0256643 67.6623 65.0147
14023 1 6.38473 69.2593 63.7151
14066 1 3.65845 67.6528 63.7312
19680 2 5.4819 67.6623 65.0147
14039 1 9.11469 67.6528 63.7312
19632 2 8.2083 69.2675 64.9991
19713 2 0.0225674 70.8724 64.9867
14069 1 3.65515 70.8655 63.7025
19662 2 5.47881 70.8724 64.9867
14021 1 9.11139 70.8655 63.7025
14060 1 0.926007 72.4716 63.6936
19663 2 2.7497 72.4771 64.978
19711 2 0.0210294 74.0817 64.9729
14022 1 6.38225 72.4716 63.6936
14058 1 3.65358 74.0775 63.6885
19665 2 5.47727 74.0817 64.9729
14024 1 9.10982 74.0775 63.6885
19618 2 8.20594 72.4771 64.978
14078 1 1.86248 58.0378 66.442
19675 2 0.954785 59.6621 67.6895
14030 1 2.7775 59.6769 68.9773
14077 1 0.0514022 58.0718 69.0056
14034 1 4.5884 59.6449 66.4129
19638 2 6.41102 59.6621 67.6895
19691 2 3.68506 58.056 67.7179
14029 1 5.50764 58.0718 69.0056
13986 1 10.0446 59.6449 66.4129
14044 1 7.31871 58.0378 66.442
19637 2 9.1413 58.056 67.7179
13983 1 8.23373 59.6769 68.9773
14079 1 1.858 61.2515 66.3852
19674 2 0.950343 62.8721 67.6374
14015 1 2.77333 62.885 68.9255
14062 1 0.0472978 61.2813 68.9505
14033 1 4.58382 62.8574 66.3593
19630 2 6.40658 62.8721 67.6374
19673 2 3.68069 61.2675 67.6626
14031 1 5.50354 61.2813 68.9505
13985 1 10.0401 62.8574 66.3593
14032 1 7.31424 61.2515 66.3852
19639 2 9.13692 61.2675 67.6626
13982 1 8.22957 62.885 68.9255
14064 1 1.85345 64.4627 66.3355
19660 2 0.946123 66.0795 67.5936
14014 1 2.76938 66.0901 68.8819
14063 1 0.0431839 64.4879 68.9026
14019 1 4.57944 66.0674 66.3142
19629 2 6.40236 66.0795 67.5936
19676 2 3.67629 64.4761 67.6143
14013 1 5.49942 64.4879 68.9026
13984 1 10.0357 66.0674 66.3142
14035 1 7.30969 64.4627 66.3355
19628 2 9.13253 64.4761 67.6143
13975 1 8.22562 66.0901 68.8819
14065 1 1.84939 67.6716 66.2956
19659 2 0.942631 69.2845 67.5603
14001 1 2.76611 69.293 68.8489
14054 1 0.039515 67.6918 68.864
14018 1 4.57583 69.2754 66.2801
19615 2 6.39887 69.2845 67.5603
19658 2 3.67237 67.6822 67.5755
14016 1 5.49575 67.6918 68.864
13977 1 10.0321 69.2754 66.2801
14017 1 7.30563 67.6716 66.2956
19631 2 9.12861 67.6822 67.5755
13974 1 8.22235 69.293 68.8489
14056 1 1.84636 70.8789 66.2678
14055 1 0.0367516 70.8937 68.8369
19661 2 3.66943 70.8864 67.5482
13999 1 5.49299 70.8937 68.8369
14020 1 7.3026 70.8789 66.2678
19613 2 9.12566 70.8864 67.5482
19652 2 0.940325 72.4881 67.5394
14000 1 2.76395 72.4941 68.8282
14057 1 1.84482 74.0852 66.2538
14053 1 0.0352661 74.0944 68.8229
14005 1 4.5735 72.4821 66.259
19614 2 6.39656 72.4881 67.5394
19650 2 3.66784 74.0896 67.5341
14002 1 5.4915 74.0944 68.8229
13976 1 10.0297 72.4821 66.259
13964 1 8.22019 72.4941 68.8282
14003 1 7.30106 74.0852 66.2538
19616 2 9.12408 74.0896 67.5341
14011 1 0.96302 59.7094 71.5571
19671 2 1.87509 58.0918 70.2673
13980 1 6.41926 59.7094 71.5571
14028 1 3.69293 58.1062 71.5846
19626 2 4.60117 59.6959 70.2395
13979 1 9.14917 58.1062 71.5846
19584 2 10.0574 59.6959 70.2395
19636 2 7.33133 58.0918 70.2673
14010 1 0.959354 62.913 71.5066
19672 2 1.87096 61.299 70.2132
13972 1 6.41559 62.913 71.5066
14009 1 3.68931 61.3116 71.531
19625 2 4.59699 62.9012 70.1887
13981 1 9.14554 61.3116 71.531
19583 2 10.0532 62.9012 70.1887
19624 2 7.3272 61.299 70.2132
13997 1 0.955885 66.113 71.4643
19656 2 1.86684 64.5025 70.1662
13971 1 6.41212 66.113 71.4643
14012 1 3.68569 64.5134 71.4843
19611 2 4.59305 66.103 70.1461
13970 1 9.14193 64.5134 71.4843
19582 2 10.0493 66.103 70.1461
19627 2 7.32308 64.5025 70.1662
19657 2 1.86318 67.7028 70.1285
13995 1 3.68247 67.7119 71.4469
19610 2 4.58979 69.302 70.1138
13973 1 9.13871 67.7119 71.4469
19576 2 10.046 69.302 70.1138
19609 2 7.31942 67.7028 70.1285
13996 1 0.95302 69.3102 71.4323
19648 2 1.86043 70.9007 70.1021
13961 1 6.40926 69.3102 71.4323
13998 1 3.68005 70.9079 71.4207
13959 1 9.13629 70.9079 71.4207
19612 2 7.31667 70.9007 70.1021
13991 1 0.951127 72.5053 71.4122
19649 2 1.85895 74.0971 70.0884
13960 1 6.40737 72.5053 71.4122
19599 2 4.58764 72.499 70.0936
13989 1 3.67875 74.1024 71.4071
19575 2 10.0439 72.499 70.0936
13962 1 9.13499 74.1024 71.4071
19597 2 7.31519 74.0971 70.0884
14007 1 1.83466 58.1399 74.2418
19603 2 0.95742 59.7639 75.2623
19622 2 2.78955 59.7312 72.777
19670 2 0.0634083 58.1292 72.8043
13968 1 4.5629 59.7415 74.2144
19578 2 6.41366 59.7639 75.2623
19620 2 3.68676 58.1635 75.2887
19621 2 5.51965 58.1292 72.8043
13950 1 10.0191 59.7415 74.2144
13978 1 7.2909 58.1399 74.2418
19577 2 9.143 58.1635 75.2887
19581 2 8.24579 59.7312 72.777
14008 1 1.83485 61.342 74.1885
19602 2 0.95484 62.9604 75.2141
19607 2 2.78551 62.9317 72.7273
19654 2 0.0594139 61.332 72.7513
13967 1 4.56302 62.9414 74.1644
19571 2 6.41108 62.9604 75.2141
19601 2 3.68426 61.3628 75.2373
19623 2 5.51565 61.332 72.7513
13949 1 10.0193 62.9414 74.1644
13966 1 7.29109 61.342 74.1885
19579 2 9.1405 61.3628 75.2373
19580 2 8.24175 62.9317 72.7273
13993 1 1.83492 64.5397 74.1422
19591 2 0.952337 66.1516 75.1738
19606 2 2.78167 66.1276 72.6857
19655 2 0.0554185 64.5302 72.7053
13957 1 4.56305 66.1371 74.1224
19570 2 6.40858 66.1516 75.1738
19604 2 3.68168 64.5566 75.1928
19605 2 5.51166 64.5302 72.7053
13948 1 10.0193 66.1371 74.1224
13969 1 7.29116 64.5397 74.1422
19569 2 9.13792 64.5566 75.1928
19574 2 8.23791 66.1276 72.6857
13994 1 1.83494 67.7336 74.1051
19646 2 0.0518537 67.7242 72.6685
19589 2 3.67934 67.7454 75.1573
19608 2 5.50809 67.7242 72.6685
13955 1 7.29118 67.7336 74.1051
19572 2 9.13558 67.7454 75.1573
19595 2 2.77849 69.3199 72.6542
19590 2 0.950241 69.3382 75.1435
13987 1 1.83495 70.9244 74.0791
19647 2 0.0491649 70.9149 72.6428
13956 1 4.56307 69.3293 74.0906
19564 2 6.40648 69.3382 75.1435
19592 2 3.67756 70.9302 75.1325
19593 2 5.5054 70.9149 72.6428
19573 2 8.23473 69.3199 72.6542
13947 1 10.0193 69.3293 74.0906
13958 1 7.29119 70.9244 74.0791
19562 2 9.1338 70.9302 75.1325
19587 2 0.948847 72.5215 75.1246
19594 2 2.77639 72.5095 72.6345
19645 2 0.0477173 74.1038 72.6295
13988 1 1.83496 74.1132 74.0657
13953 1 4.56308 72.519 74.0708
19563 2 6.40509 72.5215 75.1246
19596 2 5.50396 74.1038 72.6295
19585 2 3.6766 74.1125 75.1198
13946 1 10.0193 72.519 74.0708
19567 2 8.23263 72.5095 72.6345
19565 2 9.13284 74.1125 75.1198
13951 1 7.2912 74.1132 74.0657
7953 2 0.934428 77.1142 -1.57758
7961 2 2.76471 77.1117 -4.07108
1728 1 1.87689 78.6943 -3.01609
7966 2 0.036231 78.7029 -4.06799
1714 1 4.60556 77.1058 -3.01924
7923 2 6.39067 77.1142 -1.57758
7951 2 3.66231 78.7034 -1.57441
7962 2 5.49247 78.7029 -4.06799
1668 1 10.0618 77.1058 -3.01924
7926 2 8.22094 77.1117 -4.07108
1712 1 7.33312 78.6943 -3.01609
7924 2 9.11855 78.7034 -1.57441
7952 2 0.933807 80.2924 -1.56915
7957 2 2.76377 80.2938 -4.06287
1724 1 1.87472 81.8708 -3.0036
7967 2 0.0348511 81.8843 -4.05575
1713 1 4.60409 80.2826 -3.01086
7917 2 6.39005 80.2924 -1.56915
7954 2 3.6614 81.8809 -1.56184
7955 2 5.49109 81.8843 -4.05575
1667 1 10.0603 80.2826 -3.01086
7925 2 8.22001 80.2938 -4.06287
1715 1 7.33096 81.8708 -3.0036
7915 2 9.11764 81.8809 -1.56184
7942 2 0.932637 83.4691 -1.55254
7956 2 2.76198 83.4744 -4.0467
1725 1 1.87125 85.0461 -2.98322
1706 1 4.60125 83.4586 -2.99436
7916 2 6.38888 83.4691 -1.55254
1666 1 10.0575 83.4586 -2.99436
7920 2 8.21821 83.4744 -4.0467
1704 1 7.32749 85.0461 -2.98322
7941 2 0.93104 86.6436 -1.5283
7946 2 2.75948 86.6529 -4.02312
7964 2 0.0326848 85.064 -4.0358
1705 1 4.5972 86.6331 -2.97026
7903 2 6.38728 86.6436 -1.5283
7940 2 3.66 85.0567 -1.54134
7958 2 5.48892 85.064 -4.0358
1659 1 10.0534 86.6331 -2.97026
7918 2 9.11624 85.0567 -1.54134
7919 2 8.21571 86.6529 -4.02312
1720 1 1.86666 88.2196 -2.95558
7934 2 0.929155 89.8153 -1.49718
7945 2 2.75644 89.8285 -3.99285
7965 2 0.0298944 88.2411 -4.00876
1692 1 4.59213 89.8055 -2.93929
7902 2 6.38539 89.8153 -1.49718
7943 2 3.65824 88.2298 -1.51355
7944 2 5.48613 88.2411 -4.00876
1658 1 10.0484 89.8055 -2.93929
1707 1 7.3229 88.2196 -2.95558
7901 2 9.11448 88.2298 -1.51355
7906 2 8.21268 89.8285 -3.99285
1721 1 1.86117 91.3907 -2.92152
7933 2 0.927106 92.9836 -1.46014
7935 2 2.75303 93.0006 -3.95682
7963 2 0.0266503 91.415 -3.97549
1691 1 4.58626 92.9752 -2.90239
7885 2 6.38334 92.9836 -1.46014
7932 2 3.65626 91.3999 -1.47934
7947 2 5.48289 91.415 -3.97549
1643 1 10.0425 92.9752 -2.90239
1690 1 7.31741 91.3907 -2.92152
7904 2 9.1125 91.3999 -1.47934
7905 2 8.20926 93.0006 -3.95682
1698 1 0.939342 77.1128 2.22885
1710 1 2.75813 77.1111 -0.358632
1722 1 0.0297362 78.6983 -0.355448
7950 2 1.8461 78.7007 0.97134
1662 1 6.39558 77.1128 2.22885
7913 2 4.57447 77.1142 0.968099
1696 1 3.6672 78.6978 2.23212
1711 1 5.48597 78.6983 -0.355448
1665 1 8.21436 77.1111 -0.358632
7860 2 10.0307 77.1142 0.968099
1663 1 9.12343 78.6978 2.23212
7911 2 7.30234 78.7007 0.97134
1697 1 0.938641 80.2827 2.23755
1702 1 2.75741 80.2854 -0.350168
1723 1 0.0286866 81.8721 -0.342833
7938 2 1.84515 81.8731 0.984173
1654 1 6.39488 80.2827 2.23755
7912 2 4.57382 80.2871 0.976712
1699 1 3.66617 81.8672 2.24508
1700 1 5.48493 81.8721 -0.342833
1664 1 8.21365 80.2854 -0.350168
7859 2 10.0301 80.2871 0.976712
1652 1 9.1224 81.8672 2.24508
7914 2 7.30138 81.8731 0.984173
1684 1 0.93731 83.4515 2.25467
1701 1 2.75605 83.4585 -0.333501
1718 1 0.0270447 85.0445 -0.322244
7939 2 1.84366 85.0438 1.0051
1653 1 6.39355 83.4515 2.25467
7899 2 4.57258 83.4587 0.993662
1682 1 3.66456 85.0353 2.26623
1703 1 5.48328 85.0445 -0.322244
1657 1 8.21229 83.4585 -0.333501
7858 2 10.0288 83.4587 0.993662
1655 1 9.1208 85.0353 2.26623
7897 2 7.2999 85.0438 1.0051
1683 1 0.935468 86.6186 2.27968
1688 1 2.75416 86.6299 -0.309148
1639 1 6.39171 86.6186 2.27968
7898 2 4.57088 86.6284 1.01841
1685 1 3.66252 88.2014 2.29491
1656 1 8.2104 86.6299 -0.309148
7851 2 10.0271 86.6284 1.01841
1637 1 9.11876 88.2014 2.29491
1676 1 0.93325 89.7836 2.3118
1687 1 2.75188 89.7989 -0.277856
1719 1 0.0249401 88.2147 -0.294314
7930 2 1.84178 88.2124 1.03347
1638 1 6.38949 89.7836 2.3118
1686 1 5.48118 88.2147 -0.294314
7884 2 4.56885 89.7958 1.05017
1642 1 8.20811 89.7989 -0.277856
7850 2 10.0251 89.7958 1.05017
7900 2 7.29802 88.2124 1.03347
1675 1 0.930774 92.9463 2.35003
1677 1 2.74932 92.9651 -0.240576
1717 1 0.0225053 91.3824 -0.259899
7931 2 1.83963 91.3784 1.06838
1621 1 6.38701 92.9463 2.35003
1674 1 3.66016 91.3653 2.33022
1689 1 5.47874 91.3824 -0.259899
7883 2 4.5666 92.9603 1.08796
1640 1 9.1164 91.3653 2.33022
1641 1 8.20556 92.9651 -0.240576
7835 2 10.0228 92.9603 1.08796
7882 2 7.29586 91.3784 1.06838
7909 2 2.75875 77.1156 3.52714
1695 1 1.85093 78.6987 4.80436
7936 2 0.0303543 78.6998 3.53046
1650 1 4.57935 77.1158 4.80099
7910 2 5.48659 78.6998 3.53046
1596 1 10.0356 77.1158 4.80099
7857 2 8.21499 77.1156 3.52714
1648 1 7.30717 78.6987 4.80436
7895 2 2.75802 80.2837 3.53596
1680 1 1.84977 81.864 4.81771
7937 2 0.0292758 81.8674 3.54359
1649 1 4.57856 80.2815 4.80995
7893 2 5.48551 81.8674 3.54359
1595 1 10.0348 80.2815 4.80995
7856 2 8.21426 80.2837 3.53596
1651 1 7.30601 81.864 4.81771
7894 2 2.75662 83.4508 3.5533
1681 1 1.84798 85.0279 4.83948
7928 2 0.0276035 85.0337 3.56501
1635 1 4.57706 83.4461 4.82758
7896 2 5.48384 85.0337 3.56501
1594 1 10.0333 83.4461 4.82758
7849 2 8.21286 83.4508 3.5533
1633 1 7.30421 85.0279 4.83948
7929 2 0.0254818 88.198 3.59402
1672 1 1.8457 88.1901 4.86898
7880 2 2.75471 86.6161 3.57862
7878 2 5.48172 88.198 3.59402
1634 1 4.57501 86.6092 4.85332
1636 1 7.30194 88.1901 4.86898
1587 1 10.0312 86.6092 4.85332
7848 2 8.21095 86.6161 3.57862
1673 1 1.8431 91.3502 4.90528
7879 2 2.75242 89.7794 3.6111
1620 1 4.57255 89.7704 4.88635
1618 1 7.29934 91.3502 4.90528
1586 1 10.0288 89.7704 4.88635
7834 2 8.20865 89.7794 3.6111
7869 2 2.74987 92.9402 3.64971
7927 2 0.0230487 91.3601 3.62971
1619 1 4.56983 92.9295 4.92562
7881 2 5.47929 91.3601 3.62971
1572 1 10.0261 92.9295 4.92562
7833 2 8.20611 92.9402 3.64971
1646 1 2.76143 77.1199 7.36736
7891 2 0.941645 77.1185 6.08979
1678 1 0.0329198 78.7009 7.37117
7888 2 1.85233 78.7015 8.65748
7842 2 4.58091 77.1214 8.65343
7854 2 6.39788 77.1185 6.08979
1647 1 5.48916 78.7009 7.37117
7889 2 3.66941 78.7006 6.09344
1593 1 8.21767 77.1199 7.36736
7800 2 10.0372 77.1214 8.65343
7840 2 7.30856 78.7015 8.65748
7855 2 9.12565 78.7006 6.09344
1631 1 2.76046 80.2817 7.3773
7890 2 0.940752 80.2824 6.09934
1679 1 0.0315786 81.8623 7.38569
7872 2 1.8508 81.8612 8.67257
7841 2 4.57977 80.2815 8.66388
7846 2 6.39699 80.2824 6.09934
1629 1 5.48782 81.8623 7.38569
7892 2 3.66816 81.8641 6.10745
1592 1 8.21669 80.2817 7.3773
7799 2 10.036 80.2815 8.66388
7843 2 7.30704 81.8612 8.67257
7844 2 9.1244 81.8641 6.10745
1630 1 2.75879 83.4426 7.39626
7876 2 0.939184 83.4453 6.1177
7873 2 1.84864 85.0195 8.6965
1670 1 0.0296188 85.0225 7.40893
7827 2 4.57791 83.4405 8.68348
7845 2 6.39542 83.4453 6.1177
1632 1 5.48586 85.0225 7.40893
7874 2 3.66631 85.0262 6.12999
1585 1 8.21502 83.4426 7.39626
7798 2 10.0341 83.4405 8.68348
7825 2 7.30488 85.0195 8.6965
7847 2 9.12255 85.0262 6.12999
1616 1 2.75657 86.6019 7.42358
7875 2 0.937081 86.6067 6.14423
7864 2 1.84601 88.1762 8.72838
1671 1 0.0271893 88.181 7.44008
7826 2 4.57549 86.5981 8.71151
7831 2 6.39332 86.6067 6.14423
1614 1 5.48343 88.181 7.44008
7877 2 3.66399 88.1866 6.16029
1584 1 8.21281 86.6019 7.42358
7792 2 10.0317 86.5981 8.71151
7828 2 7.30225 88.1762 8.72838
7829 2 9.12023 88.1866 6.16029
1615 1 2.75396 89.7595 7.45829
7868 2 0.934583 89.7661 6.17803
7865 2 1.84303 91.3311 8.76704
1669 1 0.0244078 91.3375 7.47806
7815 2 4.57268 89.7539 8.74694
7830 2 6.39082 89.7661 6.17803
1617 1 5.48065 91.3375 7.47806
7866 2 3.66134 91.345 6.19731
1571 1 8.21019 89.7595 7.45829
7791 2 10.0289 89.7539 8.74694
7813 2 7.29927 91.3311 8.76704
7832 2 9.11758 91.345 6.19731
1605 1 2.75103 92.9151 7.49922
7867 2 0.931797 92.9234 6.21797
2077 1 0.0213412 94.4922 7.52158
8295 2 1.83977 94.4841 8.81114
7814 2 4.56955 92.9078 8.7885
7816 2 6.38804 92.9234 6.21797
2029 1 5.47758 94.4922 7.52158
8315 2 3.65844 94.5013 6.23984
1570 1 8.20727 92.9151 7.49922
7784 2 10.0258 92.9078 8.7885
8261 2 9.11468 94.5013 6.23984
8260 2 7.29601 94.4841 8.81114
1627 1 0.944515 77.1229 9.93189
7838 2 2.76445 77.1239 11.217
7870 2 0.0356932 78.7022 11.2215
1624 1 1.85569 78.7027 12.5001
1590 1 6.40075 77.1229 9.93189
1578 1 4.58456 77.1253 12.4953
1625 1 3.6721 78.7021 9.93617
7839 2 5.49193 78.7022 11.2215
7797 2 8.22069 77.1239 11.217
1548 1 10.0408 77.1253 12.4953
1591 1 9.12834 78.7021 9.93617
1576 1 7.31193 78.7027 12.5001
1626 1 0.943228 80.2811 9.94289
7823 2 2.76293 80.2803 11.2284
7871 2 0.0337317 81.8581 11.2378
1608 1 1.85345 81.8568 12.5173
1582 1 6.39947 80.2811 9.94289
1577 1 4.5828 80.2798 12.5075
1628 1 3.67041 81.8599 9.95197
7821 2 5.48997 81.8581 11.2378
7796 2 8.21917 80.2803 11.2284
1547 1 10.039 80.2798 12.5075
1580 1 9.12665 81.8599 9.95197
1579 1 7.30969 81.8568 12.5173
1612 1 0.941185 83.4383 9.96332
7822 2 2.76059 83.4356 11.2495
7862 2 0.0310767 85.0127 11.2634
1609 1 1.8505 85.0097 12.5441
1581 1 6.39742 83.4383 9.96332
1564 1 4.58017 83.4334 12.5296
7824 2 5.48732 85.0127 11.2634
1610 1 3.66806 85.0164 9.97684
7790 2 8.21683 83.4356 11.2495
1546 1 10.0364 83.4334 12.5296
1562 1 7.30674 85.0097 12.5441
1583 1 9.1243 85.0164 9.97684
1611 1 0.938588 86.594 9.9924
7811 2 2.75768 86.5895 11.2794
7863 2 0.0279526 88.1658 11.2972
1600 1 1.84711 88.161 12.5793
1568 1 6.39483 86.594 9.9924
1563 1 4.57697 86.5855 12.5607
7809 2 5.48419 88.1658 11.2972
1613 1 3.66525 88.1713 10.0098
7789 2 8.21392 86.5895 11.2794
1543 1 10.0332 86.5855 12.5607
1565 1 7.30335 88.161 12.5793
1566 1 9.12149 88.1713 10.0098
1604 1 0.935593 89.7481 10.029
7810 2 2.75438 89.7417 11.3167
7861 2 0.0244993 91.3172 11.3378
1567 1 6.39183 89.7481 10.029
7812 2 5.48074 91.3172 11.3378
1602 1 3.66209 91.3244 10.0497
7783 2 8.21062 89.7417 11.3167
1569 1 9.11833 91.3244 10.0497
1603 1 0.932286 92.9003 10.0718
7804 2 2.75079 92.8923 11.3602
8294 2 0.020787 94.467 11.3838
1557 1 6.38852 92.9003 10.0718
2028 1 3.65865 94.4758 10.0951
8245 2 5.47703 94.467 11.3838
7782 2 8.20703 92.8923 11.3602
1973 1 9.11489 94.4758 10.0951
1574 1 2.76921 77.127 15.0578
7819 2 0.948699 77.1259 13.7799
1606 1 0.0400169 78.7025 15.0631
7794 2 6.40494 77.1259 13.7799
1575 1 5.49626 78.7025 15.0631
7817 2 3.67592 78.7023 13.785
1545 1 8.22545 77.127 15.0578
7795 2 9.13216 78.7023 13.785
1560 1 2.76674 80.2777 15.0713
7818 2 0.946612 80.2784 13.7926
1607 1 0.0369569 81.8527 15.082
7787 2 6.40285 80.2784 13.7926
1558 1 5.4932 81.8527 15.082
7820 2 3.6733 81.8543 13.8028
1544 1 8.22297 80.2777 15.0713
7785 2 9.12954 81.8543 13.8028
1559 1 2.76322 83.4274 15.0953
7807 2 0.943554 83.4299 13.8154
1598 1 0.0331197 85.0018 15.111
7786 2 6.39979 83.4299 13.8154
1561 1 5.48936 85.0018 15.111
7805 2 3.66991 85.0052 13.8304
1541 1 8.21946 83.4274 15.0953
7788 2 9.12614 85.0052 13.8304
1552 1 2.75916 86.5759 15.1289
7806 2 0.939912 86.5801 13.8474
1599 1 0.0289009 88.1495 15.1487
7780 2 6.39615 86.5801 13.8474
1550 1 5.48514 88.1495 15.1487
7808 2 3.66607 88.1546 13.8664
1540 1 8.2154 86.5759 15.1289
7778 2 9.12231 88.1546 13.8664
1597 1 0.0244654 91.2957 15.1935
1601 1 1.8434 91.3107 12.6214
1551 1 2.75483 89.7228 15.1703
7803 2 0.935935 89.7287 13.8871
1553 1 5.4807 91.2957 15.1935
7801 2 3.66198 91.3025 13.9093
1556 1 4.57341 89.7361 12.5996
7779 2 6.39217 89.7287 13.8871
1554 1 7.29964 91.3107 12.6214
7781 2 9.11821 91.3025 13.9093
1538 1 8.21106 89.7228 15.1703
1542 1 10.0296 89.7361 12.5996
7802 2 0.931728 92.8759 13.9328
2006 1 0.019846 94.4406 15.2432
1549 1 2.7503 92.8683 15.2178
2007 1 1.83945 94.4589 12.6688
1555 1 4.56957 92.885 12.6445
7777 2 6.38797 92.8759 13.9328
1957 1 5.47608 94.4406 15.2432
8244 2 3.65767 94.449 13.9574
1539 1 10.0258 92.885 12.6445
1537 1 8.20654 92.8683 15.2178
8201 2 9.11391 94.449 13.9574
1972 1 7.29569 94.4589 12.6688
8142 2 2.7763 77.1272 18.9039
1918 1 0.954873 77.1278 17.6194
8154 2 0.0463356 78.6989 18.9102
8160 2 1.86068 78.7013 16.3478
8146 2 4.59007 77.1271 16.3422
1895 1 6.41111 77.1278 17.6194
8143 2 5.50257 78.6989 18.9102
1916 1 3.68144 78.701 17.6254
8097 2 8.23254 77.1272 18.9039
8100 2 10.0463 77.1271 16.3422
8144 2 7.31692 78.7013 16.3478
1896 1 9.13768 78.701 17.6254
1917 1 0.951335 80.2741 17.6343
8134 2 2.77211 80.2706 18.9194
8155 2 0.0412969 81.8421 18.9315
8156 2 1.85707 81.8492 16.3674
8145 2 4.58714 80.2754 16.3563
1891 1 6.40757 80.2741 17.6343
1919 1 3.67716 81.8471 17.6461
8132 2 5.49754 81.8421 18.9315
8096 2 8.22835 80.2706 18.9194
8099 2 10.0434 80.2754 16.3563
1889 1 9.1334 81.8471 17.6461
8147 2 7.31331 81.8492 16.3674
1911 1 0.94655 83.4197 17.6606
8133 2 2.76651 83.4135 18.9464
8157 2 1.85263 84.9961 16.3972
8150 2 0.0353911 84.9847 18.9639
8138 2 4.58304 83.4228 16.3811
1890 1 6.40279 83.4197 17.6606
1909 1 3.67207 84.9922 17.6776
8135 2 5.49163 84.9847 18.9639
8089 2 8.22275 83.4135 18.9464
8098 2 10.0393 83.4228 16.3811
1892 1 9.12831 84.9922 17.6776
8136 2 7.30887 84.9961 16.3972
1910 1 0.941304 86.5642 17.697
8120 2 2.76048 86.5556 18.9838
8152 2 1.84784 88.1417 16.4359
8151 2 0.0293335 88.1261 19.0057
8137 2 4.57838 86.5691 16.4155
1879 1 6.39754 86.5642 17.697
1912 1 3.66676 88.1359 17.7184
8118 2 5.48557 88.1261 19.0057
8088 2 8.21672 86.5556 18.9838
8091 2 10.0346 86.5691 16.4155
8139 2 7.30407 88.1417 16.4359
1877 1 9.12299 88.1359 17.7184
1904 1 0.935956 89.7073 17.7416
8119 2 2.75444 89.6963 19.0295
8153 2 1.84289 91.2859 16.4815
8149 2 0.0233229 91.2663 19.0547
1878 1 6.39219 89.7073 17.7416
8124 2 4.5735 89.714 16.458
1902 1 3.66138 91.2783 17.7663
8121 2 5.47956 91.2663 19.0547
8074 2 8.21068 89.6963 19.0295
8090 2 10.0297 89.714 16.458
1880 1 9.11762 91.2783 17.7663
8122 2 7.29913 91.2859 16.4815
1903 1 0.930543 92.8491 17.7921
8109 2 2.74845 92.8362 19.0809
8567 2 1.83784 94.4291 16.532
8566 2 0.0173476 94.406 19.108
1861 1 6.38678 92.8491 17.7921
8123 2 4.5685 92.8576 16.5063
8549 2 5.47359 94.406 19.108
2304 1 3.65593 94.4197 17.8188
8073 2 8.20469 92.8362 19.0809
8075 2 10.0247 92.8576 16.5063
8556 2 7.29408 94.4291 16.532
2278 1 9.11216 94.4197 17.8188
8130 2 0.963835 77.1256 21.4654
1915 1 1.86761 78.6978 20.187
1887 1 4.59802 77.1272 20.1804
8094 2 6.42007 77.1256 21.4654
8128 2 3.68925 78.6943 21.4722
1836 1 10.0543 77.1272 20.1804
1885 1 7.32385 78.6978 20.187
8095 2 9.14549 78.6943 21.4722
8129 2 0.957768 80.2631 21.4821
1907 1 1.86154 81.839 20.2097
1886 1 4.59287 80.2684 20.1968
8086 2 6.41401 80.2631 21.4821
8131 2 3.68212 81.832 21.4952
1835 1 10.0491 80.2684 20.1968
1888 1 7.31778 81.839 20.2097
8084 2 9.13836 81.832 21.4952
8116 2 0.950066 83.4009 21.5115
1908 1 1.85473 84.9796 20.2441
1875 1 4.58628 83.4094 20.2255
8085 2 6.4063 83.4009 21.5115
8114 2 3.67423 84.9697 21.5306
1834 1 10.0425 83.4094 20.2255
1873 1 7.31097 84.9796 20.2441
8087 2 9.13047 84.9697 21.5306
8115 2 0.942233 86.5382 21.5523
1900 1 1.848 88.1191 20.2885
1874 1 4.57946 86.5495 20.2652
8071 2 6.39847 86.5382 21.5523
8117 2 3.66657 88.1064 21.5762
1827 1 10.0357 86.5495 20.2652
1876 1 7.30424 88.1191 20.2885
8069 2 9.12281 88.1064 21.5762
8108 2 0.934757 89.6744 21.6019
1901 1 1.84145 91.2573 20.3401
1860 1 4.57283 89.6883 20.3136
8070 2 6.391 89.6744 21.6019
8106 2 3.65925 91.2422 21.629
1826 1 10.0291 89.6883 20.3136
1858 1 7.29769 91.2573 20.3401
8072 2 9.11549 91.2422 21.629
8107 2 0.927567 92.8101 21.657
2298 1 1.83499 94.3949 20.3957
1859 1 4.56633 92.8261 20.3676
8053 2 6.38381 92.8101 21.657
8548 2 3.65219 94.3782 21.6854
1811 1 10.0226 92.8261 20.3676
2277 1 7.29123 94.3949 20.3957
8501 2 9.10843 94.3782 21.6854
1867 1 0.976707 77.119 25.3037
1883 1 2.78643 77.1246 22.7415
1905 1 0.0548909 78.6919 22.7485
8127 2 1.87704 78.6864 24.0342
1830 1 6.43295 77.119 25.3037
8082 2 4.60916 77.1215 24.0274
1865 1 3.69966 78.6821 25.3104
1884 1 5.51113 78.6919 22.7485
1833 1 8.24267 77.1246 22.7415
8028 2 10.0654 77.1215 24.0274
1831 1 9.1559 78.6821 25.3104
8080 2 7.33328 78.6864 24.0342
1866 1 0.965484 80.2461 25.3208
1871 1 2.77886 80.2595 22.7589
1906 1 0.0462046 81.8273 22.7728
8112 2 1.86689 81.8177 24.0586
1822 1 6.42172 80.2461 25.3208
8081 2 4.60029 80.2519 24.0446
1868 1 3.68715 81.8108 25.3354
1869 1 5.50244 81.8273 22.7728
1832 1 8.2351 80.2595 22.7589
8027 2 10.0565 80.2519 24.0446
1820 1 9.14339 81.8108 25.3354
8083 2 7.32313 81.8177 24.0586
1852 1 0.952761 83.3758 25.3542
1870 1 2.76971 83.3952 22.79
1898 1 0.0370803 84.963 22.8104
8113 2 1.85635 84.9497 24.0972
1821 1 6.409 83.3758 25.3542
8067 2 4.58966 83.3837 24.0762
1850 1 3.67494 84.9407 25.3769
1872 1 5.49332 84.963 22.8104
1825 1 8.22595 83.3952 22.79
8026 2 10.0459 83.3837 24.0762
1823 1 9.13118 84.9407 25.3769
8065 2 7.31259 84.9497 24.0972
1851 1 0.941325 86.5053 25.403
1856 1 2.76086 86.5304 22.8337
1899 1 0.0285837 88.0976 22.8594
8104 2 1.84671 88.0809 24.1476
1807 1 6.39756 86.5053 25.403
8066 2 4.57953 86.5154 24.1212
1853 1 3.66428 88.0694 25.4318
1854 1 5.48482 88.0976 22.8594
1824 1 8.2171 86.5304 22.8337
8019 2 10.0358 86.5154 24.1212
1805 1 9.12051 88.0694 25.4318
8068 2 7.30295 88.0809 24.1476
1844 1 0.931249 89.6333 25.4622
1855 1 2.75267 89.6644 22.8869
1897 1 0.0206144 91.231 22.9156
8105 2 1.83783 91.2117 24.2051
1806 1 6.38749 89.6333 25.4622
8052 2 4.57031 89.6463 24.1758
1842 1 3.65464 91.1971 25.4935
1857 1 5.47685 91.231 22.9156
1810 1 8.20891 89.6644 22.8869
8018 2 10.0266 89.6463 24.1758
1808 1 9.11088 91.1971 25.4935
8050 2 7.29407 91.2117 24.2051
1843 1 0.921964 92.7614 25.5249
1845 1 2.74487 92.7976 22.945
2297 1 0.0129823 94.3645 22.9746
8534 2 1.82954 94.3439 24.2647
1790 1 6.3782 92.7614 25.5249
8051 2 4.56172 92.7775 24.2349
2265 1 3.64574 94.3265 25.5558
2266 1 5.46922 94.3645 22.9746
1809 1 8.20111 92.7976 22.945
8004 2 10.018 92.7775 24.2349
2213 1 9.10198 94.3265 25.5558
8500 2 7.28578 94.3439 24.2647
8078 2 2.80007 77.1143 26.5907
1864 1 1.8897 78.667 27.8738
8110 2 0.0659876 78.6744 26.5967
8059 2 0.99311 77.1036 29.1567
1818 1 4.62557 77.1091 27.8689
8079 2 5.52223 78.6744 26.5967
8022 2 6.44935 77.1036 29.1567
8057 2 3.71241 78.6572 29.1599
1770 1 10.0818 77.1091 27.8689
8025 2 8.2563 77.1143 26.5907
1816 1 7.34594 78.667 27.8738
8023 2 9.16865 78.6572 29.1599
8063 2 2.78701 80.2356 26.6068
1848 1 1.87154 81.7876 27.8978
8111 2 0.0514761 81.7976 26.6214
8058 2 0.973816 80.2129 29.1682
1817 1 4.60892 80.2266 27.8829
8061 2 5.50771 81.7976 26.6214
8014 2 6.43005 80.2129 29.1682
8060 2 3.69148 81.7701 29.1826
1769 1 10.0652 80.2266 27.8829
8024 2 8.24325 80.2356 26.6068
1819 1 7.32778 81.7876 27.8978
8012 2 9.14772 81.7701 29.1826
8062 2 2.77234 83.3602 26.6405
1849 1 1.85516 84.9106 27.9442
8102 2 0.0374662 84.9227 26.6638
8044 2 0.953505 83.3279 29.2035
1803 1 4.59103 83.3493 27.9183
8064 2 5.4937 84.9227 26.6638
8013 2 6.40974 83.3279 29.2035
8042 2 3.67293 84.8857 29.2303
1768 1 10.0473 83.3493 27.9183
8017 2 8.22858 83.3602 26.6405
1801 1 7.3114 84.9106 27.9442
8015 2 9.12917 84.8857 29.2303
8048 2 2.75935 86.485 26.6908
1840 1 1.84191 88.0315 28.0071
8103 2 0.0254256 88.0472 26.7204
1802 1 4.57633 86.4714 27.9742
8046 2 5.48166 88.0472 26.7204
1761 1 10.0326 86.4714 27.9742
8016 2 8.21559 86.485 26.6908
1804 1 7.29815 88.0315 28.0071
8047 2 2.74807 89.6094 26.7516
1841 1 1.83042 91.1523 28.0749
8101 2 0.0147338 91.1722 26.7834
1789 1 4.56414 89.5916 28.0411
8049 2 5.47097 91.1722 26.7834
1760 1 10.0204 89.5916 28.0411
8003 2 8.20431 89.6094 26.7516
1787 1 7.28665 91.1523 28.0749
8037 2 2.73793 92.736 26.8151
2247 1 1.82038 94.2783 28.1393
8533 2 0.00523741 94.301 26.846
1788 1 4.55329 92.7144 28.1078
8485 2 5.46148 94.301 26.846
1749 1 10.0095 92.7144 28.1078
8002 2 8.19416 92.736 26.8151
2212 1 7.27662 94.2783 28.1393
1814 1 2.82197 77.0948 30.4412
1846 1 0.0810946 78.645 30.4406
8056 2 1.90397 78.6358 31.723
8010 2 4.64576 77.092 31.7288
1815 1 5.53733 78.645 30.4406
1767 1 8.27821 77.0948 30.4412
7980 2 10.102 77.092 31.7288
8008 2 7.36021 78.6358 31.723
1799 1 2.79681 80.1995 30.4465
1847 1 0.0544498 81.7559 30.4606
8040 2 1.87284 81.7328 31.7396
8009 2 4.61638 80.1832 31.7271
1797 1 5.51069 81.7559 30.4606
1766 1 8.25305 80.1995 30.4465
7979 2 10.0726 80.1832 31.7271
8011 2 7.32908 81.7328 31.7396
1798 1 2.7709 83.3129 30.484
1838 1 0.032444 84.8691 30.5146
8041 2 1.84851 84.8337 31.7962
7996 2 4.58803 83.2831 31.7639
1800 1 5.48868 84.8691 30.5146
1759 1 8.22714 83.3129 30.484
7978 2 10.0443 83.2831 31.7639
7994 2 7.30475 84.8337 31.7962
8043 2 0.937012 86.4434 29.2616
1785 1 2.75229 86.4239 30.5505
1839 1 0.0167511 87.978 30.5885
8032 2 1.83064 87.9368 31.8745
8000 2 6.39325 86.4434 29.2616
7995 2 4.56725 86.3842 31.8348
1783 1 5.47299 87.978 30.5885
8045 2 3.65808 88.0012 29.2956
1758 1 8.20853 86.4239 30.5505
7975 2 10.0235 86.3842 31.8348
7997 2 7.28688 87.9368 31.8745
7998 2 9.11432 88.0012 29.2956
1784 1 2.73789 89.5336 30.6256
8036 2 0.923382 89.5599 29.3304
1837 1 0.00339428 91.0918 30.6608
8033 2 1.81673 91.0519 31.9483
7988 2 4.55131 89.4926 31.9126
7999 2 6.37962 89.5599 29.3304
1786 1 5.45963 91.0918 30.6608
8034 2 3.64544 91.1203 29.3646
7986 2 7.27297 91.0519 31.9483
1748 1 8.19412 89.5336 30.6256
7974 2 10.0076 89.4926 31.9126
8001 2 9.10168 91.1203 29.3646
1776 1 2.72584 92.6531 30.6938
8035 2 0.911851 92.6827 29.3976
8463 2 1.80701 94.1812 32.0123
8484 2 3.63518 94.2474 29.429
7987 2 4.53948 92.6149 31.9815
7989 2 6.36809 92.6827 29.3976
2197 1 5.44913 94.2176 30.7247
8428 2 7.26325 94.1812 32.0123
5318 1 10.9054 94.2176 30.7247
1747 1 8.18208 92.6531 30.6938
7971 2 9.99572 92.6149 31.9815
8429 2 9.09142 94.2474 29.429
1795 1 1.02579 77.0857 33.0306
8006 2 2.84765 77.087 34.3104
8038 2 0.0982163 78.6214 34.2931
1792 1 1.93447 78.6268 35.6487
1764 1 6.48203 77.0857 33.0306
1793 1 3.73239 78.619 33.0211
8007 2 5.55445 78.6214 34.2931
1752 1 4.6834 77.0867 35.6317
7977 2 8.30389 77.087 34.3104
1765 1 9.18863 78.619 33.0211
1734 1 10.1396 77.0867 35.6317
1750 1 7.39071 78.6268 35.6487
1794 1 0.981825 80.1606 33.0128
7992 2 2.79821 80.1486 34.2769
8039 2 0.0507498 81.6823 34.2881
1777 1 1.83932 81.6196 35.6218
1756 1 6.43806 80.1606 33.0128
1796 1 3.68862 81.7114 33.0301
7990 2 5.50699 81.6823 34.2881
1751 1 4.63182 80.1259 35.6158
7976 2 8.25445 80.1486 34.2769
1754 1 9.14486 81.7114 33.0301
1733 1 10.0881 80.1259 35.6158
1753 1 7.29555 81.6196 35.6218
1781 1 0.944192 83.2601 33.0568
7991 2 2.75788 83.2184 34.3159
8030 2 0.0181656 84.7549 34.3627
1778 1 1.82109 84.6773 35.7097
1755 1 6.40043 83.2601 33.0568
1779 1 3.66078 84.8061 33.0963
7993 2 5.4744 84.7549 34.3627
1741 1 4.55655 83.1598 35.6613
7973 2 8.21412 83.2184 34.3159
1757 1 9.11702 84.8061 33.0963
1732 1 10.0128 83.1598 35.6613
1739 1 7.27732 84.6773 35.7097
1780 1 0.923979 86.3499 33.1398
7984 2 2.73486 86.2969 34.4114
1771 1 1.80454 87.771 35.7816
1745 1 6.38022 86.3499 33.1398
1782 1 3.64327 87.8978 33.1799
7982 2 5.45416 87.8457 34.4564
1740 1 4.53895 86.2203 35.7464
1742 1 7.26078 87.771 35.7816
11295 2 10.9104 87.8457 34.4564
7972 2 8.1911 86.2969 34.4114
1743 1 9.09951 87.8978 33.1799
1731 1 9.99518 86.2203 35.7464
1775 1 0.907498 89.451 33.217
7983 2 2.71894 89.4019 34.4962
1772 1 1.79476 90.9025 35.8396
1773 1 3.62907 91.0102 33.2504
7985 2 5.44148 90.9639 34.5318
1737 1 4.52713 89.3337 35.8118
1735 1 7.25099 90.9025 35.8396
1744 1 6.36374 89.451 33.217
11293 2 10.8977 90.9639 34.5318
7970 2 8.17518 89.4019 34.4962
1746 1 9.08531 91.0102 33.2504
1730 1 9.98336 89.3337 35.8118
1774 1 0.895722 92.5743 33.2812
7981 2 2.70919 92.5309 34.5637
2196 1 3.61982 94.1426 33.3098
2175 1 1.78993 94.0534 35.891
1738 1 6.35196 92.5743 33.2812
8413 2 5.43431 94.102 34.593
2146 1 7.24617 94.0534 35.891
1736 1 4.5199 92.4764 35.8658
1729 1 9.97614 92.4764 35.8658
11726 2 10.8905 94.102 34.593
7969 2 8.16543 92.5309 34.5637
2147 1 9.07605 94.1426 33.3098
8182 2 1.09035 77.1022 36.8889
13911 1 2.1755 75.6138 38.2417
8171 2 6.54659 77.1022 36.8889
14296 1 4.90616 77.259 38.2341
8180 2 3.76886 78.6433 36.8612
13881 1 7.63174 75.6138 38.2417
8172 2 9.2251 78.6433 36.8612
17124 1 10.3624 77.259 38.2341
8181 2 0.954557 80.1337 36.8568
14297 1 2.1807 78.9533 38.2985
8168 2 6.4108 80.1337 36.8568
14298 1 4.88745 80.8056 38.3697
8183 2 3.64035 81.6131 36.8049
14262 1 7.63694 78.9533 38.2985
8166 2 9.09659 81.6131 36.8049
17122 1 10.3437 80.8056 38.3697
8178 2 0.922751 83.103 36.8646
14293 1 2.42217 82.5313 38.4189
8176 2 3.63716 84.629 36.9249
8167 2 6.37899 83.103 36.8646
14291 1 5.35493 84.3468 38.3208
14261 1 7.87841 82.5313 38.4189
8169 2 9.0934 84.629 36.9249
17123 1 10.8112 84.3468 38.3208
8177 2 0.896268 86.1646 36.9873
14292 1 2.65538 85.9544 38.3489
8179 2 3.61853 87.72 37.0343
8164 2 6.35251 86.1646 36.9873
14294 1 5.39889 87.5692 38.3744
14256 1 8.11162 85.9544 38.3489
8162 2 9.07477 87.72 37.0343
17120 1 10.8551 87.5692 38.3744
8175 2 0.885092 89.284 37.0744
14282 1 2.67892 89.169 38.3949
8173 2 3.60994 90.8554 37.1088
8163 2 6.34133 89.284 37.0744
14280 1 5.41265 90.7667 38.4171
14255 1 8.13516 89.169 38.3949
8165 2 9.06618 90.8554 37.1088
17121 1 10.8689 90.7667 38.4171
8592 2 3.60684 94.0115 37.1672
8174 2 0.879803 92.4317 37.1394
14281 1 2.68765 92.3601 38.4398
8161 2 6.33604 92.4317 37.1394
14283 1 5.41787 93.9523 38.4625
8578 2 9.06308 94.0115 37.1672
14242 1 8.14389 92.3601 38.4398
17119 1 10.8741 93.9523 38.4625
19919 2 1.53062 77.3042 39.4483
13909 1 0.645842 75.7139 40.7583
19509 2 2.51625 75.6973 41.9882
14295 1 3.41063 77.4079 40.7148
19901 2 5.26081 77.3741 41.9653
13861 1 6.10208 75.7139 40.7583
19523 2 4.23893 75.6654 39.4757
19908 2 6.98686 77.3042 39.4483
14258 1 8.86687 77.4079 40.7148
19473 2 7.97249 75.6973 41.9882
19475 2 9.69517 75.6654 39.4757
22738 2 10.717 77.3741 41.9653
19920 2 1.62594 80.7945 39.3698
19902 2 2.56056 79.0579 41.9333
14289 1 0.752951 79.1042 40.6236
14287 1 3.55411 80.8256 40.5537
19906 2 4.30022 79.0005 39.4058
19903 2 5.3262 80.7345 41.9296
14259 1 6.20919 79.1042 40.6236
19904 2 7.08218 80.7945 39.3698
14260 1 9.01035 80.8256 40.5537
19857 2 8.01679 79.0579 41.9333
19860 2 9.75646 79.0005 39.4058
22734 2 10.7824 80.7345 41.9296
19916 2 1.77204 84.3105 39.4987
14288 1 0.822057 82.4169 40.6856
19894 2 2.63201 82.3998 41.9604
14290 1 3.52863 84.082 40.8429
19905 2 4.4656 82.6729 39.4241
14253 1 6.27829 82.4169 40.6856
19892 2 5.38584 84.0794 42.0315
19907 2 7.22828 84.3105 39.4987
22735 2 10.8421 84.0794 42.0315
14251 1 8.98487 84.082 40.8429
19856 2 8.08825 82.3998 41.9604
19859 2 9.92184 82.6729 39.4241
19917 2 1.78147 87.5369 39.5985
14278 1 0.817808 85.7368 40.884
19893 2 2.67413 85.7436 42.09
14276 1 3.56631 87.3853 40.9132
19898 2 4.50503 85.9337 39.556
14252 1 6.27405 85.7368 40.884
19895 2 5.4109 87.3749 42.14
19896 2 7.23771 87.5369 39.5985
22730 2 10.8671 87.3749 42.14
14254 1 9.02255 87.3853 40.9132
19849 2 8.13036 85.7436 42.09
19858 2 9.96127 85.9337 39.556
19912 2 1.78276 90.7291 39.6719
14277 1 0.850657 89.012 40.9431
19880 2 2.68741 88.9947 42.1822
14279 1 3.58627 90.6319 40.9706
19897 2 4.51018 89.1356 39.6381
14239 1 6.3069 89.012 40.9431
19878 2 5.41838 90.6068 42.2192
19899 2 7.239 90.7291 39.6719
22731 2 10.8746 90.6068 42.2192
14237 1 9.0425 90.6319 40.9706
19848 2 8.14365 88.9947 42.1822
19851 2 9.96642 89.1356 39.6381
19913 2 1.78364 93.9142 39.7306
14270 1 0.863579 92.243 40.9957
19879 2 2.69206 92.2142 42.2524
14268 1 3.59566 93.8496 41.0201
14238 1 6.31982 92.243 40.9957
19881 2 5.42171 93.8182 42.2825
19884 2 4.51118 92.322 39.7026
19882 2 7.23988 93.9142 39.7306
22729 2 10.8779 93.8182 42.2825
14240 1 9.05189 93.8496 41.0201
19834 2 8.1483 92.2142 42.2524
19850 2 9.96742 92.322 39.7026
14285 1 1.6718 77.3975 43.2003
19507 2 0.76284 75.7061 44.5045
19900 2 3.49918 77.3682 44.496
13845 1 2.6133 75.7 45.7541
13859 1 4.3811 75.7217 43.2337
19454 2 6.21908 75.7061 44.5045
14257 1 7.12804 77.3975 43.2003
14244 1 5.34472 77.3521 45.7537
17104 1 10.801 77.3521 45.7537
19853 2 8.95542 77.3682 44.496
13811 1 9.83734 75.7217 43.2337
13809 1 8.06954 75.7 45.7541
14286 1 1.70413 80.6838 43.2099
19890 2 0.786598 79.0222 44.4922
19888 2 3.53462 80.6715 44.5025
14245 1 2.62496 78.9938 45.7625
14249 1 4.41194 79.0569 43.1857
19854 2 6.24284 79.0222 44.4922
14247 1 7.16037 80.6838 43.2099
14246 1 5.36602 80.6303 45.7785
17092 1 10.8223 80.6303 45.7785
14196 1 9.86818 79.0569 43.1857
19855 2 8.99085 80.6715 44.5025
14193 1 8.0812 78.9938 45.7625
14274 1 1.75217 83.9605 43.2944
19889 2 0.826782 82.3172 44.5285
19891 2 3.5703 83.9617 44.5709
14231 1 2.65221 82.2632 45.8065
14248 1 4.45658 82.3195 43.2444
19846 2 6.28302 82.3172 44.5285
14250 1 7.2084 83.9605 43.2944
14229 1 5.39517 83.8949 45.8441
17093 1 10.8514 83.8949 45.8441
14195 1 9.91282 82.3195 43.2444
19844 2 9.02654 83.9617 44.5709
14192 1 8.10845 82.2632 45.8065
14275 1 1.76008 87.2533 43.4293
19876 2 0.856579 85.6067 44.622
19874 2 3.59362 87.2467 44.6721
14230 1 2.67833 85.5287 45.8913
14235 1 4.48663 85.6091 43.3709
19845 2 6.31282 85.6067 44.622
14233 1 7.21632 87.2533 43.4293
14194 1 9.94287 85.6091 43.3709
19847 2 9.04986 87.2467 44.6721
14185 1 8.13457 85.5287 45.8913
14266 1 1.77205 90.5179 43.5045
19875 2 0.871152 88.8775 44.7168
19877 2 3.60297 90.5 44.7569
14234 1 4.49422 88.8896 43.4696
19831 2 6.32739 88.8775 44.7168
14236 1 7.22829 90.5179 43.5045
14187 1 9.95046 88.8896 43.4696
19829 2 9.05921 90.5 44.7569
14267 1 1.78033 93.7549 43.5648
19868 2 0.877429 92.1169 44.7929
19866 2 3.60749 93.7296 44.8257
14218 1 7.23657 93.7549 43.5648
19830 2 6.33367 92.1169 44.7929
14220 1 4.50488 92.1392 43.536
14186 1 9.96111 92.1392 43.536
19832 2 9.06373 93.7296 44.8257
19886 2 1.72057 77.3425 47.0436
13843 1 0.827723 75.6853 48.303
14243 1 3.55826 77.3236 48.3101
13792 1 6.28396 75.6853 48.303
19452 2 4.44354 75.695 47.0414
19852 2 7.17681 77.3425 47.0436
14189 1 9.01449 77.3236 48.3101
19413 2 9.89978 75.695 47.0414
14227 1 0.834835 78.9586 48.3227
19887 2 1.74027 80.6229 47.0664
14225 1 3.57021 80.5902 48.3413
14190 1 6.29107 78.9586 48.3227
19842 2 4.45757 78.9851 47.051
19840 2 7.1965 80.6229 47.0664
14191 1 9.02645 80.5902 48.3413
19794 2 9.91381 78.9851 47.051
14226 1 0.851042 82.2192 48.3666
19872 2 1.76315 83.891 47.1252
14228 1 3.58896 83.847 48.3983
14182 1 6.30728 82.2192 48.3666
19841 2 4.48015 82.2576 47.0912
19843 2 7.21938 83.891 47.1252
14180 1 9.04519 83.847 48.3983
19793 2 9.93639 82.2576 47.0912
14212 1 0.869575 85.4746 48.4357
19873 2 1.78093 87.1569 47.2085
14210 1 3.60481 87.1027 48.4772
14181 1 6.32581 85.4746 48.4357
19827 2 4.501 85.5243 47.1651
19825 2 7.23717 87.1569 47.2085
14232 1 5.41355 87.1644 45.943
14183 1 9.06105 87.1027 48.4772
19792 2 9.95724 85.5243 47.1651
17084 1 10.8698 87.1644 45.943
14211 1 0.881654 88.7308 48.5203
19864 2 1.79087 90.4126 47.292
14213 1 3.61304 90.3575 48.5618
14216 1 2.68936 88.7981 45.9908
14167 1 6.33789 88.7308 48.5203
14214 1 5.4205 90.4277 46.0321
19826 2 4.51497 88.7868 47.2515
19828 2 7.24711 90.4126 47.292
17085 1 10.8767 90.4277 46.0321
14165 1 9.06928 90.3575 48.5618
19785 2 9.97121 88.7868 47.2515
14184 1 8.14559 88.7981 45.9908
14204 1 0.88726 91.9819 48.6005
14215 1 2.69528 92.0524 46.0686
19865 2 1.79583 93.6516 47.3644
14202 1 3.61727 93.6033 48.6363
14166 1 6.3435 91.9819 48.6005
14217 1 5.42594 93.6726 46.1018
19813 2 4.52183 92.034 47.3296
19811 2 7.25207 93.6516 47.3644
17083 1 10.8822 93.6726 46.1018
14168 1 9.07351 93.6033 48.6363
14170 1 8.15151 92.0524 46.0686
19784 2 9.97807 92.034 47.3296
14223 1 1.76364 77.3072 50.8701
19440 2 2.65583 75.6852 49.5932
19438 2 0.860557 75.6797 52.153
19836 2 3.59069 77.3066 52.1593
19837 2 5.38719 77.3211 49.599
13790 1 4.48994 75.6785 50.8627
14188 1 7.21987 77.3072 50.8701
19402 2 6.3168 75.6797 52.153
22705 2 10.8434 77.3211 49.599
13760 1 9.94618 75.6785 50.8627
19411 2 8.11207 75.6852 49.5932
19787 2 9.04692 77.3066 52.1593
14224 1 1.7715 80.5608 50.9018
19838 2 2.66422 78.9544 49.6102
19819 2 0.865854 78.9325 52.1709
19817 2 3.59826 80.5571 52.1879
14178 1 4.49495 78.9347 50.8833
19839 2 5.39891 80.585 49.6275
14176 1 7.22774 80.5608 50.9018
19788 2 6.32209 78.9325 52.1709
22690 2 10.8552 80.585 49.6275
14136 1 9.95119 78.9347 50.8833
19791 2 8.12046 78.9544 49.6102
19789 2 9.0545 80.5571 52.1879
14208 1 1.78382 83.8094 50.9536
19823 2 2.6782 82.2135 49.6511
19818 2 0.875122 82.1807 52.2098
19820 2 3.60855 83.8036 52.2362
14177 1 4.50545 82.1855 50.9254
19821 2 5.41383 83.8408 49.6805
14179 1 7.24006 83.8094 50.9536
19780 2 6.33136 82.1807 52.2098
22691 2 10.8701 83.8408 49.6805
14135 1 9.96169 82.1855 50.9254
19790 2 8.13444 82.2135 49.6511
19778 2 9.06478 83.8036 52.2362
14209 1 1.79602 87.0566 51.0218
19822 2 2.69288 85.4678 49.7146
19803 2 3.61877 87.0483 52.2995
19805 2 0.885712 85.4261 52.2664
14163 1 4.51836 85.433 50.9861
19824 2 5.42728 87.0943 49.7519
14161 1 7.25225 87.0566 51.0218
19779 2 6.34195 85.4261 52.2664
22682 2 10.8835 87.0943 49.7519
14134 1 9.9746 85.433 50.9861
19783 2 8.14912 85.4678 49.7146
19781 2 9.07501 87.0483 52.2995
19806 2 3.62678 90.2917 52.3703
19804 2 0.895005 88.6703 52.3345
14200 1 1.8043 90.3033 51.098
19809 2 2.70437 88.7201 49.7907
19769 2 6.35124 88.6703 52.3345
14162 1 4.52885 88.6801 51.0595
19807 2 5.43652 90.3443 49.8293
14164 1 7.26054 90.3033 51.098
22683 2 10.8928 90.3443 49.8293
19767 2 9.08302 90.2917 52.3703
14128 1 9.98509 88.6801 51.0595
19782 2 8.16061 88.7201 49.7907
19797 2 3.63205 93.5308 52.4412
19799 2 0.901613 91.912 52.4061
14201 1 1.80876 93.546 51.172
19808 2 2.7114 91.9662 49.8666
19768 2 6.35785 91.912 52.4061
14151 1 4.53499 91.9254 51.1357
19810 2 5.44177 93.5855 49.9022
14149 1 7.265 93.546 51.172
19770 2 9.08828 93.5308 52.4412
22681 2 10.898 93.5855 49.9022
14127 1 9.99123 91.9254 51.1357
19772 2 8.16764 91.9662 49.8666
19815 2 1.78989 77.2978 54.7221
13780 1 2.69069 75.6758 53.4269
14173 1 5.42018 77.2975 53.4335
19400 2 4.51668 75.6775 54.7163
19786 2 7.24613 77.2978 54.7221
17042 1 10.8764 77.2975 53.4335
13758 1 8.14693 75.6758 53.4269
19393 2 9.97292 75.6775 54.7163
14174 1 2.69444 78.9189 53.4455
19816 2 1.79514 80.5374 54.7485
14175 1 5.42589 80.5398 53.4625
19776 2 4.52025 78.9178 54.7329
19774 2 7.25138 80.5374 54.7485
17026 1 10.8821 80.5398 53.4625
14133 1 8.15067 78.9189 53.4455
19758 2 9.97649 78.9178 54.7329
14159 1 2.70187 82.1603 53.4841
19801 2 1.80264 83.7755 54.7923
14157 1 5.4346 83.7805 53.5096
19775 2 4.52684 82.1566 54.7684
19777 2 7.25888 83.7755 54.7923
17027 1 10.8908 83.7805 53.5096
14132 1 8.15811 82.1603 53.4841
19757 2 9.98308 82.1566 54.7684
14158 1 2.71123 85.4006 53.5386
19802 2 1.81062 87.0132 54.8495
19763 2 7.26685 87.0132 54.8495
14160 1 5.44391 87.0207 53.5705
19765 2 4.5348 85.3944 54.8195
17018 1 10.9001 87.0207 53.5705
19756 2 9.99104 85.3944 54.8195
14126 1 8.16747 85.4006 53.5386
19795 2 1.81749 90.2504 54.9147
14147 1 2.71984 88.6407 53.6044
19766 2 7.27373 90.2504 54.9147
19764 2 4.54238 88.6319 54.8814
14145 1 5.45135 90.2607 53.6397
17019 1 10.9076 90.2607 53.6397
19755 2 9.99862 88.6319 54.8814
14125 1 8.17608 88.6407 53.6044
19796 2 1.82254 93.4857 54.9826
14146 1 2.72591 91.8802 53.6753
19761 2 4.54837 91.8684 54.9486
14148 1 5.45609 93.499 53.7107
19759 2 7.27878 93.4857 54.9826
19754 2 10.0046 91.8684 54.9486
14119 1 8.18215 91.8802 53.6753
17017 1 10.9123 93.499 53.7107
14471 1 1.81221 77.2895 58.5627
13778 1 0.888109 75.6755 55.9925
19719 2 2.71341 75.6776 57.2809
14172 1 3.61727 77.2921 55.9981
20104 2 5.44246 77.2929 57.2858
14075 1 4.53953 75.677 58.5581
13753 1 6.34435 75.6755 55.9925
14460 1 7.26845 77.2895 58.5627
14129 1 9.07351 77.2921 55.9981
14027 1 9.99577 75.677 58.5581
19689 2 8.16965 75.6776 57.2809
22932 2 10.8987 77.2929 57.2858
14155 1 0.890983 78.9086 56.0086
14472 1 1.81566 80.515 58.5852
20105 2 2.71598 78.9082 57.2953
14153 1 3.62164 80.5252 56.0238
14130 1 6.34722 78.9086 56.0086
14458 1 4.54177 78.9021 58.5718
20106 2 5.44634 80.5235 57.3093
14456 1 7.2719 80.515 58.5852
14412 1 9.99801 78.9021 58.5718
14131 1 9.07788 80.5252 56.0238
20070 2 8.17222 78.9082 57.2953
22930 2 10.9026 80.5235 57.3093
14154 1 0.896623 82.1418 56.0431
14468 1 1.82094 83.7416 58.6233
20101 2 2.72095 82.1389 57.3273
14156 1 3.62824 83.7585 56.0662
14457 1 4.54625 82.1281 58.6025
14123 1 6.35286 82.1418 56.0431
20099 2 5.45212 83.7543 57.3489
14459 1 7.27718 83.7416 58.6233
14411 1 10.0025 82.1281 58.6025
14121 1 9.08448 83.7585 56.0662
20069 2 8.17719 82.1389 57.3273
22931 2 10.9084 83.7543 57.3489
14143 1 0.903814 85.3753 56.0924
14469 1 1.82699 86.9693 58.6738
20100 2 2.72722 85.3698 57.3736
14141 1 3.63559 86.9922 56.1214
20108 2 0.00232669 86.9855 57.401
14450 1 4.55206 85.3553 58.6472
14122 1 6.36005 85.3753 56.0924
20102 2 5.45857 86.9855 57.401
14448 1 7.28322 86.9693 58.6738
14410 1 10.0083 85.3553 58.6472
14124 1 9.09183 86.9922 56.1214
20064 2 8.18346 85.3698 57.3736
14142 1 0.910905 88.6093 56.1525
14464 1 1.83268 90.1981 58.7331
20109 2 0.0082827 90.217 57.4616
20090 2 2.73354 88.6012 57.4305
14144 1 3.64208 90.2264 56.1851
14449 1 4.55806 88.5836 58.7026
14116 1 6.36714 88.6093 56.1525
20088 2 5.46452 90.217 57.4616
14403 1 10.0143 88.5836 58.7026
14451 1 7.28892 90.1981 58.7331
14114 1 9.09832 90.2264 56.1851
20063 2 8.18978 88.6012 57.4305
14139 1 0.916559 91.8434 56.2187
14465 1 1.83725 93.4272 58.7973
20107 2 0.0130448 93.448 57.5264
20089 2 2.73895 91.8327 57.4937
14137 1 3.64681 93.4601 56.2526
14436 1 4.56325 91.8126 58.7648
14115 1 6.3728 91.8434 56.2187
20091 2 5.46928 93.448 57.5264
14402 1 10.0195 91.8126 58.7648
14434 1 7.29349 93.4272 58.7973
14117 1 9.10305 93.4601 56.2526
20050 2 8.19519 91.8327 57.4937
14061 1 2.73311 75.6797 61.1231
19717 2 0.90801 75.6794 59.8453
20103 2 3.63681 77.2907 59.8493
20093 2 1.82966 77.2903 62.4122
14470 1 0.00559412 77.2888 61.1267
14453 1 5.46183 77.2888 61.1267
19669 2 6.36425 75.6794 59.8453
19667 2 4.55729 75.6824 62.409
20066 2 9.09305 77.2907 59.8493
14025 1 8.18934 75.6797 61.1231
20065 2 7.2859 77.2903 62.4122
19619 2 10.0135 75.6824 62.409
14454 1 2.73486 78.8982 61.1346
14466 1 0.00837694 80.5078 61.1464
20097 2 0.909941 78.9021 59.8577
20094 2 1.83208 80.5067 62.4304
20095 2 3.63982 80.5138 59.8701
14455 1 5.46462 80.5078 61.1464
20067 2 6.36618 78.9021 59.8577
20057 2 4.55877 78.8983 62.4194
14409 1 8.1911 78.8982 61.1346
20068 2 9.09606 80.5138 59.8701
20004 2 10.015 78.8983 62.4194
20055 2 7.28832 80.5067 62.4304
14446 1 2.73853 82.1178 61.1619
14467 1 0.0127515 83.7282 61.1809
20096 2 0.913875 82.1257 59.8862
20082 2 1.83597 83.7244 62.4629
20098 2 3.64447 83.7378 59.9058
14444 1 5.46899 83.7282 61.1809
20061 2 6.37011 82.1257 59.8862
20056 2 4.562 82.1154 62.445
14408 1 8.19477 82.1178 61.1619
20059 2 9.10071 83.7378 59.9058
20003 2 10.0182 82.1154 62.445
20058 2 7.29221 83.7244 62.4629
14445 1 2.74341 85.339 61.2028
14462 1 0.0179124 86.9503 61.2274
20086 2 0.919024 85.3502 59.9285
20083 2 1.84067 86.9438 62.5073
14447 1 5.47415 86.9503 61.2274
20060 2 6.37526 85.3502 59.9285
20084 2 3.64988 86.9629 59.9537
20043 2 4.56639 85.3339 62.4838
14401 1 8.19965 85.339 61.2028
20062 2 9.10612 86.9629 59.9537
20002 2 10.0226 85.3339 62.4838
20041 2 7.29691 86.9438 62.5073
14432 1 2.74864 88.5619 61.2543
14463 1 0.0230174 90.1738 61.283
20085 2 0.924464 88.5759 59.9812
20074 2 1.84547 90.1646 62.5606
14430 1 5.47926 90.1738 61.283
20047 2 6.3807 88.5759 59.9812
20087 2 3.65516 90.1891 60.0104
20042 2 4.57122 88.554 62.533
14400 1 8.20488 88.5619 61.2543
20045 2 9.11139 90.1891 60.0104
19995 2 10.0275 88.554 62.533
20044 2 7.30171 90.1646 62.5606
14431 1 2.75345 91.786 61.3131
14461 1 0.0274193 93.3983 61.3444
20078 2 0.929411 91.8023 60.0409
14433 1 5.48366 93.3983 61.3444
20046 2 6.38565 91.8023 60.0409
20076 2 3.65967 93.4156 60.0723
20028 2 4.57584 91.7755 62.5898
14386 1 8.20969 91.786 61.3131
20048 2 9.1159 93.4156 60.0723
19994 2 10.0321 91.7755 62.5898
20092 2 0.0212752 77.291 64.9741
14059 1 0.925409 75.6835 63.6875
19653 2 2.74905 75.6863 64.9716
14452 1 3.65397 77.2896 63.6904
20052 2 5.47751 77.291 64.9741
14006 1 6.38165 75.6835 63.6875
14405 1 9.11021 77.2896 63.6904
19617 2 8.20528 75.6863 64.9716
14442 1 0.926773 78.8959 63.6971
20053 2 2.75018 78.896 64.9803
20080 2 0.0232405 80.5012 64.9901
14406 1 6.38301 78.8959 63.6971
14440 1 3.65624 80.5026 63.7076
20054 2 5.47948 80.5012 64.9901
14407 1 9.11248 80.5026 63.7076
20001 2 8.20642 78.896 64.9803
14441 1 0.929828 82.1096 63.7217
20039 2 2.75289 82.1068 65.0033
20081 2 0.0265918 83.7128 65.0198
14398 1 6.38607 82.1096 63.7217
14443 1 3.65995 83.7172 63.739
20037 2 5.48283 83.7128 65.0198
14396 1 9.11619 83.7172 63.739
20000 2 8.20913 82.1068 65.0033
14428 1 0.934034 85.3252 63.7593
20038 2 2.75675 85.3193 65.0391
20072 2 0.0308097 86.9263 65.0611
14397 1 6.39027 85.3252 63.7593
14426 1 3.66448 86.9337 63.7823
20040 2 5.48705 86.9263 65.0611
14399 1 9.12072 86.9337 63.7823
19993 2 8.21299 85.3193 65.0391
14427 1 0.938726 88.5426 63.8076
20024 2 2.76118 88.5339 65.0855
20073 2 0.0353141 90.1419 65.1117
14383 1 6.39496 88.5426 63.8076
14429 1 3.66917 90.152 63.8348
20022 2 5.49155 90.1419 65.1117
14381 1 9.12541 90.152 63.8348
19992 2 8.21742 88.5339 65.0855
14420 1 0.943272 91.7618 63.8637
20023 2 2.76563 91.7504 65.1397
20071 2 0.0395934 93.3593 65.169
20075 2 1.84981 93.3866 62.62
14382 1 6.39951 91.7618 63.8637
14418 1 3.67346 93.372 63.8937
20025 2 5.49583 93.3593 65.169
14384 1 9.12969 93.372 63.8937
20026 2 7.30605 93.3866 62.62
19978 2 8.22187 91.7504 65.1397
14438 1 1.84498 77.2915 66.2546
19651 2 0.939519 75.691 67.5323
14437 1 0.0352661 77.2949 68.8229
13992 1 2.76319 75.6946 68.8211
20051 2 3.66784 77.2925 67.5341
14004 1 4.5728 75.6883 66.2524
19600 2 6.39576 75.691 67.5323
14389 1 5.4915 77.2949 68.8229
14404 1 7.30122 77.2915 66.2546
19997 2 9.12408 77.2925 67.5341
13965 1 10.029 75.6883 66.2524
13963 1 8.21943 75.6946 68.8211
14439 1 1.8468 80.4987 66.2699
20035 2 0.940325 78.8943 67.5394
14390 1 2.76395 78.8954 68.8282
14422 1 0.0367516 80.4962 68.8369
14394 1 4.57381 78.8949 66.2605
19998 2 6.39656 78.8943 67.5394
20033 2 3.66943 80.4963 67.5482
14391 1 5.49299 80.4962 68.8369
14346 1 10.0301 78.8949 66.2605
14392 1 7.30304 80.4987 66.2699
19999 2 9.12566 80.4963 67.5482
14343 1 8.22019 78.8954 68.8282
14424 1 1.84998 83.7075 66.2988
20034 2 0.942631 82.0987 67.5603
14375 1 2.76611 82.0974 68.8489
14423 1 0.039515 83.6991 68.864
14393 1 4.57636 82.1029 66.2828
19990 2 6.39887 82.0987 67.5603
20036 2 3.67237 83.7017 67.5755
14373 1 5.49575 83.6991 68.864
14345 1 10.0326 82.1029 66.2828
14395 1 7.30622 83.7075 66.2988
19988 2 9.12861 83.7017 67.5755
14342 1 8.22235 82.0974 68.8489
14425 1 1.85405 86.9185 66.3395
20020 2 0.946123 85.3051 67.5936
14374 1 2.76938 85.3014 68.8819
14414 1 0.0431839 86.9043 68.9026
14379 1 4.58006 85.3127 66.3178
19989 2 6.40236 85.3051 67.5936
20018 2 3.67629 86.9092 67.6143
14376 1 5.49942 86.9043 68.9026
14344 1 10.0363 85.3127 66.3178
14377 1 7.31029 86.9185 66.3395
19991 2 9.13253 86.9092 67.6143
14335 1 8.22562 85.3014 68.8819
14416 1 1.85846 90.1317 66.3895
20019 2 0.950343 88.514 67.6374
14361 1 2.77333 88.5079 68.9255
14415 1 0.0472979 90.1121 68.9505
14378 1 4.58437 88.5248 66.3635
19975 2 6.40658 88.514 67.6374
20021 2 3.68069 90.1193 67.6626
14359 1 5.50354 90.1121 68.9505
14337 1 10.0406 88.5248 66.3635
14380 1 7.3147 90.1317 66.3895
19973 2 9.13692 90.1193 67.6626
14334 1 8.22957 88.5079 68.9255
14417 1 1.86271 93.347 66.4463
20012 2 0.954785 91.7254 67.6895
14360 1 2.7775 91.7171 68.9773
14413 1 0.0514023 93.3228 69.0056
14365 1 4.58875 91.7391 66.4172
19974 2 6.41102 91.7254 67.6895
20010 2 3.68506 93.3321 67.7179
14362 1 5.50764 93.3228 69.0056
14336 1 10.045 91.7391 66.4172
14363 1 7.31895 93.347 66.4463
19976 2 9.1413 93.3321 67.7179
14324 1 8.23373 91.7171 68.9773
20031 2 1.85895 77.2931 70.0884
13990 1 0.950466 75.6994 71.4054
14388 1 3.67875 77.2965 71.4071
13954 1 6.4067 75.6994 71.4054
19598 2 4.58688 75.695 70.0867
14339 1 9.13499 77.2965 71.4071
19996 2 7.31519 77.2931 70.0884
19568 2 10.0431 75.695 70.0867
14371 1 0.951127 78.8937 71.4122
20032 2 1.86043 80.4899 70.1021
14340 1 6.40737 78.8937 71.4122
14369 1 3.68005 80.4913 71.4207
19986 2 4.58764 78.8913 70.0936
14341 1 9.13629 80.4913 71.4207
19944 2 10.0439 78.8913 70.0936
19984 2 7.31667 80.4899 70.1021
14370 1 0.95302 82.0894 71.4323
20016 2 1.86318 83.6886 70.1285
14332 1 6.40926 82.0894 71.4323
14372 1 3.68247 83.688 71.4469
19985 2 4.58979 82.089 70.1138
14330 1 9.13871 83.688 71.4469
19943 2 10.046 82.089 70.1138
19987 2 7.31942 83.6886 70.1285
14357 1 0.955885 85.2874 71.4643
20017 2 1.86684 86.8899 70.1662
14331 1 6.41212 85.2874 71.4643
14355 1 3.68569 86.8875 71.4843
19971 2 4.59305 85.2889 70.1461
14333 1 9.14193 86.8875 71.4843
19942 2 10.0493 85.2889 70.1461
19969 2 7.32308 86.8899 70.1662
14356 1 0.959354 88.4884 71.5066
20008 2 1.87096 90.0945 70.2132
14321 1 6.41559 88.4884 71.5066
14358 1 3.68931 90.0902 71.531
19970 2 4.59699 88.4918 70.1887
14319 1 9.14554 90.0902 71.531
19936 2 10.0532 88.4918 70.1887
19972 2 7.3272 90.0945 70.2132
14351 1 0.96302 91.6929 71.5571
20009 2 1.87509 93.3026 70.2673
14320 1 6.41926 91.6929 71.5571
14349 1 3.69293 93.2965 71.5846
19959 2 4.60117 91.6981 70.2395
14322 1 9.14917 93.2965 71.5846
19935 2 10.0574 91.6981 70.2395
19957 2 7.33133 93.3026 70.2673
14367 1 1.83496 77.3015 74.0657
20030 2 0.0477174 77.292 72.6295
19586 2 0.948359 75.7032 75.1182
19588 2 2.77565 75.6979 72.6278
19980 2 3.6766 77.294 75.1198
19981 2 5.50396 77.292 72.6295
13952 1 4.56308 75.7073 74.0641
19561 2 6.4046 75.7032 75.1182
14338 1 7.2912 77.3015 74.0657
19937 2 9.13284 77.294 75.1198
13945 1 10.0193 75.7073 74.0641
19566 2 8.23189 75.6979 72.6278
14368 1 1.83495 80.4907 74.0791
19963 2 0.948847 78.8851 75.1246
19982 2 2.77639 78.8864 72.6345
20014 2 0.0491649 80.4812 72.6428
14328 1 4.56308 78.8959 74.0708
19938 2 6.40509 78.8851 75.1246
19961 2 3.67756 80.4766 75.1325
19983 2 5.5054 80.4812 72.6428
14310 1 10.0193 78.8959 74.0708
14326 1 7.29119 80.4907 74.0791
19939 2 9.1338 80.4766 75.1325
19941 2 8.23263 78.8864 72.6345
14353 1 1.83494 83.6821 74.1051
19962 2 0.950241 82.0689 75.1435
19967 2 2.77849 82.0766 72.6542
20015 2 0.0518538 83.6727 72.6685
14327 1 4.56307 82.086 74.0906
19931 2 6.40648 82.0689 75.1435
19964 2 3.67934 83.6621 75.1573
19965 2 5.50809 83.6727 72.6685
14309 1 10.0193 82.086 74.0906
14329 1 7.29118 83.6821 74.1051
19929 2 9.13558 83.6621 75.1573
19940 2 8.23473 82.0766 72.6542
14354 1 1.83492 86.8769 74.1422
19951 2 0.952337 85.2563 75.1738
19966 2 2.78167 85.2696 72.6857
20006 2 0.0554185 86.8675 72.7053
14317 1 4.56305 85.279 74.1224
19930 2 6.40858 85.2563 75.1738
19949 2 3.68168 86.8517 75.1928
19968 2 5.51166 86.8675 72.7053
14308 1 10.0193 85.279 74.1224
14315 1 7.29116 86.8769 74.1422
19932 2 9.13792 86.8517 75.1928
19934 2 8.23791 85.2696 72.6857
14347 1 1.83485 90.0757 74.1885
19950 2 0.95484 88.4484 75.2141
19955 2 2.78551 88.4664 72.7273
20007 2 0.059414 90.0665 72.7513
14316 1 4.56302 88.4758 74.1644
19924 2 6.41108 88.4484 75.2141
19952 2 3.68426 90.0465 75.2373
19953 2 5.51565 90.0665 72.7513
14307 1 10.0193 88.4758 74.1644
14318 1 7.29109 90.0757 74.1885
19922 2 9.1405 90.0465 75.2373
19933 2 8.24175 88.4664 72.7273
14348 1 1.83466 93.279 74.2418
19947 2 0.95742 91.646 75.2623
19954 2 2.78955 91.6677 72.777
20005 2 0.0634084 93.27 72.8043
19956 2 5.51965 93.27 72.8043
14313 1 4.5629 91.6768 74.2144
19923 2 6.41366 91.646 75.2623
19945 2 3.68676 93.2468 75.2887
19927 2 8.24579 91.6677 72.777
19925 2 9.143 93.2468 75.2887
14311 1 7.2909 93.279 74.2418
14306 1 10.0191 91.6768 74.2144
2111 1 1.85497 94.5589 -2.88205
8361 2 0.924981 96.1482 -1.41827
8369 2 2.74937 96.1686 -3.91609
8376 2 0.0231032 94.5851 -3.93697
2098 1 4.5798 96.1417 -2.86065
8331 2 6.38122 96.1482 -1.41827
8367 2 3.65417 94.5664 -1.43974
8368 2 5.47934 94.5851 -3.93697
2052 1 10.036 96.1417 -2.86065
2100 1 7.31121 94.5589 -2.88205
8330 2 9.11041 94.5664 -1.43974
8334 2 8.20561 96.1686 -3.91609
2112 1 1.84829 97.7237 -2.83834
8360 2 0.92283 99.309 -1.37279
8365 2 2.74559 99.3323 -3.87182
8374 2 0.0193731 97.751 -3.89433
2097 1 4.57294 99.3047 -2.81528
8325 2 6.37907 99.309 -1.37279
8359 2 3.65203 97.7291 -1.39591
8370 2 5.47561 97.751 -3.89433
2051 1 10.0292 99.3047 -2.81528
2096 1 7.30453 97.7237 -2.83834
8332 2 9.10826 97.7291 -1.39591
8333 2 8.20183 99.3323 -3.87182
2108 1 1.84131 100.885 -2.79162
8350 2 0.92067 102.466 -1.32491
8364 2 2.74175 102.492 -3.82517
8375 2 0.0155508 100.912 -3.84872
2090 1 4.56589 102.464 -2.76751
8324 2 6.37691 102.466 -1.32491
8362 2 3.64987 100.888 -1.34907
8363 2 5.47179 100.912 -3.84872
2050 1 10.0221 102.464 -2.76751
2099 1 7.29755 100.885 -2.79162
8323 2 9.10611 100.888 -1.34907
8328 2 8.19799 102.492 -3.82517
2109 1 1.83423 104.042 -2.7431
8349 2 0.9185 105.619 -1.27587
8354 2 2.73792 105.646 -3.77732
8372 2 0.0117076 104.07 -3.80133
2089 1 4.55884 105.619 -2.71856
8311 2 6.37474 105.619 -1.27587
8348 2 3.64771 104.043 -1.30046
8366 2 5.46795 104.07 -3.80133
2043 1 10.0151 105.619 -2.71856
2088 1 7.29047 104.042 -2.7431
8326 2 9.10394 104.043 -1.30046
8327 2 8.19416 105.646 -3.77732
2104 1 1.82727 107.196 -2.694
8342 2 0.916314 108.769 -1.22678
8353 2 2.73416 108.797 -3.72935
8373 2 0.00790461 107.222 -3.75329
2076 1 4.552 108.771 -2.66957
8310 2 6.37255 108.769 -1.22678
8351 2 3.64553 107.195 -1.25126
8352 2 5.46414 107.222 -3.75329
2042 1 10.0082 108.771 -2.66957
2091 1 7.2835 107.196 -2.694
8309 2 9.10177 107.195 -1.25126
8314 2 8.19039 108.797 -3.72935
2105 1 1.82058 110.346 -2.64538
8341 2 0.914115 111.916 -1.17867
8343 2 2.73052 111.944 -3.68226
8371 2 0.00419839 110.371 -3.70564
2075 1 4.54552 111.92 -2.62156
8293 2 6.37035 111.916 -1.17867
8340 2 3.64333 110.343 -1.20255
8355 2 5.46044 110.371 -3.70564
2027 1 10.0018 111.92 -2.62156
2074 1 7.27682 110.346 -2.64538
8312 2 9.09957 110.343 -1.20255
8313 2 8.18676 111.944 -3.68226
2082 1 0.928123 96.1063 2.39322
2094 1 2.74659 96.1282 -0.198414
2110 1 0.0198517 94.5471 -0.220031
8357 2 1.8373 94.5414 1.10876
2046 1 6.38436 96.1063 2.39322
2092 1 3.65759 94.5266 2.37108
2093 1 5.47609 94.5471 -0.220031
8321 2 4.56422 96.1218 1.13064
2045 1 9.11382 94.5266 2.37108
2049 1 8.20283 96.1282 -0.198414
8268 2 10.0205 96.1218 1.13064
8329 2 7.29354 94.5414 1.10876
2081 1 0.925351 99.2636 2.4401
2086 1 2.74375 99.2881 -0.15258
2106 1 0.0170598 97.7086 -0.175878
8358 2 1.83487 97.7013 1.15342
2038 1 6.38159 99.2636 2.4401
2080 1 3.65487 97.6853 2.41628
2095 1 5.4733 97.7086 -0.175878
8320 2 4.56175 99.2801 1.17697
2047 1 9.11111 97.6853 2.41628
2048 1 8.19999 99.2881 -0.15258
8267 2 10.018 99.2801 1.17697
8319 2 7.29111 97.7013 1.15342
2068 1 0.922486 102.418 2.48937
2085 1 2.74084 102.445 -0.104329
2107 1 0.0141821 100.867 -0.128678
8346 2 1.83237 100.858 1.2011
2037 1 6.37872 102.418 2.48937
2083 1 3.65205 100.841 2.46451
2084 1 5.47042 100.867 -0.128678
8307 2 4.55921 102.435 1.22567
2036 1 9.10829 100.841 2.46451
2041 1 8.19708 102.445 -0.104329
8266 2 10.0155 102.435 1.22567
8322 2 7.28861 100.858 1.2011
2067 1 0.919557 105.57 2.53975
2072 1 2.7379 105.598 -0.0548944
2102 1 0.0112533 104.022 -0.0796847
8347 2 1.82981 104.012 1.25052
2023 1 6.37579 105.57 2.53975
2066 1 3.64915 103.994 2.51449
2087 1 5.46749 104.022 -0.0796847
8306 2 4.55663 105.588 1.27551
2039 1 9.10539 103.994 2.51449
2040 1 8.19414 105.598 -0.0548944
8259 2 10.0129 105.588 1.27551
8305 2 7.28605 104.012 1.25052
2071 1 2.73495 108.748 -0.00543356
2103 1 0.00830233 107.174 -0.0300994
8338 2 1.82721 107.163 1.30048
2069 1 3.6462 107.145 2.56498
2070 1 5.46454 107.174 -0.0300994
8292 2 4.55401 108.737 1.32531
2021 1 9.10243 107.145 2.56498
2026 1 8.19119 108.748 -0.00543356
8258 2 10.0103 108.737 1.32531
8308 2 7.28344 107.163 1.30048
2061 1 2.73202 111.896 0.0430219
2101 1 0.00536085 110.323 0.0189785
8339 2 1.82458 110.311 1.34987
2073 1 5.4616 110.323 0.0189785
8291 2 4.55139 111.885 1.37405
2025 1 8.18826 111.896 0.0430219
8243 2 10.0076 111.885 1.37405
8290 2 7.28082 110.311 1.34987
2078 1 1.84027 94.5082 4.94722
8317 2 2.74715 96.0986 3.69327
8356 2 0.0204082 94.5198 3.67095
2034 1 4.56691 96.0865 4.96991
8316 2 5.47665 94.5198 3.67095
1980 1 10.0231 96.0865 4.96991
2044 1 7.29651 94.5082 4.94722
8265 2 8.20339 96.0986 3.69327
2079 1 1.83728 97.6641 4.99352
8303 2 2.74431 99.2546 3.74048
8344 2 0.0176241 97.677 3.7165
2033 1 4.56344 99.2416 5.01932
8318 2 5.47386 97.677 3.7165
1979 1 10.0197 99.2416 5.01932
2032 1 7.29352 97.6641 4.99352
8264 2 8.20055 99.2546 3.74048
2064 1 1.83361 100.818 5.04427
8302 2 2.74137 102.408 3.79002
8345 2 0.0147312 100.831 3.76504
2019 1 4.56013 102.394 5.06958
8301 2 5.47097 100.831 3.76504
1978 1 10.0164 102.394 5.06958
2035 1 7.28985 100.818 5.04427
8257 2 8.19761 102.408 3.79002
2065 1 1.8304 103.97 5.09514
8288 2 2.73836 105.559 3.84061
8336 2 0.0117537 103.984 3.81526
2018 1 4.55689 105.545 5.12076
8304 2 5.46799 103.984 3.81526
1971 1 10.0131 105.545 5.12076
2017 1 7.28664 103.97 5.09514
8256 2 8.1946 105.559 3.84061
2060 1 0.916592 108.72 2.59006
2056 1 1.82713 107.119 5.14631
8287 2 2.73531 108.708 3.89106
8337 2 0.00872049 107.134 3.86592
2022 1 6.37283 108.72 2.59006
2004 1 4.55361 108.694 5.17165
8286 2 5.46496 107.134 3.86592
1970 1 10.0098 108.694 5.17165
2020 1 7.28337 107.119 5.14631
8242 2 8.19155 108.708 3.89106
2059 1 0.913635 111.868 2.63925
2057 1 1.82386 110.268 5.19666
8277 2 2.73228 111.856 3.94033
8335 2 0.005672 110.282 3.9159
2005 1 6.36987 111.868 2.63925
2058 1 3.64323 110.294 2.61485
2003 1 4.55037 111.841 5.22123
8289 2 5.46191 110.282 3.9159
2024 1 9.09947 110.294 2.61485
1956 1 10.0066 111.841 5.22123
2002 1 7.2801 110.268 5.19666
8241 2 8.18852 111.856 3.94033
2030 1 2.74782 96.0687 7.54504
8299 2 0.928783 96.0786 6.26277
8296 2 1.8363 97.6354 8.8593
2062 1 0.018057 97.6448 7.56946
8250 2 4.56618 96.0599 8.8348
8262 2 6.38502 96.0786 6.26277
2031 1 5.4743 97.6448 7.56946
1977 1 8.20406 96.0687 7.54504
8208 2 10.0224 96.0599 8.8348
8248 2 7.29254 97.6354 8.8593
2015 1 2.74436 99.2206 7.59467
8298 2 0.925632 99.2318 6.31119
8280 2 1.83268 100.785 8.90995
2063 1 0.0145379 100.796 7.62035
8249 2 4.56263 99.2105 8.88438
8254 2 6.38187 99.2318 6.31119
8297 2 3.6553 97.6554 6.28663
2013 1 5.47078 100.796 7.62035
1976 1 8.2006 99.2206 7.59467
8207 2 10.0189 99.2105 8.88438
8263 2 9.11154 97.6554 6.28663
8251 2 7.28892 100.785 8.90995
2014 1 2.74084 102.371 7.64619
8284 2 0.922225 102.383 6.36174
8281 2 1.82894 103.934 8.96168
2054 1 0.0109199 103.946 7.67212
8235 2 4.55893 102.36 8.93578
8253 2 6.37846 102.383 6.36174
8300 2 3.65204 100.808 6.33634
2016 1 5.46716 103.946 7.67212
1969 1 8.19708 102.371 7.64619
8206 2 10.0152 102.36 8.93578
8252 2 9.10827 100.808 6.33634
8233 2 7.28517 103.934 8.96168
2000 1 2.73723 105.52 7.69804
8283 2 0.918827 105.533 6.41293
8272 2 1.82521 107.082 9.0132
2055 1 0.00731264 107.095 7.7238
8234 2 4.55518 105.508 8.98753
8239 2 6.37507 105.533 6.41293
8282 2 3.64865 103.958 6.38732
1998 1 5.46355 107.095 7.7238
1968 1 8.19347 105.52 7.69804
8200 2 10.0114 105.508 8.98753
8255 2 9.10488 103.958 6.38732
8236 2 7.28145 107.082 9.0132
1999 1 2.73365 108.669 7.74929
8276 2 0.915441 108.682 6.46371
8273 2 1.82159 110.23 9.0635
2053 1 0.00376898 110.242 7.77439
8223 2 4.5515 108.656 9.03855
8238 2 6.37168 108.682 6.46371
8285 2 3.64525 107.108 6.43844
2001 1 5.46001 110.242 7.77439
1955 1 8.18989 108.669 7.74929
8199 2 10.0077 108.656 9.03855
8237 2 9.10149 107.108 6.43844
8221 2 7.27783 110.23 9.0635
1989 1 2.73016 111.816 7.799
8275 2 0.912121 111.829 6.5131
2461 1 0.000358722 113.39 7.82302
8703 2 1.81815 113.378 9.11177
8222 2 4.54796 111.804 9.08793
8224 2 6.36836 111.829 6.5131
8274 2 3.64189 110.256 6.48864
8723 2 3.63863 113.403 6.53702
2413 1 5.4566 113.39 7.82302
8668 2 7.27439 113.378 9.11177
1954 1 8.1864 111.816 7.799
8192 2 10.0042 111.804 9.08793
8240 2 9.09813 110.256 6.48864
8669 2 9.09486 113.403 6.53702
2011 1 0.92872 96.0509 10.1193
8246 2 2.74697 96.0414 11.4082
8278 2 0.016874 97.6155 11.4334
1974 1 6.38496 96.0509 10.1193
8247 2 5.47311 97.6155 11.4334
2009 1 3.65499 97.6256 10.1444
8205 2 8.20321 96.0414 11.4082
1975 1 9.11122 97.6256 10.1444
2010 1 0.924943 99.2001 10.17
8231 2 2.74299 99.1894 11.4591
8279 2 0.0128331 100.763 11.4851
1966 1 6.38118 99.2001 10.17
8229 2 5.46907 100.763 11.4851
2012 1 3.65113 100.774 10.1961
8204 2 8.19923 99.1894 11.4591
1964 1 9.10737 100.774 10.1961
1996 1 0.921052 102.348 10.2223
8230 2 2.73891 102.337 11.5113
8270 2 0.00874616 103.91 11.5375
1965 1 6.37729 102.348 10.2223
8232 2 5.46498 103.91 11.5375
1994 1 3.6472 103.922 10.2486
8198 2 8.19515 102.337 11.5113
1967 1 9.10344 103.922 10.2486
1995 1 0.917109 105.496 10.2747
8219 2 2.73484 105.484 11.5635
8271 2 0.00473713 107.058 11.5893
1952 1 6.37335 105.496 10.2747
8217 2 5.46098 107.058 11.5893
1997 1 3.64328 107.07 10.3006
8197 2 8.19108 105.484 11.5635
1950 1 9.09952 107.07 10.3006
1988 1 0.913256 108.644 10.3261
8218 2 2.73092 108.631 11.6146
8269 2 0.000922848 110.205 11.6395
1951 1 6.36949 108.644 10.3261
8220 2 5.45716 110.205 11.6395
1986 1 3.63951 110.218 10.3512
8191 2 8.18716 108.631 11.6146
1953 1 9.09575 110.218 10.3512
1987 1 0.909586 111.792 10.3758
8212 2 2.72723 111.779 11.6638
2412 1 3.63596 113.365 10.3997
1941 1 6.36582 111.792 10.3758
8653 2 5.45362 113.353 11.6875
8190 2 8.18347 111.779 11.6638
2357 1 9.0922 113.365 10.3997
11966 2 10.9099 113.353 11.6875
1958 1 2.7456 96.0127 15.2693
8227 2 0.927338 96.022 13.9827
1990 1 0.0150841 97.5847 15.296
2008 1 1.83529 97.6059 12.7197
1962 1 4.56551 96.0325 12.6939
8202 2 6.38358 96.022 13.9827
1959 1 5.47132 97.5847 15.296
8225 2 3.65321 97.5947 14.0087
1929 1 8.20183 96.0127 15.2693
1932 1 10.0217 96.0325 12.6939
1960 1 7.29153 97.6059 12.7197
8203 2 9.10945 97.5947 14.0087
1944 1 2.7408 99.1568 15.3229
8226 2 0.922836 99.1674 14.035
1991 1 0.0102911 100.729 15.3498
1992 1 1.83101 100.752 12.7724
1961 1 4.56128 99.1792 12.7459
8195 2 6.37907 99.1674 14.035
1942 1 5.46653 100.729 15.3498
8228 2 3.6487 100.74 14.0615
1928 1 8.19704 99.1568 15.3229
1931 1 10.0175 99.1792 12.7459
1963 1 7.28724 100.752 12.7724
8193 2 9.10493 100.74 14.0615
1943 1 2.73605 102.301 15.3767
8215 2 0.918333 102.313 14.0881
1982 1 0.00562607 103.874 15.4034
1993 1 1.82671 103.899 12.8255
1948 1 4.55697 102.325 12.799
8194 2 6.37457 102.313 14.0881
1945 1 5.46186 103.874 15.4034
8213 2 3.64424 103.886 14.1145
1925 1 8.19229 102.301 15.3767
1930 1 10.0132 102.325 12.799
8196 2 9.10048 103.886 14.1145
1946 1 7.28295 103.899 12.8255
1936 1 2.73151 105.447 15.4297
8214 2 0.913969 105.459 14.1406
1983 1 0.00124382 107.02 15.4556
1984 1 1.82253 107.045 12.8778
1947 1 4.55272 105.472 12.8518
8188 2 6.37021 105.459 14.1406
1934 1 5.45748 107.02 15.4556
8216 2 3.64 107.032 14.1663
1924 1 8.18775 105.447 15.4297
1927 1 10.009 105.472 12.8518
8186 2 9.09624 107.032 14.1663
1949 1 7.27877 107.045 12.8778
1985 1 1.8186 110.193 12.9282
1935 1 2.72731 108.593 15.4809
8211 2 0.909873 108.606 14.1916
8209 2 3.63608 110.18 14.2163
1938 1 7.27484 110.193 12.9282
1940 1 4.54865 108.619 12.9032
8187 2 6.36611 108.606 14.1916
1937 1 5.45349 110.167 15.5056
5053 1 10.9097 110.167 15.5056
1926 1 10.0049 108.619 12.9032
1922 1 8.18355 108.593 15.4809
8189 2 9.09231 110.18 14.2163
8210 2 0.906135 111.754 14.2404
8652 2 3.63253 113.329 14.2638
1933 1 2.72355 111.741 15.5296
2391 1 1.815 113.341 12.9762
1939 1 4.54488 111.767 12.9525
2341 1 5.44995 113.316 15.5529
8185 2 6.36237 111.754 14.2404
2356 1 7.27124 113.341 12.9762
1923 1 10.0011 111.767 12.9525
1921 1 8.17979 111.741 15.5296
5462 1 10.9062 113.316 15.5529
8609 2 9.08877 113.329 14.2638
8550 2 2.74251 95.9759 19.1354
2302 1 0.925062 95.9903 17.846
8568 2 1.83272 97.572 16.5852
8562 2 0.0114769 97.5461 19.163
8554 2 4.5634 96.0005 16.5584
2279 1 6.3813 95.9903 17.846
8551 2 5.46772 97.5461 19.163
2300 1 3.65045 97.5609 17.8735
8505 2 8.19875 95.9759 19.1354
8508 2 10.0196 96.0005 16.5584
8552 2 7.28896 97.572 16.5852
2280 1 9.10668 97.5609 17.8735
2301 1 0.919627 99.1318 17.901
8542 2 2.73676 99.1166 19.1906
8564 2 1.82768 100.715 16.6392
8563 2 0.00590589 100.688 19.218
8553 2 4.5583 99.1435 16.6122
2275 1 6.37586 99.1318 17.901
2303 1 3.64511 100.703 17.9284
8540 2 5.46214 100.688 19.218
8504 2 8.193 99.1166 19.1906
8507 2 10.0145 99.1435 16.6122
8555 2 7.28392 100.715 16.6392
2273 1 9.10135 100.703 17.9284
2295 1 0.914438 102.275 17.9555
8541 2 2.73142 102.259 19.2449
8565 2 1.82288 103.86 16.6925
8546 2 4.55336 102.287 16.666
2274 1 6.37068 102.275 17.9555
2293 1 3.64012 103.847 17.9822
8497 2 8.18766 102.259 19.2449
8506 2 10.0096 102.287 16.666
2276 1 9.09635 103.847 17.9822
8544 2 7.27912 103.86 16.6925
2294 1 0.909683 105.419 18.0084
8560 2 1.81848 107.006 16.7442
2296 1 3.63563 106.992 18.0341
8545 2 4.54875 105.433 16.7186
2263 1 6.36592 105.419 18.0084
8547 2 7.27472 107.006 16.7442
8499 2 10.005 105.433 16.7186
2261 1 9.09186 106.992 18.0341
2288 1 0.905476 108.566 18.059
8561 2 1.81456 110.154 16.7936
2286 1 3.63171 110.14 18.0833
2262 1 6.36171 108.566 18.059
8532 2 4.54458 108.58 16.7692
8530 2 7.2708 110.154 16.7936
8498 2 10.0008 108.58 16.7692
2264 1 9.08795 110.14 18.0833
2287 1 0.901854 111.715 18.1069
8975 2 1.81115 113.303 16.8403
2688 1 3.62838 113.29 18.1297
2245 1 6.35809 111.715 18.1069
8531 2 4.54091 111.728 16.8173
8964 2 7.26738 113.303 16.8403
8483 2 9.99715 111.728 16.8173
2662 1 9.08461 113.29 18.1297
8538 2 0.920665 95.9466 21.714
2299 1 1.82871 97.5332 20.4524
2271 1 4.55993 95.9639 20.4241
8502 2 6.3769 95.9466 21.714
8536 2 3.64551 97.5156 21.7423
2220 1 10.0162 95.9639 20.4241
2269 1 7.28495 97.5332 20.4524
8503 2 9.10175 97.5156 21.7423
8537 2 0.914282 99.0853 21.7704
2291 1 1.82285 100.674 20.5082
2270 1 4.55383 99.1031 20.4805
8494 2 6.37052 99.0853 21.7704
8539 2 3.63949 100.656 21.7979
2219 1 10.0101 99.1031 20.4805
2272 1 7.27909 100.674 20.5082
8492 2 9.09573 100.656 21.7979
8558 2 0.000841518 103.831 19.2714
8524 2 0.908676 102.227 21.8248
2292 1 1.81765 103.817 20.5619
8522 2 3.63433 103.799 21.851
8543 2 5.45708 103.831 19.2714
2259 1 4.54827 102.245 20.5354
8493 2 6.36491 102.227 21.8248
2257 1 7.27388 103.817 20.5619
2218 1 10.0045 102.245 20.5354
8495 2 9.09057 103.799 21.851
8528 2 2.72666 105.404 19.2974
8523 2 0.90397 105.372 21.8766
2284 1 1.81321 106.963 20.613
8525 2 3.63007 106.946 21.9014
8526 2 5.45265 106.977 19.3227
2258 1 4.54345 105.389 20.5878
8479 2 6.36021 105.372 21.8766
2260 1 7.26945 106.963 20.613
8496 2 8.1829 105.404 19.2974
2211 1 9.99969 105.389 20.5878
8477 2 9.08631 106.946 21.9014
11823 2 10.9089 106.977 19.3227
8527 2 2.72257 108.551 19.3473
8516 2 0.900151 108.521 21.9255
2285 1 1.80955 110.112 20.6612
8514 2 3.62666 110.096 21.9489
8529 2 5.44889 110.126 19.3713
2244 1 4.53941 108.537 20.6375
8478 2 6.35639 108.521 21.9255
2242 1 7.26579 110.112 20.6612
8482 2 8.1788 108.551 19.3473
2210 1 9.99565 108.537 20.6375
8480 2 9.0829 110.096 21.9489
11821 2 10.9051 110.126 19.3713
8517 2 2.71912 111.701 19.3945
8515 2 0.897119 111.672 21.9715
2682 1 1.80658 113.263 20.7065
8956 2 3.62398 113.249 21.9934
2243 1 4.53611 111.687 20.6842
8461 2 6.35336 111.672 21.9715
8957 2 5.44575 113.277 19.417
2661 1 7.26282 113.263 20.7065
8481 2 8.17536 111.701 19.3945
2195 1 9.99234 111.687 20.6842
8909 2 9.08022 113.249 21.9934
12238 2 10.902 113.277 19.417
2251 1 0.913568 95.8928 25.5859
2267 1 2.73746 95.932 23.004
2289 1 0.00587528 97.5002 23.033
8535 2 1.82212 97.4793 24.3231
2214 1 6.36981 95.8928 25.5859
8490 2 4.55382 95.9111 24.2942
2249 1 3.63797 97.4604 25.6151
2268 1 5.46211 97.5002 23.033
2217 1 8.1937 95.932 23.004
8436 2 10.0101 95.9111 24.2942
2215 1 9.09421 97.4604 25.6151
8488 2 7.27836 97.4793 24.3231
2250 1 0.906511 99.0294 25.6434
2255 1 2.73075 99.0693 23.0614
8520 2 1.81589 100.619 24.3786
2252 1 3.63167 100.6 25.6707
2206 1 6.36275 99.0294 25.6434
8489 2 4.54696 99.0486 24.3513
2253 1 5.45587 100.639 23.0891
8491 2 7.27212 100.619 24.3786
2216 1 8.18699 99.0693 23.0614
8435 2 10.0032 99.0486 24.3513
2204 1 9.08791 100.6 25.6707
5362 1 10.9121 100.639 23.0891
2236 1 0.900977 102.172 25.697
2254 1 2.72503 102.211 23.116
8521 2 1.81092 103.763 24.431
2234 1 3.62687 103.745 25.7224
2205 1 6.35722 102.172 25.697
8475 2 4.54137 102.191 24.4052
2256 1 5.45069 103.783 23.1421
8473 2 7.26716 103.763 24.431
2209 1 8.18126 102.211 23.116
8434 2 9.9976 102.191 24.4052
2207 1 9.08311 103.745 25.7224
5354 1 10.9069 103.783 23.1421
2235 1 0.896856 105.319 25.747
2240 1 2.72038 105.356 23.1675
8512 2 1.80712 106.912 24.4801
2237 1 3.62337 106.894 25.7708
2191 1 6.35309 105.319 25.747
8474 2 4.53701 105.337 24.4559
2238 1 5.44656 106.93 23.1921
8476 2 7.26336 106.912 24.4801
5355 1 10.9028 106.93 23.1921
2208 1 8.17662 105.356 23.1675
8427 2 9.99324 105.337 24.4559
2189 1 9.07961 106.894 25.7708
2228 1 0.893899 108.471 25.7937
2239 1 2.71674 108.505 23.2159
8513 2 1.80429 110.064 24.5261
2226 1 3.62089 110.048 25.816
2190 1 6.35014 108.471 25.7937
8460 2 4.53372 108.488 24.5035
2241 1 5.44337 110.081 23.2389
8458 2 7.26053 110.064 24.5261
5353 1 10.8996 110.081 23.2389
2194 1 8.17298 108.505 23.2159
8426 2 9.98996 108.488 24.5035
2192 1 9.07713 110.048 25.816
2227 1 0.891842 111.626 25.8375
2229 1 2.71396 111.657 23.2612
8942 2 1.80223 113.22 24.5692
2649 1 3.61919 113.205 25.8583
2174 1 6.34808 111.626 25.8375
8459 2 4.5313 111.642 24.548
2650 1 5.44095 113.235 23.2828
8908 2 7.25846 113.22 24.5692
2597 1 9.07543 113.205 25.8583
5753 1 10.8972 113.235 23.2828
2193 1 8.1702 111.657 23.2612
8412 2 9.98753 111.642 24.548
8486 2 2.72921 95.8676 26.876
2248 1 1.81242 97.4122 28.1983
2202 1 4.54424 95.8443 28.1695
8487 2 5.45364 97.4357 26.905
2200 1 7.26866 97.4122 28.1983
2154 1 10.0005 95.8443 28.1695
8433 2 8.18545 95.8676 26.876
11782 2 10.9099 97.4357 26.905
8471 2 2.72229 99.0053 26.9329
2232 1 1.80664 100.554 28.2522
2201 1 4.53739 98.9821 28.2259
8469 2 5.44763 100.577 26.9597
2203 1 7.26287 100.554 28.2522
2153 1 9.99363 98.9821 28.2259
8432 2 8.17853 99.0053 26.9329
11783 2 10.9039 100.577 26.9597
8470 2 2.71715 102.149 26.9856
2233 1 1.8027 103.702 28.302
2187 1 4.53258 102.127 28.2776
8472 2 5.44328 103.723 27.0106
2185 1 7.25893 103.702 28.302
11774 2 10.8995 103.723 27.0106
2152 1 9.98882 102.127 28.2776
8425 2 8.17339 102.149 26.9856
8456 2 2.71351 105.298 27.0347
2224 1 1.80016 106.855 28.3484
2186 1 4.5294 105.278 28.3256
8454 2 5.44026 106.875 27.058
2188 1 7.2564 106.855 28.3484
11775 2 10.8965 106.875 27.058
2145 1 9.98564 105.278 28.3256
8424 2 8.16974 105.298 27.0347
8455 2 2.71102 108.452 27.0806
2225 1 1.79862 110.013 28.3918
2173 1 4.52741 108.433 28.3704
8457 2 5.43824 110.03 27.1024
2171 1 7.25486 110.013 28.3918
11773 2 10.8945 110.03 27.1024
2144 1 9.98364 108.433 28.3704
8411 2 8.16726 108.452 27.0806
8445 2 2.7094 111.609 27.1235
2631 1 1.79778 113.173 28.4325
2172 1 4.52625 111.592 28.4125
8893 2 5.43695 113.189 27.144
2596 1 7.25402 113.173 28.4325
2133 1 9.98249 111.592 28.4125
8410 2 8.16564 111.609 27.1235
12205 2 10.8932 113.189 27.144
2198 1 2.71701 95.7849 30.7538
8467 2 0.902965 95.8144 29.4588
8464 2 1.80094 97.3226 32.0682
8465 2 3.62766 97.3836 29.4872
8418 2 4.53171 95.7506 32.0411
8430 2 6.3592 95.8144 29.4588
2199 1 5.44191 97.3549 30.7814
8416 2 7.25718 97.3226 32.0682
5302 1 10.8981 97.3549 30.7814
2151 1 8.17325 95.7849 30.7538
8388 2 9.98794 95.7506 32.0411
8431 2 9.08389 97.3836 29.4872
2183 1 2.71125 98.9272 30.8076
8466 2 0.896716 98.9548 29.5143
8448 2 1.79747 100.473 32.1187
8468 2 3.62255 100.528 29.5402
8417 2 4.52706 98.8968 32.094
8422 2 6.35295 98.9548 29.5143
2181 1 5.43741 100.501 30.8326
8419 2 7.25371 100.473 32.1187
5303 1 10.8936 100.501 30.8326
2150 1 8.16749 98.9272 30.8076
8387 2 9.9833 98.8968 32.094
8420 2 9.07879 100.528 29.5402
2182 1 2.70781 102.077 30.8567
8452 2 0.892606 102.102 29.565
8449 2 1.79573 103.63 32.1652
8450 2 3.61929 103.679 29.589
8404 2 4.52455 102.051 32.1424
8421 2 6.34884 102.102 29.565
2184 1 5.43485 103.655 30.8799
8402 2 7.25197 103.63 32.1652
5294 1 10.8911 103.655 30.8799
2143 1 8.16405 102.077 30.8567
8386 2 9.98079 102.051 32.1424
8423 2 9.07553 103.679 29.589
2169 1 2.70596 105.233 30.9024
8451 2 0.890069 105.256 29.6121
8440 2 1.79509 106.791 32.2088
8453 2 3.61736 106.834 29.6345
8403 2 4.52342 105.21 32.1874
8408 2 6.34631 105.256 29.6121
2167 1 5.43357 106.813 30.9242
8405 2 7.25133 106.791 32.2088
5295 1 10.8898 106.813 30.9242
2142 1 8.1622 105.233 30.9024
8383 2 9.97966 105.21 32.1874
8406 2 9.0736 106.834 29.6345
2168 1 2.70515 108.394 30.9453
8444 2 0.888633 108.414 29.6562
8441 2 1.79514 109.956 32.25
8442 2 3.61633 109.994 29.6772
8396 2 4.52317 108.373 32.2297
8407 2 6.34487 108.414 29.6562
2170 1 5.43314 109.975 30.9658
8394 2 7.25138 109.956 32.25
5293 1 10.8894 109.975 30.9658
2132 1 8.16139 108.394 30.9453
8382 2 9.97941 108.373 32.2297
8409 2 9.07257 109.994 29.6772
2160 1 2.70501 111.557 30.9858
8443 2 0.88794 111.575 29.6976
8871 2 1.79561 113.123 32.2888
8892 2 3.61591 113.157 29.7173
8395 2 4.52346 111.539 32.2697
8397 2 6.34418 111.575 29.6976
2581 1 5.43322 113.14 31.0051
8836 2 7.25185 113.123 32.2888
2131 1 8.16125 111.557 30.9858
8379 2 9.9797 111.539 32.2697
5702 1 10.8895 113.14 31.0051
8837 2 9.07215 113.157 29.7173
2179 1 0.888717 95.7142 33.3368
8414 2 2.7041 95.6764 34.6203
2177 1 3.6147 97.2885 33.3623
2148 1 6.34496 95.7142 33.3368
8415 2 5.43083 97.2533 34.6459
2136 1 4.51696 95.6328 35.9152
11710 2 10.8871 97.2533 34.6459
8385 2 8.16034 95.6764 34.6203
2149 1 9.07094 97.2885 33.3623
2118 1 9.9732 95.6328 35.9152
2180 1 3.61228 100.443 33.4103
2178 1 0.88511 98.8649 33.3868
8400 2 2.70186 98.8322 34.6703
8398 2 5.42953 100.413 34.6937
2140 1 6.34135 98.8649 33.3868
11711 2 10.8858 100.413 34.6937
2138 1 9.06851 100.443 33.4103
8384 2 8.15809 98.8322 34.6703
2163 1 3.61147 103.604 33.455
2165 1 0.883601 102.023 33.433
8399 2 2.70127 101.995 34.7163
8401 2 5.42948 103.577 34.7382
2139 1 6.33984 102.023 33.433
11702 2 10.8857 103.577 34.7382
2141 1 9.06771 103.604 33.455
8381 2 8.15751 101.995 34.7163
8392 2 2.70164 105.161 34.7595
2164 1 0.883334 105.186 33.4765
2166 1 3.61162 106.769 33.4973
2129 1 6.33957 105.186 33.4765
8390 2 5.43017 106.746 34.7802
11703 2 10.8864 106.746 34.7802
8380 2 8.15788 105.161 34.7595
2127 1 9.06785 106.769 33.4973
2157 1 3.61231 109.936 33.5375
2159 1 0.883793 108.352 33.5177
8391 2 2.70256 108.331 34.8004
8393 2 5.43126 109.916 34.8202
2128 1 6.34003 108.352 33.5177
11701 2 10.8875 109.916 34.8202
2130 1 9.06855 109.936 33.5375
8378 2 8.1588 108.331 34.8004
8389 2 2.70377 111.502 34.8394
2158 1 0.88466 111.521 33.5568
2580 1 3.6133 113.106 33.5756
2122 1 6.3409 111.521 33.5568
8821 2 5.43254 113.089 34.8581
12134 2 10.8888 113.089 34.8581
2531 1 9.06954 113.106 33.5756
8377 2 8.16 111.502 34.8394
8590 2 0.878278 95.5937 37.1931
14271 1 2.69128 95.5432 38.4851
8588 2 3.6064 97.1775 37.2176
2176 1 1.78834 97.2139 35.9386
8579 2 6.33452 95.5937 37.1931
14656 1 5.42076 97.1337 38.5074
2134 1 7.24458 97.2139 35.9386
14241 1 8.14752 95.5432 38.4851
8580 2 9.06264 97.1775 37.2176
17484 1 10.877 97.1337 38.5074
8589 2 0.878589 98.7627 37.241
14657 1 2.69391 98.7238 38.5293
2161 1 1.78848 100.38 35.9835
8591 2 3.60724 100.349 37.2636
8576 2 6.33483 98.7627 37.241
2135 1 4.51638 98.7964 35.9614
14658 1 5.4233 100.314 38.5508
2137 1 7.24472 100.38 35.9835
14622 1 8.15015 98.7238 38.5293
2117 1 9.97262 98.7964 35.9614
8574 2 9.06348 100.349 37.2636
17482 1 10.8795 100.314 38.5508
8586 2 0.879809 101.935 37.2855
14653 1 2.69645 101.904 38.572
2162 1 1.78951 103.55 36.0263
8584 2 3.60873 103.523 37.3069
8575 2 6.33605 101.935 37.2855
2125 1 4.51703 101.965 36.0051
14651 1 5.42584 103.494 38.5928
2123 1 7.24575 103.55 36.0263
14621 1 8.15269 101.904 38.572
2116 1 9.97327 101.965 36.0051
8577 2 9.06497 103.523 37.3069
17483 1 10.8821 103.494 38.5928
8585 2 0.881489 105.11 37.3277
14652 1 2.699 105.084 38.6132
2155 1 1.79101 106.722 36.0672
8587 2 3.61054 106.698 37.3481
8572 2 6.33773 105.11 37.3277
2124 1 4.51834 105.136 36.0469
14654 1 5.42838 106.674 38.6332
2126 1 7.24725 106.722 36.0672
14616 1 8.15524 105.084 38.6132
2115 1 9.97458 105.136 36.0469
8570 2 9.06678 106.698 37.3481
17480 1 10.8846 106.674 38.6332
8583 2 0.883383 108.287 37.368
14642 1 2.70151 108.264 38.6528
2156 1 1.79272 109.896 36.1064
8581 2 3.61248 109.875 37.3874
8571 2 6.33962 108.287 37.368
14640 1 5.43086 109.855 38.6721
2121 1 4.51997 108.309 36.087
2119 1 7.24896 109.896 36.1064
14615 1 8.15775 108.264 38.6528
2114 1 9.9762 108.309 36.087
8573 2 9.06872 109.875 37.3874
17481 1 10.8871 109.855 38.6721
9000 2 3.61443 113.053 37.4249
2559 1 1.79449 113.071 36.1437
8582 2 0.88534 111.464 37.4064
14641 1 2.70393 111.445 38.6909
2530 1 7.25073 113.071 36.1437
8569 2 6.34158 111.464 37.4064
14643 1 5.43321 113.035 38.7093
2120 1 4.52172 111.483 36.1253
8986 2 9.07067 113.053 37.4249
14602 1 8.16017 111.445 38.6909
2113 1 9.97796 111.483 36.1253
17479 1 10.8895 113.035 38.7093
20279 2 1.78539 97.0986 39.7812
14269 1 0.870521 95.452 41.0437
19869 2 2.69497 95.4201 42.3102
14655 1 3.60104 97.052 41.0668
20261 2 5.42449 97.0203 42.3362
14221 1 6.32676 95.452 41.0437
19883 2 4.51254 95.5064 39.7566
20268 2 7.24163 97.0986 39.7812
14618 1 9.05728 97.052 41.0668
19833 2 8.15121 95.4201 42.3102
19835 2 9.96878 95.5064 39.7566
23098 2 10.8807 97.0203 42.3362
20280 2 1.78768 100.283 39.8273
20262 2 2.69779 98.6193 42.3609
14649 1 0.874986 98.65 41.0893
14647 1 3.60497 100.247 41.1114
20266 2 4.51461 98.6908 39.8047
20263 2 5.42735 100.217 42.3845
14619 1 6.33122 98.65 41.0893
20264 2 7.24391 100.283 39.8273
14620 1 9.06121 100.247 41.1114
20217 2 8.15402 98.6193 42.3609
20220 2 9.97085 98.6908 39.8047
23094 2 10.8836 100.217 42.3845
20276 2 1.79018 103.467 39.8707
14648 1 0.878592 101.842 41.1329
20254 2 2.70068 101.815 42.4073
14650 1 3.60837 103.437 41.1541
20265 2 4.51703 101.875 39.8493
14613 1 6.33483 101.842 41.1329
20252 2 5.43025 103.411 42.4294
20267 2 7.24642 103.467 39.8707
14611 1 9.06461 103.437 41.1541
20216 2 8.15692 101.815 42.4073
20219 2 9.97327 101.875 39.8493
23095 2 10.8865 103.411 42.4294
20277 2 1.79274 106.651 39.912
14638 1 0.881839 105.032 41.1748
20253 2 2.70357 105.007 42.4509
14636 1 3.61149 106.626 41.1951
20258 2 4.51958 105.059 39.8916
14612 1 6.33808 105.032 41.1748
20255 2 5.43311 106.603 42.4719
20256 2 7.24898 106.651 39.912
14614 1 9.06773 106.626 41.1951
20209 2 8.15981 105.007 42.4509
20218 2 9.97582 105.059 39.8916
23090 2 10.8894 106.603 42.4719
20272 2 1.79525 109.834 39.9514
14637 1 0.884852 108.22 41.215
20240 2 2.70639 108.198 42.4923
14639 1 3.6144 109.813 41.2345
20257 2 4.52212 108.242 39.9319
14599 1 6.34109 108.22 41.215
20238 2 5.43586 109.793 42.5122
20259 2 7.25149 109.834 39.9514
14597 1 9.07064 109.813 41.2345
20208 2 8.16263 108.198 42.4923
20211 2 9.97836 108.242 39.9319
23091 2 10.8921 109.793 42.5122
20273 2 1.79764 113.017 39.989
14630 1 0.887649 111.406 41.2535
20239 2 2.70906 111.387 42.5316
14628 1 3.61708 112.999 41.2721
14598 1 6.34389 111.406 41.2535
20241 2 5.43845 112.981 42.5504
20244 2 4.52458 111.426 39.9704
20242 2 7.25387 113.017 39.989
14600 1 9.07332 112.999 41.2721
20194 2 8.1653 111.387 42.5316
20210 2 9.98082 111.426 39.9704
23089 2 10.8947 112.981 42.5504
14645 1 1.78573 96.9735 43.6173
19867 2 0.880992 95.339 44.856
20260 2 3.6106 96.9459 44.8841
14219 1 4.51139 95.366 43.5917
19814 2 6.33723 95.339 44.856
14617 1 7.24196 96.9735 43.6173
20213 2 9.06684 96.9459 44.8841
14171 1 9.96763 95.366 43.5917
14646 1 1.78982 100.181 43.6653
20250 2 0.883913 98.5508 44.9107
20248 2 3.61345 100.154 44.936
14609 1 4.516 98.5783 43.6417
20214 2 6.34015 98.5508 44.9107
14607 1 7.24606 100.181 43.6653
14556 1 9.97224 98.5783 43.6417
20215 2 9.06969 100.154 44.936
14634 1 1.79336 103.382 43.7103
20249 2 0.88675 101.756 44.9602
20251 2 3.61628 103.357 44.9835
14608 1 4.51976 101.782 43.6881
20206 2 6.34299 101.756 44.9602
14610 1 7.2496 103.382 43.7103
14555 1 9.976 101.782 43.6881
20204 2 9.07252 103.357 44.9835
14635 1 1.79659 106.578 43.753
20236 2 0.889573 104.956 45.0061
20234 2 3.61908 106.555 45.028
14595 1 4.52312 104.98 43.7319
20205 2 6.34581 104.956 45.0061
14593 1 7.25283 106.578 43.753
14554 1 9.97936 104.98 43.7319
20207 2 9.07532 106.555 45.028
14626 1 1.79958 109.771 43.7936
20235 2 0.892334 108.154 45.0492
20237 2 3.62179 109.751 45.0699
14594 1 4.52623 108.175 43.7736
20191 2 6.34857 108.154 45.0492
14596 1 7.25582 109.771 43.7936
14547 1 9.98247 108.175 43.7736
20189 2 9.07803 109.751 45.0699
14627 1 1.80234 112.963 43.8322
20228 2 0.894974 111.349 45.0899
20226 2 3.62435 112.946 45.1093
14580 1 4.52911 111.368 43.8132
20190 2 6.35121 111.349 45.0899
14578 1 7.25858 112.963 43.8322
20192 2 9.08059 112.946 45.1093
14546 1 9.98535 111.368 43.8132
20246 2 1.79898 96.8776 47.4272
14203 1 0.890794 95.2217 48.6696
14205 1 2.70005 95.2888 46.1324
14603 1 3.62039 96.8372 48.7008
14604 1 5.43014 96.9015 46.1609
14152 1 6.34703 95.2217 48.6696
19812 2 4.52565 95.2659 47.3968
20212 2 7.25522 96.8776 47.4272
14549 1 9.07663 96.8372 48.7008
14169 1 8.15629 95.2888 46.1324
19773 2 9.98188 95.2659 47.3968
17464 1 10.8864 96.9015 46.1609
14587 1 0.893648 98.4501 48.7301
14605 1 2.70382 98.5112 46.1879
20247 2 1.8016 100.094 47.4829
14585 1 3.62309 100.061 48.758
14550 1 6.34989 98.4501 48.7301
14606 1 5.43362 100.119 46.2136
20202 2 4.52844 98.4869 47.4558
20200 2 7.25784 100.094 47.4829
14551 1 9.07932 100.061 48.758
14553 1 8.16006 98.5112 46.1879
20154 2 9.98468 98.4869 47.4558
17452 1 10.8899 100.119 46.2136
14586 1 0.896253 101.669 48.7847
14591 1 2.7071 101.724 46.2383
20232 2 1.80413 103.304 47.5337
14588 1 3.62564 103.276 48.8102
14542 1 6.35249 101.669 48.7847
14589 1 5.43677 103.327 46.262
20201 2 4.53099 101.7 47.5089
20203 2 7.26037 103.304 47.5337
14540 1 9.08188 103.276 48.8102
14552 1 8.16334 101.724 46.2383
20153 2 9.98722 101.7 47.5089
17453 1 10.893 103.327 46.262
14572 1 0.898775 104.881 48.8347
14590 1 2.71015 104.93 46.285
20233 2 1.80664 106.509 47.5808
14570 1 3.62814 106.485 48.8584
14541 1 6.35501 104.881 48.8347
14592 1 5.43973 106.531 46.3072
20187 2 4.5335 104.907 47.5577
20185 2 7.26288 106.509 47.5808
14543 1 9.08437 106.485 48.8584
14545 1 8.16639 104.93 46.285
20152 2 9.98974 104.907 47.5577
17444 1 10.896 106.531 46.3072
14571 1 0.901242 108.088 48.8812
14576 1 2.71304 108.131 46.3288
20224 2 1.8091 109.711 47.6248
14573 1 3.63057 109.69 48.9033
14527 1 6.35748 108.088 48.8812
14574 1 5.44253 109.73 46.3498
20186 2 4.536 108.111 47.6032
20188 2 7.26534 109.711 47.6248
14525 1 9.08681 109.69 48.9033
14544 1 8.16927 108.131 46.3288
20145 2 9.99224 108.111 47.6032
17445 1 10.8988 109.73 46.3498
14564 1 0.903628 111.292 48.9247
14575 1 2.71575 111.329 46.3701
20225 2 1.81147 112.91 47.6659
14562 1 3.6329 112.892 48.9452
14526 1 6.35987 111.292 48.9247
14577 1 5.44516 112.927 46.3898
20173 2 4.53842 111.311 47.6457
20171 2 7.26771 112.91 47.6659
14528 1 9.08913 112.892 48.9452
14530 1 8.17199 111.329 46.3701
20144 2 9.99466 111.311 47.6457
17443 1 10.9014 112.927 46.3898
14583 1 1.8115 96.7812 51.2394
19800 2 2.7154 95.2023 49.9359
19798 2 0.905747 95.148 52.4753
20196 2 3.63533 96.7633 52.508
20197 2 5.44495 96.8166 49.9678
14150 1 4.53837 95.1646 51.2065
14548 1 7.26773 96.7812 51.2394
19762 2 6.36198 95.148 52.4753
14120 1 9.99461 95.1646 51.2065
19771 2 8.17164 95.2023 49.9359
20147 2 9.09157 96.7633 52.508
23065 2 10.9012 96.8166 49.9678
14584 1 1.81365 100.008 51.3003
20198 2 2.71808 98.4288 49.9982
20179 2 0.908438 98.377 52.5395
20177 2 3.63763 99.989 52.5698
14538 1 4.54073 98.3957 51.2706
20199 2 5.44735 100.039 50.027
14536 1 7.26989 100.008 51.3003
20148 2 6.36468 98.377 52.5395
23050 2 10.9036 100.039 50.027
14496 1 9.99696 98.3957 51.2706
20151 2 8.17432 98.4288 49.9982
20149 2 9.09387 99.989 52.5698
14568 1 1.81566 103.228 51.356
20183 2 2.72033 101.648 50.0547
14537 1 4.54278 101.619 51.3287
20181 2 5.44953 103.255 50.0811
14539 1 7.27189 103.228 51.356
23051 2 10.9058 103.255 50.0811
14495 1 9.99901 101.619 51.3287
20150 2 8.17657 101.648 50.0547
14569 1 1.81765 106.442 51.4073
20182 2 2.72248 104.861 50.1066
14523 1 4.54477 104.836 51.3821
20184 2 5.45167 106.465 50.131
14521 1 7.27389 106.442 51.4073
23042 2 10.9079 106.465 50.131
14494 1 10.001 104.836 51.3821
20143 2 8.17872 104.861 50.1066
14560 1 1.81965 109.651 51.4548
20169 2 2.72462 108.069 50.1546
14522 1 4.54677 108.047 51.4315
20167 2 5.4538 109.672 50.1774
23043 2 10.91 109.672 50.1774
14488 1 10.003 108.047 51.4315
14524 1 7.27589 109.651 51.4548
20142 2 8.18086 108.069 50.1546
14561 1 1.82161 112.857 51.4988
20168 2 2.72673 111.274 50.1993
14511 1 4.54876 111.255 51.4772
20170 2 5.45588 112.875 50.2204
14487 1 10.005 111.255 51.4772
14509 1 7.27785 112.857 51.4988
20132 2 8.18297 111.274 50.1993
23041 2 10.9121 112.875 50.2204
14582 1 0.00268755 96.733 53.7787
20175 2 1.82592 96.7172 55.0492
14140 1 2.72955 95.1167 53.7452
14533 1 5.45893 96.733 53.7787
19760 2 4.55252 95.102 55.0162
20146 2 7.28216 96.7172 55.0492
14118 1 8.18579 95.1167 53.7452
19753 2 10.0088 95.102 55.0162
14534 1 2.73185 98.3479 53.811
14566 1 0.00465166 99.9613 53.842
20176 2 1.82825 99.9438 55.1124
14535 1 5.46089 99.9613 53.842
20136 2 4.5553 98.3311 55.0813
14493 1 8.18809 98.3479 53.811
20118 2 10.0115 98.3311 55.0813
20134 2 7.28449 99.9438 55.1124
20178 2 0.910499 101.599 52.5988
14519 1 2.73362 101.573 53.8718
14567 1 0.00631049 103.184 53.9005
20161 2 1.83004 103.166 55.1716
20140 2 6.36674 101.599 52.5988
14517 1 5.46255 103.184 53.9005
20135 2 4.55731 101.555 55.1425
20180 2 3.63955 103.208 52.6268
14492 1 8.18986 101.573 53.8718
20117 2 10.0135 101.555 55.1425
20137 2 7.28628 103.166 55.1716
20138 2 9.09579 103.208 52.6268
14518 1 2.73523 104.793 53.9281
14558 1 0.00790229 106.401 53.9547
20162 2 1.83162 106.383 55.2267
20165 2 0.912344 104.816 52.6536
14520 1 5.46414 106.401 53.9547
20125 2 4.55897 104.775 55.1997
20139 2 6.36858 104.816 52.6536
20163 2 3.64136 106.423 52.6794
14486 1 8.19147 104.793 53.9281
20116 2 10.0152 104.775 55.1997
20123 2 7.28785 106.383 55.2267
20141 2 9.0976 106.423 52.6794
20164 2 0.914134 108.029 52.7043
20155 2 1.83311 109.596 55.2778
14559 1 0.0094958 109.614 54.0047
14507 1 2.73682 108.008 53.9802
20166 2 3.64314 109.633 52.7282
20129 2 6.37037 108.029 52.7043
20124 2 4.56049 107.99 55.2528
14505 1 5.46573 109.614 54.0047
20127 2 9.09938 109.633 52.7282
20126 2 7.28934 109.596 55.2778
20115 2 10.0167 107.99 55.2528
14485 1 8.19306 108.008 53.9802
20159 2 0.915902 111.237 52.7512
20156 2 1.83456 112.807 55.325
14557 1 0.0110867 112.823 54.0509
14506 1 2.73841 111.219 54.0283
20157 2 3.64489 112.841 52.7733
20128 2 6.37214 111.237 52.7512
20121 2 4.56196 111.202 55.3019
14508 1 5.46733 112.823 54.0509
20119 2 7.2908 112.807 55.325
20114 2 10.0182 111.202 55.3019
14479 1 8.19465 111.219 54.0283
20130 2 9.10113 112.841 52.7733
14831 1 1.84052 96.6554 58.8631
20472 2 0.0164964 96.6771 57.5919
14138 1 0.920396 95.0762 56.2864
20079 2 2.74304 95.0629 57.5592
14532 1 3.64988 96.6915 56.3198
20464 2 5.47273 96.6771 57.5919
14435 1 4.56716 95.0414 58.8302
14113 1 6.37663 95.0762 56.2864
14489 1 9.10612 96.6915 56.3198
14820 1 7.29676 96.6554 58.8631
14387 1 10.0234 95.0414 58.8302
20049 2 8.19928 95.0629 57.5592
14515 1 0.922869 98.3059 56.3524
14832 1 1.84275 99.8815 58.9277
20470 2 0.0189261 99.9032 57.6557
20465 2 2.74593 98.2906 57.6242
14513 1 3.65192 99.9193 56.3842
14490 1 6.37911 98.3059 56.3524
14818 1 4.56986 98.2688 58.8956
20466 2 5.47516 99.9032 57.6557
14772 1 10.0261 98.2688 58.8956
14491 1 9.10815 99.9193 56.3842
14816 1 7.29899 99.8815 58.9277
20430 2 8.20217 98.2906 57.6242
14514 1 0.924602 101.532 56.415
14828 1 1.84434 103.105 58.9897
20471 2 0.0207208 103.126 57.7165
20461 2 2.748 101.515 57.6866
14516 1 3.65345 103.143 56.4448
14817 1 4.57172 101.494 58.9591
14483 1 6.38084 101.532 56.415
20459 2 5.47696 103.126 57.7165
14771 1 10.028 101.494 58.9591
14819 1 7.30058 103.105 58.9897
14481 1 9.10969 103.143 56.4448
20429 2 8.20424 101.515 57.6866
14503 1 0.926015 104.753 56.4736
14829 1 1.8456 106.325 59.048
20468 2 0.0221777 106.345 57.7736
20460 2 2.7496 104.736 57.7456
14501 1 3.65479 106.362 56.5014
14810 1 4.57311 104.715 59.0193
14482 1 6.38225 104.753 56.4736
20462 2 5.47842 106.345 57.7736
14770 1 10.0294 104.715 59.0193
14808 1 7.30183 106.325 59.048
14484 1 9.11103 106.362 56.5014
20424 2 8.20584 104.736 57.7456
14502 1 0.927321 107.97 56.5281
14824 1 1.8467 109.543 59.1024
20469 2 0.0234732 109.561 57.8268
20450 2 2.75096 107.953 57.8007
14504 1 3.65608 109.578 56.5537
14809 1 4.57428 107.934 59.0757
14476 1 6.38356 107.97 56.5281
20448 2 5.47971 109.561 57.8268
14763 1 10.0305 107.934 59.0757
14811 1 7.30294 109.543 59.1024
14474 1 9.11232 109.578 56.5537
20423 2 8.2072 107.953 57.8007
14499 1 0.928599 111.184 56.5784
14825 1 1.84775 112.758 59.1525
20467 2 0.024695 112.774 57.8758
20449 2 2.75221 111.168 57.8518
14497 1 3.65735 112.79 56.602
14796 1 4.57535 111.15 59.128
14475 1 6.38484 111.184 56.5784
20451 2 5.48093 112.774 57.8758
14762 1 10.0316 111.15 59.128
14794 1 7.30399 112.758 59.1525
14477 1 9.11359 112.79 56.602
20410 2 8.20845 111.168 57.8518
14830 1 0.0308256 96.623 61.4085
14421 1 2.75737 95.0107 61.3763
20077 2 0.933424 95.0287 60.1043
14813 1 5.48706 96.623 61.4085
20463 2 3.66317 96.6416 60.1365
20029 2 6.38966 95.0287 60.1043
20426 2 9.11941 96.6416 60.1365
14385 1 8.21361 95.0107 61.3763
14814 1 2.76028 98.2351 61.4408
14826 1 0.0332922 99.8469 61.4729
20457 2 0.936439 98.2541 60.1685
14815 1 5.48953 99.8469 61.4729
20427 2 6.39268 98.2541 60.1685
20455 2 3.66574 99.8661 60.2003
14769 1 8.21652 98.2351 61.4408
20428 2 9.12198 99.8661 60.2003
14806 1 2.76237 101.458 61.5045
14827 1 0.0350583 103.069 61.5355
20456 2 0.938641 101.478 60.2315
14804 1 5.4913 103.069 61.5355
20421 2 6.39488 101.478 60.2315
20458 2 3.66764 103.088 60.262
14768 1 8.2186 101.458 61.5045
20419 2 9.12388 103.088 60.262
14805 1 2.76388 104.68 61.5658
14822 1 0.0363744 106.29 61.5952
20446 2 0.940291 104.699 60.2918
14807 1 5.49261 106.29 61.5952
20420 2 6.39653 104.699 60.2918
20444 2 3.6691 106.308 60.3206
14761 1 8.22012 104.68 61.5658
20422 2 9.12534 106.308 60.3206
14792 1 2.76505 107.9 61.6237
14823 1 0.0374325 109.509 61.6511
20445 2 0.941605 107.917 60.3485
14790 1 5.49367 109.509 61.6511
20407 2 6.39784 107.917 60.3485
20447 2 3.67031 109.526 60.3755
14760 1 8.22128 107.9 61.6237
20405 2 9.12654 109.526 60.3755
14791 1 2.76603 111.117 61.6775
14821 1 0.0383644 112.726 61.7028
20438 2 0.942737 111.134 60.4013
14793 1 5.4946 112.726 61.7028
20406 2 6.39897 111.134 60.4013
20436 2 3.67138 112.742 60.4262
14746 1 8.22227 111.117 61.6775
20408 2 9.12762 112.742 60.4262
20452 2 0.0433011 96.5782 65.2302
20453 2 1.85338 96.6092 62.6827
14419 1 0.947213 94.9824 63.9247
20013 2 2.76965 94.9686 65.1992
14812 1 3.677 96.593 63.9563
20412 2 5.49954 96.5782 65.2302
14366 1 6.40345 94.9824 63.9247
20027 2 4.57982 94.9979 62.6511
14765 1 9.13324 96.593 63.9563
20425 2 7.30962 96.6092 62.6827
19977 2 8.22589 94.9686 65.1992
19979 2 10.0361 94.9979 62.6511
14802 1 0.950343 98.2037 63.9882
20413 2 2.77301 98.1881 65.2615
20440 2 0.0463017 99.7981 65.293
20454 2 1.85614 99.8315 62.7461
14766 1 6.40658 98.2037 63.9882
14800 1 3.67973 99.8144 64.0201
20414 2 5.50254 99.7981 65.293
20417 2 4.58298 98.2204 62.7144
14767 1 9.13597 99.8144 64.0201
20361 2 8.22925 98.1881 65.2615
20364 2 10.0392 98.2204 62.7144
20415 2 7.31238 99.8315 62.7461
14801 1 0.952699 101.425 64.0518
20399 2 2.77566 101.408 65.3243
20441 2 0.0486334 103.018 65.3554
20442 2 1.85822 103.053 62.8083
14758 1 6.40894 101.425 64.0518
14803 1 3.68175 103.036 64.083
20397 2 5.50487 103.018 65.3554
20416 2 4.58537 101.442 62.7775
14756 1 9.13799 103.036 64.083
20360 2 8.2319 101.408 65.3243
20363 2 10.0416 101.442 62.7775
20418 2 7.31446 103.053 62.8083
14788 1 0.954433 104.646 64.1136
20398 2 2.7777 104.628 65.3859
20432 2 0.0503989 106.238 65.4157
20443 2 1.85978 106.273 62.868
14757 1 6.41067 104.646 64.1136
14786 1 3.68324 106.256 64.1435
20400 2 5.50664 106.238 65.4157
20403 2 4.58717 104.663 62.8385
14759 1 9.13948 106.256 64.1435
20353 2 8.23394 104.628 65.3859
20362 2 10.0434 104.663 62.8385
20401 2 7.31602 106.273 62.868
14787 1 0.95572 107.866 64.1725
20384 2 2.77923 107.848 65.4447
20433 2 0.0517327 109.458 65.4728
20434 2 1.86101 109.492 62.9242
14743 1 6.41196 107.866 64.1725
14789 1 3.68436 109.476 64.2006
20382 2 5.50797 109.458 65.4728
20402 2 4.58855 107.883 62.8966
14741 1 9.1406 109.476 64.2006
20352 2 8.23547 107.848 65.4447
20355 2 10.0448 107.883 62.8966
20404 2 7.31724 109.492 62.9242
14780 1 0.956727 111.085 64.2276
20383 2 2.78041 111.068 65.4999
20431 2 0.0527972 112.678 65.5259
20435 2 1.86203 112.71 62.9762
14742 1 6.41297 111.085 64.2276
14778 1 3.68529 112.694 64.2535
20385 2 5.50904 112.678 65.5259
20388 2 4.58966 111.101 62.9507
14744 1 9.14153 112.694 64.2535
20338 2 8.23664 111.068 65.4999
20354 2 10.0459 111.101 62.9507
20386 2 7.31827 112.71 62.9762
14798 1 1.86642 96.5643 66.5073
20011 2 0.958996 94.9394 67.7474
14797 1 0.055138 96.5362 69.0652
14352 1 2.78145 94.9292 69.0349
20411 2 3.68903 96.5473 67.7777
14364 1 4.59277 94.9555 66.4764
19960 2 6.41523 94.9394 67.7474
14749 1 5.51138 96.5362 69.0652
14764 1 7.32266 96.5643 66.5073
20357 2 9.14527 96.5473 67.7777
14325 1 10.049 94.9555 66.4764
14323 1 8.23769 94.9292 69.0349
14799 1 1.86944 99.783 66.5703
20395 2 0.962657 98.1557 67.8086
14750 1 2.78491 98.1438 69.0959
14782 1 0.0582727 99.752 69.127
14754 1 4.59614 98.1735 66.5387
20358 2 6.4189 98.1557 67.8086
20393 2 3.69236 99.7645 67.8398
14751 1 5.51451 99.752 69.127
14706 1 10.0524 98.1735 66.5387
14752 1 7.32568 99.783 66.5703
20359 2 9.14859 99.7645 67.8398
14703 1 8.24115 98.1438 69.0959
14784 1 1.87178 103.003 66.6331
20394 2 0.965658 101.374 67.8711
14735 1 2.78776 101.361 69.1583
14783 1 0.0608269 102.97 69.1895
14753 1 4.59881 101.393 66.6019
20350 2 6.4219 101.374 67.8711
20396 2 3.69504 102.983 67.9021
14733 1 5.51707 102.97 69.1895
14705 1 10.0551 101.393 66.6019
14755 1 7.32802 103.003 66.6331
20348 2 9.15128 102.983 67.9021
14702 1 8.244 101.361 69.1583
14785 1 1.87354 106.223 66.6941
20380 2 0.968038 104.593 67.9328
14734 1 2.79002 104.58 69.2203
14774 1 0.0628126 106.189 69.2505
14739 1 4.60084 104.613 66.6639
20349 2 6.42428 104.593 67.9328
20378 2 3.69712 106.203 67.9629
14736 1 5.51905 106.189 69.2505
14704 1 10.0571 104.613 66.6639
14737 1 7.32978 106.223 66.6941
20351 2 9.15335 106.203 67.9629
14695 1 8.24626 104.58 69.2203
14776 1 1.87482 109.443 66.7519
20379 2 0.969817 107.814 67.9922
14738 1 4.60235 107.833 66.7235
20335 2 6.42606 107.814 67.9922
20381 2 3.69865 109.424 68.0206
14697 1 10.0586 107.833 66.7235
14740 1 7.33106 109.443 66.7519
20333 2 9.15489 109.424 68.0206
14777 1 1.87582 112.663 66.8056
20372 2 0.971157 111.035 68.048
14725 1 4.60347 111.053 66.7793
20334 2 6.4274 111.035 68.048
20370 2 3.69984 112.645 68.0744
14696 1 10.0597 111.053 66.7793
14723 1 7.33206 112.663 66.8056
20336 2 9.15608 112.645 68.0744
20391 2 1.87889 96.5142 70.326
14350 1 0.966524 94.901 71.6133
14748 1 3.69626 96.5064 71.6429
14314 1 6.42276 94.901 71.6133
19958 2 4.60517 94.908 70.2962
14699 1 9.1525 96.5064 71.6429
20356 2 7.33513 96.5142 70.326
19928 2 10.0614 94.908 70.2962
14731 1 0.969644 98.1127 71.673
20392 2 1.88213 99.7289 70.387
14700 1 6.42588 98.1127 71.673
14729 1 3.69916 99.7197 71.7035
20346 2 4.6087 98.1212 70.3564
14701 1 9.1554 99.7197 71.7035
20304 2 10.0649 98.1212 70.3564
20344 2 7.33837 99.7289 70.387
14730 1 0.972309 101.327 71.7339
20376 2 1.88488 102.947 70.4486
14692 1 6.42855 101.327 71.7339
14732 1 3.70148 102.936 71.7654
20345 2 4.61164 101.337 70.4179
14690 1 9.15772 102.936 71.7654
20303 2 10.0679 101.337 70.4179
20347 2 7.34112 102.947 70.4486
14717 1 0.974315 104.545 71.7962
20377 2 1.88706 106.166 70.5088
14691 1 6.43055 104.545 71.7962
14715 1 3.7033 106.155 71.8262
20331 2 4.61417 104.556 70.479
14693 1 9.15954 106.155 71.8262
20302 2 10.0704 104.556 70.479
20329 2 7.3433 106.166 70.5088
14716 1 0.975955 107.766 71.8555
14721 1 2.79171 107.8 69.28
14775 1 0.0642784 109.41 69.3085
20368 2 1.88873 109.388 70.5663
14681 1 6.43219 107.766 71.8555
14718 1 3.70477 109.377 71.8839
14719 1 5.52052 109.41 69.3085
20330 2 4.61607 107.777 70.538
14679 1 9.16101 109.377 71.8839
14694 1 8.24795 107.8 69.28
20296 2 10.0723 107.777 70.538
20332 2 7.34496 109.388 70.5663
14711 1 0.977284 110.988 71.9113
14720 1 2.793 111.021 69.3361
14773 1 0.0654368 112.632 69.3626
20369 2 1.89006 112.611 70.62
14680 1 6.43352 110.988 71.9113
14709 1 3.706 112.6 71.9378
14722 1 5.52168 112.632 69.3626
20319 2 4.61754 110.999 70.5937
14682 1 9.16224 112.6 71.9378
14684 1 8.24924 111.021 69.3361
20295 2 10.0738 110.999 70.5937
20317 2 7.3463 112.611 70.62
14727 1 1.8343 96.4865 74.2997
20390 2 0.0670714 96.4783 72.8619
19946 2 0.959789 94.8491 75.3163
19948 2 2.79342 94.8736 72.8326
20340 2 3.68895 96.4527 75.3449
20341 2 5.52331 96.4783 72.8619
14312 1 4.56262 94.8822 74.2703
19921 2 6.41603 94.8491 75.3163
14698 1 7.29054 96.4865 74.2997
20297 2 9.14519 96.4527 75.3449
14305 1 10.0189 94.8822 74.2703
19926 2 8.24966 94.8736 72.8326
14728 1 1.83386 99.6978 74.3602
20323 2 0.961792 98.0577 75.3741
20342 2 2.79684 98.0841 72.8918
20374 2 0.0702269 99.691 72.9221
14688 1 4.5622 98.0917 74.3298
20298 2 6.41803 98.0577 75.3741
20321 2 3.69083 99.6639 75.4037
20343 2 5.52647 99.691 72.9221
14670 1 10.0184 98.0917 74.3298
14686 1 7.2901 99.6978 74.3602
20299 2 9.14706 99.6639 75.4037
20301 2 8.25308 98.0841 72.8918
14713 1 1.83325 102.912 74.4206
20322 2 0.9635 101.271 75.4335
20327 2 2.79966 101.299 72.9524
20375 2 0.072995 102.907 72.9825
14687 1 4.56185 101.305 74.3904
20291 2 6.41974 101.271 75.4335
20324 2 3.69242 102.88 75.4622
20325 2 5.52923 102.907 72.9825
14669 1 10.0181 101.305 74.3904
14689 1 7.28949 102.912 74.4206
20289 2 9.14866 102.88 75.4622
20300 2 8.2559 101.299 72.9524
14714 1 1.83269 106.131 74.4797
20311 2 0.964964 104.489 75.4909
20326 2 2.80232 104.517 73.0124
20366 2 0.0752143 106.128 73.0418
14677 1 4.56103 104.521 74.4504
20290 2 6.4212 104.489 75.4909
20309 2 3.69371 106.1 75.5195
20328 2 5.53145 106.128 73.0418
14668 1 10.0173 104.521 74.4504
14675 1 7.28893 106.131 74.4797
20292 2 9.14994 106.1 75.5195
20294 2 8.25855 104.517 73.0124
14707 1 1.83239 109.353 74.5365
20310 2 0.966159 107.711 75.5475
20315 2 2.80426 107.739 73.0706
20367 2 0.0769571 109.351 73.0986
14676 1 4.56062 107.742 74.5085
20284 2 6.4224 107.711 75.5475
20312 2 3.69479 109.324 75.575
20313 2 5.5332 109.351 73.0986
14667 1 10.0169 107.742 74.5085
14678 1 7.28863 109.353 74.5365
20282 2 9.15103 109.324 75.575
20293 2 8.2605 107.739 73.0706
14708 1 1.83243 112.576 74.5898
20307 2 0.967177 110.936 75.6017
20314 2 2.80582 110.963 73.1257
20365 2 0.0783923 112.576 73.1519
14673 1 4.56048 110.964 74.5637
20283 2 6.42342 110.936 75.6017
20305 2 3.69581 112.55 75.6275
20316 2 5.53463 112.576 73.1519
14666 1 10.0167 110.964 74.5637
14671 1 7.28867 112.576 74.5898
20285 2 9.15205 112.55 75.6275
20287 2 8.26206 110.963 73.1257
2495 1 1.81434 113.493 -2.5982
8769 2 0.911916 115.061 -1.13241
8777 2 2.72705 115.088 -3.63688
8784 2 0.000642233 113.517 -3.65931
2482 1 4.53954 115.065 -2.57539
8739 2 6.36815 115.061 -1.13241
8775 2 3.64113 113.489 -1.15526
8776 2 5.45688 113.517 -3.65931
2484 1 7.27058 113.493 -2.5982
2436 1 9.99578 115.065 -2.57539
8738 2 9.09737 113.489 -1.15526
8742 2 8.18329 115.088 -3.63688
2496 1 1.80864 116.637 -2.55323
8768 2 0.909745 118.203 -1.08869
8773 2 2.72381 118.229 -3.59392
2481 1 4.53414 118.208 -2.53178
8733 2 6.36598 118.203 -1.08869
8767 2 3.63894 116.632 -1.1102
8778 2 5.45352 116.659 -3.61506
2480 1 7.26488 116.637 -2.55323
2435 1 9.99038 118.208 -2.53178
8740 2 9.09518 116.632 -1.1102
8741 2 8.18005 118.229 -3.59392
12046 2 10.9098 116.659 -3.61506
2492 1 1.80355 119.778 -2.5111
8758 2 0.907639 121.343 -1.04807
8772 2 2.72082 121.368 -3.55392
8770 2 3.6368 119.773 -1.06797
2474 1 4.52937 121.348 -2.49125
8732 2 6.36388 121.343 -1.04807
8771 2 5.4504 119.799 -3.57352
2483 1 7.25979 119.778 -2.5111
2434 1 9.9856 121.348 -2.49125
8731 2 9.09304 119.773 -1.06797
8736 2 8.17706 121.368 -3.55392
12047 2 10.9066 119.799 -3.57352
2493 1 1.7991 122.918 -2.47228
8757 2 0.905637 124.482 -1.01095
8762 2 2.71812 124.505 -3.51731
8756 2 3.63474 122.913 -1.02905
2473 1 4.52522 124.487 -2.45422
8719 2 6.36188 124.482 -1.01095
8774 2 5.44755 122.936 -3.53517
2472 1 7.25533 122.918 -2.47228
2427 1 9.98146 124.487 -2.45422
8734 2 9.09098 122.913 -1.02905
8735 2 8.17436 124.505 -3.51731
12044 2 10.9038 122.936 -3.53517
2488 1 1.79525 126.056 -2.43711
8750 2 0.903779 127.62 -0.977614
8761 2 2.71571 127.64 -3.48438
8759 2 3.63281 126.051 -0.993795
2460 1 4.52167 127.624 -2.42097
8718 2 6.36002 127.62 -0.977614
8760 2 5.44499 126.072 -3.50037
2475 1 7.25149 126.056 -2.43711
2426 1 9.97791 127.624 -2.42097
8717 2 9.08905 126.051 -0.993795
8722 2 8.17194 127.64 -3.48438
12045 2 10.9012 126.072 -3.50037
2489 1 1.79199 129.193 -2.40582
8749 2 0.902099 130.757 -0.948254
8751 2 2.7136 130.774 -3.45534
8748 2 3.63103 129.189 -0.962428
2459 1 4.51868 130.76 -2.39168
8701 2 6.35834 130.757 -0.948254
8763 2 5.44273 129.207 -3.46936
2458 1 7.24823 129.193 -2.40582
2411 1 9.97492 130.76 -2.39168
8720 2 9.08727 129.189 -0.962428
8721 2 8.16984 130.774 -3.45534
12043 2 10.899 129.207 -3.46936
2478 1 2.72917 115.042 0.0895948
2494 1 0.00246646 113.469 0.066592
8765 2 1.82196 113.458 1.39775
2477 1 5.4587 113.469 0.066592
8729 2 4.54879 115.03 1.42086
2433 1 8.18541 115.042 0.0895948
8676 2 10.005 115.03 1.42086
8737 2 7.2782 113.458 1.39775
2470 1 2.72643 118.185 0.133575
8766 2 1.81939 116.602 1.44331
2479 1 5.4559 116.614 0.111947
8728 2 4.54626 118.174 1.46503
2432 1 8.18266 118.185 0.133575
8675 2 10.0025 118.174 1.46503
8727 2 7.27563 116.602 1.44331
5562 1 10.9121 116.614 0.111947
2469 1 2.72384 121.327 0.174414
8754 2 1.81692 119.745 1.48595
2468 1 5.45323 119.756 0.154415
8715 2 4.54385 121.317 1.50602
8730 2 7.27316 119.745 1.48595
2425 1 8.18007 121.327 0.174414
8674 2 10.0001 121.317 1.50602
5563 1 10.9095 119.756 0.154415
2456 1 2.72144 124.467 0.211709
8755 2 1.81458 122.887 1.5252
2471 1 5.45073 122.897 0.193524
8714 2 4.54159 124.458 1.54344
8713 2 7.27082 122.887 1.5252
2424 1 8.17768 124.467 0.211709
8667 2 9.99783 124.458 1.54344
5558 1 10.907 122.897 0.193524
2455 1 2.71927 127.607 0.24518
8746 2 1.81242 126.028 1.56072
2454 1 5.44844 126.037 0.228936
8700 2 4.53953 127.598 1.57701
8716 2 7.26866 126.028 1.56072
2410 1 8.1755 127.607 0.24518
8666 2 9.99577 127.598 1.57701
5559 1 10.9047 126.037 0.228936
2445 1 2.71734 130.745 0.274644
8747 2 1.81047 129.168 1.5923
2457 1 5.44639 129.176 0.260421
8699 2 4.53769 130.738 1.60655
8698 2 7.2667 129.168 1.5923
2409 1 8.17358 130.745 0.274644
8651 2 9.99393 130.738 1.60655
5557 1 10.9026 129.176 0.260421
2466 1 0.910734 115.014 2.68643
2462 1 1.82066 113.415 5.24525
8725 2 2.7293 115.002 3.98755
8764 2 0.0026593 113.429 3.96424
2430 1 6.36697 115.014 2.68643
2476 1 3.64029 113.441 2.66314
2418 1 4.54723 114.988 5.26865
8724 2 5.4589 113.429 3.96424
2429 1 9.09653 113.441 2.66314
2364 1 10.0035 114.988 5.26865
2428 1 7.2769 113.415 5.24525
8673 2 8.18554 115.002 3.98755
2465 1 0.90794 118.158 2.73091
2464 1 3.63744 116.586 2.70905
2463 1 1.81759 116.561 5.29134
8711 2 2.72645 118.147 4.03203
2422 1 6.36418 118.158 2.73091
2417 1 4.54424 118.134 5.31326
8726 2 5.45598 116.575 4.01017
2416 1 7.27383 116.561 5.29134
2431 1 9.09368 116.586 2.70905
2363 1 10.0005 118.134 5.31326
8672 2 8.18269 118.147 4.03203
12016 2 10.9122 116.575 4.01017
2452 1 0.905303 121.302 2.77215
2467 1 3.63472 119.73 2.75196
2448 1 1.8147 119.707 5.33434
8710 2 2.72376 121.292 4.07326
2449 1 1.81204 122.852 5.37384
2421 1 6.36154 121.302 2.77215
2403 1 4.54146 121.28 5.35455
8709 2 5.4532 119.72 4.05308
2419 1 7.27094 119.707 5.33434
2401 1 7.26828 122.852 5.37384
2420 1 9.09096 119.73 2.75196
2362 1 9.9977 121.28 5.35455
8665 2 8.18 121.292 4.07326
12017 2 10.9094 119.72 4.05308
2451 1 0.902865 124.445 2.80976
2450 1 3.63218 122.874 2.79143
8696 2 2.72129 124.435 4.11085
2440 1 1.80963 125.997 5.40951
2407 1 6.3591 124.445 2.80976
2402 1 4.53892 124.424 5.39217
8712 2 5.45062 122.864 4.09253
2404 1 7.26587 125.997 5.40951
2423 1 9.08841 122.874 2.79143
2355 1 9.99516 124.424 5.39217
8664 2 8.17753 124.435 4.11085
12008 2 10.9069 122.864 4.09253
2444 1 0.900659 127.587 2.84346
2453 1 3.62985 126.016 2.82711
8695 2 2.71906 127.579 4.14454
2441 1 1.80749 129.141 5.44118
2406 1 6.3569 127.587 2.84346
2388 1 4.53664 127.569 5.42586
8694 2 5.44826 126.007 4.12819
2386 1 7.26373 129.141 5.44118
8697 2 5.44617 129.15 4.15986
2405 1 9.08609 126.016 2.82711
2354 1 9.99288 127.569 5.42586
8650 2 8.1753 127.579 4.14454
12009 2 10.9045 126.007 4.12819
12007 2 10.9024 129.15 4.15986
2443 1 0.89871 130.728 2.8731
2442 1 3.62777 129.158 2.8588
8685 2 2.7171 130.721 4.17415
2860 1 3.62595 132.299 2.88635
2846 1 1.80565 132.285 5.4687
2389 1 6.35495 130.728 2.8731
2387 1 4.53465 130.713 5.45546
9132 2 5.44434 132.292 4.18739
2812 1 7.26189 132.285 5.4687
8649 2 8.17334 130.721 4.17415
2408 1 9.08401 129.158 2.8588
2340 1 9.99089 130.713 5.45546
2813 1 9.08219 132.299 2.88635
12436 2 10.9006 132.292 4.18739
2414 1 2.72684 114.964 7.84638
8707 2 0.908931 114.976 6.5603
8704 2 1.81494 116.526 9.15738
8705 2 3.63552 116.55 6.58287
8658 2 4.54463 114.952 9.13495
8670 2 6.36517 114.976 6.5603
8656 2 7.27117 116.526 9.15738
2415 1 5.45338 116.537 7.86901
2361 1 8.18308 114.964 7.84638
8616 2 10.0009 114.952 9.13495
5518 1 10.9096 116.537 7.86901
8671 2 9.09176 116.55 6.58287
2399 1 2.72374 118.111 7.89084
8706 2 0.905925 118.123 6.60467
8688 2 1.81199 119.673 9.19984
8708 2 3.63262 119.696 6.62564
8657 2 4.54155 118.099 9.17903
8662 2 6.36216 118.123 6.60467
8659 2 7.26823 119.673 9.19984
2397 1 5.45041 119.684 7.91183
2360 1 8.17998 118.111 7.89084
8615 2 9.99779 118.099 9.17903
5519 1 10.9066 119.684 7.91183
8660 2 9.08886 119.696 6.62564
2398 1 2.7209 121.258 7.93194
8692 2 0.903146 121.269 6.64573
8689 2 1.80935 122.821 9.23879
8690 2 3.62997 122.842 6.66491
8643 2 4.53875 121.247 9.21977
8661 2 6.35938 121.269 6.64573
8641 2 7.26558 122.821 9.23879
2400 1 5.44771 122.831 7.95112
2353 1 8.17714 121.258 7.93194
8614 2 9.99499 121.247 9.21977
5510 1 10.9039 122.831 7.95112
8663 2 9.08621 122.842 6.66491
2384 1 2.71835 124.405 7.96934
8691 2 0.900624 124.415 6.68314
8693 2 3.62759 125.988 6.7004
8647 2 6.35686 124.415 6.68314
2382 1 5.4453 125.978 7.98659
2352 1 8.17458 124.405 7.96934
5511 1 10.9015 125.978 7.98659
8645 2 9.08382 125.988 6.7004
2383 1 2.71609 127.551 8.00284
8684 2 0.89838 127.56 6.71666
8682 2 3.62548 129.133 6.73191
8646 2 6.35462 127.56 6.71666
2385 1 5.44319 129.125 8.01807
2339 1 8.17233 127.551 8.00284
5509 1 10.8994 129.125 8.01807
8648 2 9.08172 129.133 6.73191
2373 1 2.71413 130.698 8.03227
8683 2 0.896423 130.706 6.74613
9131 2 3.62367 132.278 6.75931
8632 2 6.35266 130.706 6.74613
2797 1 5.44138 132.271 8.04543
2338 1 8.17037 130.698 8.03227
9077 2 9.07991 132.278 6.75931
5917 1 10.8976 132.271 8.04543
2395 1 0.906166 114.939 10.4229
8654 2 2.72384 114.928 11.7105
2393 1 3.63268 116.514 10.4453
2358 1 6.3624 114.939 10.4229
8655 2 5.45039 116.502 11.7327
8613 2 8.18008 114.928 11.7105
2359 1 9.08892 116.514 10.4453
11950 2 10.9066 116.502 11.7327
2394 1 0.903039 118.088 10.467
8639 2 2.72078 118.076 11.7541
2396 1 3.62971 119.662 10.4877
2350 1 6.35928 118.088 10.467
8637 2 5.4475 119.651 11.7746
8612 2 8.17702 118.076 11.7541
2348 1 9.08595 119.662 10.4877
11951 2 10.9037 119.651 11.7746
2380 1 0.900228 121.236 10.5076
8638 2 2.71806 121.226 11.7943
2378 1 3.62706 122.811 10.5266
2349 1 6.35647 121.236 10.5076
8640 2 5.44494 122.801 11.8131
8606 2 8.1743 121.226 11.7943
2351 1 9.0833 122.811 10.5266
11942 2 10.9012 122.801 11.8131
2379 1 0.897738 124.385 10.5446
8627 2 2.71567 124.376 11.8309
2381 1 3.62473 125.96 10.5617
8680 2 1.807 125.969 9.27397
8642 2 4.53625 124.395 9.25686
2336 1 6.35398 124.385 10.5446
8625 2 5.44271 125.951 11.8478
8644 2 7.26324 125.969 9.27397
8608 2 9.99249 124.395 9.25686
8605 2 8.1719 124.376 11.8309
2334 1 9.08097 125.96 10.5617
11943 2 10.8989 125.951 11.8478
2372 1 0.895566 127.534 10.5778
8626 2 2.71359 127.526 11.8637
8681 2 1.80496 129.117 9.30521
2370 1 3.62272 129.109 10.5928
8631 2 4.53406 127.543 9.29009
2335 1 6.3518 127.534 10.5778
8629 2 7.26119 129.117 9.30521
8628 2 5.44079 129.101 11.8787
8607 2 9.9903 127.543 9.29009
8599 2 8.16983 127.526 11.8637
2337 1 9.07895 129.109 10.5928
11941 2 10.897 129.101 11.8787
2371 1 0.893703 130.684 10.6069
8620 2 2.71183 130.677 11.8926
9111 2 1.80321 132.265 9.33239
2796 1 3.621 132.258 10.6199
8630 2 4.53216 130.691 9.31931
2325 1 6.34994 130.684 10.6069
9076 2 7.25945 132.265 9.33239
9061 2 5.43917 132.252 11.9055
8600 2 9.9884 130.691 9.31931
8598 2 8.16806 130.677 11.8926
2741 1 9.07724 132.258 10.6199
12374 2 10.8954 132.252 11.9055
2342 1 2.72024 114.891 15.5755
8635 2 0.902796 114.903 14.2864
2392 1 1.81176 116.49 13.0213
8633 2 3.6294 116.478 14.3083
2346 1 4.54145 114.915 12.9991
8610 2 6.35903 114.903 14.2864
2343 1 5.44687 116.466 15.5972
2344 1 7.268 116.49 13.0213
2313 1 8.17647 114.891 15.5755
2316 1 9.99769 114.915 12.9991
5446 1 10.9031 116.466 15.5972
8611 2 9.08564 116.478 14.3083
2328 1 2.71737 118.042 15.6182
8634 2 0.899858 118.054 14.3294
2376 1 1.80889 119.64 13.0631
8636 2 3.62665 119.629 14.3496
2345 1 4.5384 118.065 13.0426
8603 2 6.3561 118.054 14.3294
2326 1 5.44421 119.618 15.6383
2347 1 7.26513 119.64 13.0631
5447 1 10.9004 119.618 15.6383
2312 1 8.17361 118.042 15.6182
2315 1 9.99464 118.065 13.0426
8601 2 9.08289 119.629 14.3496
8621 2 3.62428 122.781 14.3874
2327 1 2.71491 121.194 15.6575
8623 2 0.897305 121.205 14.3689
2377 1 1.80638 122.791 13.1014
2330 1 7.26262 122.791 13.1014
2332 1 4.53571 121.215 13.0827
8602 2 6.35354 121.205 14.3689
2329 1 5.44194 122.771 15.6758
8604 2 9.08052 122.781 14.3874
5438 1 10.8982 122.771 15.6758
2309 1 8.17115 121.194 15.6575
2314 1 9.99195 121.215 13.0827
8624 2 3.62225 125.933 14.4215
2368 1 1.80421 125.942 13.1359
2320 1 2.71281 124.347 15.6932
8622 2 0.895106 124.357 14.4049
2333 1 7.26045 125.942 13.1359
2318 1 5.44001 125.924 15.7097
8596 2 6.35134 124.357 14.4049
2331 1 4.53338 124.366 13.1191
8594 2 9.07849 125.933 14.4215
2311 1 9.98962 124.366 13.1191
2308 1 8.16905 124.347 15.6932
5439 1 10.8962 125.924 15.7097
8617 2 3.62053 129.086 14.4519
2369 1 1.80236 129.094 13.1666
8619 2 0.893232 127.51 14.4372
2319 1 2.71105 127.501 15.7252
2322 1 7.2586 129.094 13.1666
2321 1 5.43839 129.078 15.7398
8595 2 6.34947 127.51 14.4372
2324 1 4.53137 127.518 13.1518
8597 2 9.07676 129.086 14.4519
2310 1 9.98761 127.518 13.1518
2306 1 8.16728 127.501 15.7252
5437 1 10.8946 129.078 15.7398
2317 1 2.70957 130.656 15.7534
8618 2 0.891651 130.663 14.4656
2775 1 1.8008 132.246 13.1934
9060 2 3.61908 132.239 14.4783
2725 1 5.43704 132.233 15.766
2740 1 7.25704 132.246 13.1934
8593 2 6.34789 130.663 14.4656
2323 1 4.52967 130.67 13.1805
9017 2 9.07532 132.239 14.4783
5846 1 10.8933 132.233 15.766
2305 1 8.1658 130.656 15.7534
2307 1 9.9859 130.67 13.1805
2686 1 0.898792 114.866 18.1518
8976 2 1.80822 116.454 16.884
2684 1 3.62557 116.442 18.1731
8962 2 4.53774 114.879 16.8626
2663 1 6.35503 114.866 18.1518
8960 2 7.26446 116.454 16.884
8916 2 9.99398 114.879 16.8626
2664 1 9.08181 116.442 18.1731
2685 1 0.896231 118.019 18.1935
8972 2 1.80574 119.607 16.9245
2687 1 3.62324 119.596 18.2131
8961 2 4.53505 118.03 16.9047
2659 1 6.35247 118.019 18.1935
8963 2 7.26198 119.607 16.9245
8915 2 9.99129 118.03 16.9047
2657 1 9.07948 119.596 18.2131
2679 1 0.894103 121.173 18.2319
8973 2 1.80365 122.761 16.9615
2677 1 3.6213 122.751 18.2498
8954 2 4.53277 121.184 16.9434
2658 1 6.35034 121.173 18.2319
8952 2 7.25989 122.761 16.9615
8914 2 9.98901 121.184 16.9434
2660 1 9.07754 122.751 18.2498
2678 1 0.892339 124.328 18.2668
8968 2 1.80189 125.916 16.9949
2680 1 3.61969 125.907 18.2829
8953 2 4.53085 124.338 16.9786
2647 1 6.34858 124.328 18.2668
8955 2 7.25813 125.916 16.9949
8907 2 9.98709 124.338 16.9786
2645 1 9.07593 125.907 18.2829
2672 1 0.890879 127.485 18.2981
8969 2 1.80042 129.071 17.0247
2670 1 3.61837 129.063 18.3123
2646 1 6.34712 127.485 18.2981
8940 2 4.52924 127.493 17.0102
8938 2 7.25666 129.071 17.0247
8906 2 9.98548 127.493 17.0102
2648 1 9.0746 129.063 18.3123
2671 1 0.889675 130.642 18.3257
9383 2 1.79921 132.227 17.0506
3072 1 3.61728 132.221 18.3381
2629 1 6.34591 130.642 18.3257
8939 2 4.52791 130.649 17.0381
9372 2 7.25545 132.227 17.0506
8891 2 9.98415 130.649 17.0381
3046 1 9.07352 132.221 18.3381
8958 2 2.71628 114.853 19.4387
8946 2 0.894744 114.826 22.0145
2683 1 1.8042 116.417 20.7486
8944 2 3.62188 116.404 22.0348
8959 2 5.44317 116.43 19.4596
2655 1 4.53345 114.84 20.7279
8910 2 6.35098 114.826 22.0145
2653 1 7.26044 116.417 20.7486
8913 2 8.17252 114.853 19.4387
2604 1 9.98968 114.84 20.7279
8911 2 9.07812 116.404 22.0348
12234 2 10.8994 116.43 19.4596
8950 2 2.71394 118.007 19.4798
8945 2 0.892894 117.983 22.0544
2675 1 1.8023 119.573 20.7876
8947 2 3.62025 119.561 22.0732
8948 2 5.44106 119.584 19.4991
2654 1 4.53132 117.995 20.7685
8902 2 6.34913 117.983 22.0544
2656 1 7.25854 119.573 20.7876
8912 2 8.17018 118.007 19.4798
2603 1 9.98756 117.995 20.7685
8900 2 9.07649 119.561 22.0732
12235 2 10.8973 119.584 19.4991
8949 2 2.71204 121.162 19.5175
8932 2 0.891453 121.141 22.0911
2676 1 1.80079 122.73 20.8232
8930 2 3.61897 122.72 22.1083
8951 2 5.43934 122.741 19.5352
2643 1 4.52962 121.151 20.8058
8901 2 6.34769 121.141 22.0911
2641 1 7.25703 122.73 20.8232
8905 2 8.16828 121.162 19.5175
2602 1 9.98586 121.151 20.8058
8903 2 9.07521 122.72 22.1083
12230 2 10.8956 122.741 19.5352
8936 2 2.71048 124.319 19.5519
8931 2 0.890323 124.3 22.1246
2668 1 1.79957 125.889 20.8555
8933 2 3.61797 125.88 22.1401
8934 2 5.43793 125.898 19.5678
2642 1 4.52826 124.31 20.8398
8887 2 6.34656 124.3 22.1246
2644 1 7.25581 125.889 20.8555
8904 2 8.16672 124.319 19.5519
2595 1 9.9845 124.31 20.8398
8885 2 9.07421 125.88 22.1401
12231 2 10.8942 125.898 19.5678
8935 2 2.70921 127.477 19.5828
8924 2 0.889431 127.461 22.1547
2669 1 1.79859 129.049 20.8843
8922 2 3.61718 129.041 22.1685
8937 2 5.43678 129.056 19.5969
2628 1 4.52717 127.469 20.8703
8886 2 6.34567 127.461 22.1547
2626 1 7.25482 129.049 20.8843
8890 2 8.16544 127.477 19.5828
2594 1 9.98341 127.469 20.8703
8888 2 9.07341 129.041 22.1685
12229 2 10.893 129.056 19.5969
8925 2 2.70817 130.635 19.6101
8923 2 0.888721 130.622 22.1813
3066 1 1.79779 132.209 20.9095
9364 2 3.61654 132.203 22.1933
2627 1 4.52629 130.629 20.8973
8869 2 6.34496 130.622 22.1813
9365 2 5.43584 132.215 19.6223
3045 1 7.25403 132.209 20.9095
8889 2 8.1644 130.635 19.6101
2579 1 9.98253 130.629 20.8973
9317 2 9.07278 132.203 22.1933
12646 2 10.8921 132.215 19.6223
2635 1 0.890445 114.784 25.8784
2651 1 2.71186 114.813 23.3036
8943 2 1.80074 116.378 24.6093
2633 1 3.61805 116.364 25.8977
2598 1 6.34668 114.784 25.8784
8898 2 4.52954 114.799 24.5896
2652 1 5.43913 116.391 23.3236
8896 2 7.25697 116.378 24.6093
2601 1 8.1681 114.813 23.3036
8844 2 9.98578 114.799 24.5896
2599 1 9.07429 116.364 25.8977
5745 1 10.8954 116.391 23.3236
2634 1 0.889517 117.945 25.9164
2639 1 2.71028 117.97 23.3429
8928 2 1.79967 119.538 24.6465
2590 1 6.34576 117.945 25.9164
8897 2 4.52828 117.958 24.6283
2637 1 5.43777 119.55 23.3614
8899 2 7.25591 119.538 24.6465
2600 1 8.16652 117.97 23.3429
8843 2 9.98452 117.958 24.6283
5746 1 10.894 119.55 23.3614
2638 1 2.7091 121.13 23.3791
8929 2 1.7989 122.699 24.6806
8883 2 4.52737 121.118 24.664
2640 1 5.43674 122.71 23.396
8881 2 7.25514 122.699 24.6806
2593 1 8.16534 121.13 23.3791
8842 2 9.98361 121.118 24.664
5738 1 10.893 122.71 23.396
2624 1 2.70821 124.29 23.4122
8920 2 1.79834 125.862 24.7116
8882 2 4.52672 124.281 24.6965
2622 1 5.43596 125.871 23.4274
8884 2 7.25458 125.862 24.7116
2592 1 8.16445 124.29 23.4122
8835 2 9.98296 124.281 24.6965
5739 1 10.8922 125.871 23.4274
2623 1 2.70752 127.452 23.4419
8921 2 1.79793 129.026 24.7393
8868 2 4.52624 127.444 24.7259
2625 1 5.43536 129.034 23.4555
8866 2 7.25417 129.026 24.7393
2578 1 8.16376 127.452 23.4419
8834 2 9.98248 127.444 24.7259
5737 1 10.8916 129.034 23.4555
2613 1 2.70699 130.615 23.4682
9350 2 1.79762 132.191 24.7636
8867 2 4.52588 130.608 24.7519
3034 1 5.43489 132.197 23.4801
9316 2 7.25385 132.191 24.7636
2577 1 8.16323 130.615 23.4682
8820 2 9.98212 130.608 24.7519
6137 1 10.8911 132.197 23.4801
8894 2 2.70838 114.769 27.1637
2632 1 1.79739 116.336 28.4707
2586 1 4.52566 114.754 28.4519
8895 2 5.43616 116.35 27.1828
2584 1 7.25363 116.336 28.4707
12190 2 10.8924 116.35 27.1828
2538 1 9.9819 114.754 28.4519
8841 2 8.16462 114.769 27.1637
2636 1 3.6173 119.526 25.9343
8879 2 2.70778 117.932 27.2012
2616 1 1.7973 119.501 28.5061
2585 1 4.52544 117.918 28.4887
8877 2 5.43571 119.513 27.2188
2587 1 7.25354 119.501 28.5061
12191 2 10.8919 119.513 27.2188
2588 1 9.07354 119.526 25.9343
2537 1 9.98168 117.918 28.4887
8840 2 8.16402 117.932 27.2012
2620 1 0.888913 121.107 25.9515
2618 1 3.61682 122.689 25.968
8878 2 2.70745 121.096 27.2358
2617 1 1.79737 122.668 28.5388
2589 1 6.34515 121.107 25.9515
2571 1 4.52544 121.084 28.5228
8880 2 5.43548 122.678 27.252
2569 1 7.25361 122.668 28.5388
12182 2 10.8917 122.678 27.252
2591 1 9.07305 122.689 25.968
2536 1 9.98167 121.084 28.5228
8833 2 8.16369 121.096 27.2358
2619 1 0.888522 124.271 25.9836
2621 1 3.6165 125.853 25.9985
8864 2 2.7073 124.261 27.2675
2608 1 1.79752 125.835 28.5686
2575 1 6.34476 124.271 25.9836
2570 1 4.52556 124.251 28.5541
8862 2 5.43538 125.844 27.2822
2572 1 7.25376 125.835 28.5686
12183 2 10.8916 125.844 27.2822
2573 1 9.07274 125.853 25.9985
2529 1 9.9818 124.251 28.5541
8832 2 8.16354 124.261 27.2675
2612 1 0.888268 127.436 26.0126
2610 1 3.61629 129.019 26.0259
8863 2 2.70725 127.428 27.2961
2609 1 1.79771 129.004 28.5954
2574 1 6.34451 127.436 26.0126
2557 1 4.52573 127.419 28.5824
8865 2 5.43536 129.011 27.3092
2555 1 7.25395 129.004 28.5954
12181 2 10.8916 129.011 27.3092
2576 1 9.07253 129.019 26.0259
2528 1 9.98197 127.419 28.5824
8819 2 8.16348 127.428 27.2961
2611 1 0.888099 130.602 26.0384
8853 2 2.70724 130.595 27.3215
3033 1 3.61615 132.185 26.05
3015 1 1.79789 132.173 28.6189
2558 1 6.34434 130.602 26.0384
2556 1 4.52592 130.588 28.6076
9301 2 5.43537 132.179 27.333
2980 1 7.25413 132.173 28.6189
2517 1 9.98216 130.588 28.6076
8818 2 8.16348 130.595 27.3215
2981 1 9.07239 132.185 26.05
12613 2 10.8916 132.179 27.333
2582 1 2.70527 114.723 31.0239
8875 2 0.887732 114.739 29.7364
8872 2 1.79631 116.292 32.3254
8873 2 3.61587 116.322 29.7549
8826 2 4.52406 114.708 32.3074
8838 2 6.34397 114.739 29.7364
2583 1 5.43361 116.307 31.0421
8824 2 7.25255 116.292 32.3254
5686 1 10.8898 116.307 31.0421
2535 1 8.16151 114.723 31.0239
8796 2 9.9803 114.708 32.3074
8839 2 9.07211 116.322 29.7549
2567 1 2.70575 117.891 31.0596
8874 2 0.887823 117.905 29.7727
8856 2 1.7971 119.463 32.3595
8876 2 3.61606 119.489 29.7899
8825 2 4.52482 117.878 32.3428
8830 2 6.34406 117.905 29.7727
2565 1 5.43416 119.476 31.0765
8827 2 7.25334 119.463 32.3595
5687 1 10.8904 119.476 31.0765
2534 1 8.16199 117.891 31.0596
8795 2 9.98106 117.878 32.3428
8828 2 9.0723 119.489 29.7899
2566 1 2.70634 121.061 31.0928
8860 2 0.888082 121.072 29.8064
8857 2 1.79791 122.635 32.3912
8858 2 3.61637 122.657 29.8222
8812 2 4.52563 121.049 32.3757
8829 2 6.34432 121.072 29.8064
2568 1 5.43476 122.646 31.1084
8810 2 7.25415 122.635 32.3912
5678 1 10.891 122.646 31.1084
2527 1 8.16258 121.061 31.0928
8794 2 9.98187 121.049 32.3757
8831 2 9.0726 122.657 29.8222
2553 1 2.70695 124.231 31.1234
8859 2 0.888421 124.241 29.8373
8848 2 1.79868 125.807 32.4201
8861 2 3.61672 125.826 29.8517
8811 2 4.52643 124.221 32.406
8816 2 6.34466 124.241 29.8373
2551 1 5.43537 125.817 31.1376
8813 2 7.25492 125.807 32.4201
5679 1 10.8916 125.817 31.1376
2526 1 8.16319 124.231 31.1234
8791 2 9.98266 124.221 32.406
8814 2 9.07296 125.826 29.8517
2552 1 2.70753 127.403 31.1511
8852 2 0.888778 127.411 29.8653
8849 2 1.79937 128.981 32.4461
8850 2 3.61707 128.996 29.8782
8804 2 4.52716 127.394 32.4334
8815 2 6.34502 127.411 29.8653
2554 1 5.43592 128.988 31.1638
8802 2 7.25561 128.981 32.4461
5677 1 10.8922 128.988 31.1638
2516 1 8.16377 127.403 31.1511
8790 2 9.9834 127.394 32.4334
8817 2 9.07331 128.996 29.8782
2544 1 2.70805 130.575 31.1758
8851 2 0.889114 130.581 29.8902
9279 2 1.79997 132.155 32.469
9300 2 3.61739 132.167 29.9015
8803 2 4.5278 130.568 32.4579
8805 2 6.34535 130.581 29.8902
2965 1 5.4364 132.161 31.1869
9244 2 7.25621 132.155 32.469
2515 1 8.16429 130.575 31.1758
8787 2 9.98404 130.568 32.4579
6086 1 10.8926 132.161 31.1869
9245 2 9.07363 132.167 29.9015
2563 1 0.88573 114.692 33.5939
8822 2 2.7051 114.675 34.8763
2561 1 3.61442 116.277 33.6116
2532 1 6.34197 114.692 33.5939
8823 2 5.4339 116.262 34.8939
12118 2 10.8901 116.262 34.8939
8793 2 8.16134 114.675 34.8763
2533 1 9.07066 116.277 33.6116
2564 1 3.61556 119.45 33.6454
2562 1 0.88687 117.864 33.6288
8808 2 2.70645 117.85 34.911
8806 2 5.43522 119.437 34.9275
2524 1 6.34311 117.864 33.6288
12119 2 10.8915 119.437 34.9275
2522 1 9.0718 119.45 33.6454
8792 2 8.16269 117.85 34.911
2547 1 3.61665 122.624 33.6767
2549 1 0.887993 121.037 33.6613
8807 2 2.70774 121.025 34.9434
8809 2 5.43647 122.613 34.9586
2523 1 6.34423 121.037 33.6613
12110 2 10.8927 122.613 34.9586
2525 1 9.07289 122.624 33.6767
8789 2 8.16398 121.025 34.9434
2550 1 3.61764 125.798 33.7053
8800 2 2.70893 124.201 34.9732
2548 1 0.889041 124.211 33.6913
8798 2 5.43759 125.789 34.9871
2513 1 6.34528 124.211 33.6913
12111 2 10.8938 125.789 34.9871
2511 1 9.07388 125.798 33.7053
8788 2 8.16517 124.201 34.9732
2541 1 3.61852 128.973 33.7311
8799 2 2.70998 127.377 35.0003
2543 1 0.88998 127.386 33.7186
8801 2 5.43857 128.965 35.0128
2512 1 6.34622 127.386 33.7186
2514 1 9.07476 128.973 33.7311
8786 2 8.16622 127.377 35.0003
12109 2 10.8948 128.965 35.0128
8797 2 2.71089 130.554 35.0245
2542 1 0.890791 130.561 33.7429
2964 1 3.61927 132.149 33.7539
2506 1 6.34703 130.561 33.7429
9229 2 5.43941 132.143 35.0355
8785 2 8.16713 130.554 35.0245
12542 2 10.8956 132.143 35.0355
2915 1 9.0755 132.149 33.7539
8998 2 0.88726 114.642 37.4428
14631 1 2.70621 114.626 38.7271
2560 1 1.79623 116.247 36.1792
8996 2 3.6163 116.232 37.4603
8987 2 6.3435 114.642 37.4428
2520 1 4.52349 114.659 36.1617
15016 1 5.4354 116.216 38.7445
2518 1 7.25247 116.247 36.1792
2502 1 9.97973 114.659 36.1617
14601 1 8.16245 114.626 38.7271
8988 2 9.07254 116.232 37.4603
17844 1 10.8916 116.216 38.7445
8997 2 0.889076 117.821 37.4773
15017 1 2.70831 117.807 38.7614
2545 1 1.79786 119.424 36.2125
8999 2 3.61805 119.411 37.4936
8984 2 6.34531 117.821 37.4773
2519 1 4.52518 117.835 36.1961
15018 1 5.4374 119.397 38.7777
2521 1 7.2541 119.424 36.2125
14982 1 8.16455 117.807 38.7614
2501 1 9.98142 117.835 36.1961
8982 2 9.07429 119.411 37.4936
17842 1 10.8936 119.397 38.7777
8994 2 0.890745 121 37.5094
15013 1 2.7102 120.988 38.7934
2546 1 1.79935 122.601 36.2434
8992 2 3.61963 122.59 37.5245
8983 2 6.34698 121 37.5094
2509 1 4.52675 121.013 36.2282
15011 1 5.43918 122.579 38.8085
2507 1 7.25559 122.601 36.2434
14981 1 8.16644 120.988 38.7934
2500 1 9.98298 121.013 36.2282
8985 2 9.07587 122.59 37.5245
17843 1 10.8954 122.579 38.8085
8993 2 0.89224 124.18 37.539
15012 1 2.71187 124.169 38.823
2539 1 1.80067 125.779 36.2717
8995 2 3.62104 125.77 37.5528
8980 2 6.34848 124.18 37.539
2508 1 4.52815 124.19 36.2579
15014 1 5.44074 125.76 38.8368
2510 1 7.25691 125.779 36.2717
14976 1 8.16811 124.169 38.823
2499 1 9.98439 124.19 36.2579
8978 2 9.07727 125.77 37.5528
17840 1 10.897 125.76 38.8368
8991 2 0.893546 127.36 37.5659
15002 1 2.71332 127.351 38.8498
2540 1 1.80181 128.958 36.2973
8989 2 3.62225 128.95 37.5783
8979 2 6.34978 127.36 37.5659
15000 1 5.44207 128.942 38.8622
2505 1 4.52938 127.368 36.2849
2503 1 7.25805 128.958 36.2973
14975 1 8.16955 127.351 38.8498
2498 1 9.98562 127.368 36.2849
8981 2 9.07848 128.95 37.5783
17841 1 10.8983 128.942 38.8622
8990 2 0.894659 130.54 37.59
15001 1 2.71454 130.533 38.8738
2943 1 1.80277 132.137 36.3199
9408 2 3.62326 132.13 37.6009
8977 2 6.3509 130.54 37.59
15003 1 5.44319 132.124 38.8847
2504 1 4.53043 130.547 36.309
2914 1 7.25901 132.137 36.3199
14962 1 8.17078 130.533 38.8738
2497 1 9.98667 130.547 36.309
17839 1 10.8994 132.124 38.8847
9394 2 9.0795 132.13 37.6009
20639 2 1.79986 116.201 40.0245
14629 1 0.890219 114.592 41.2901
20229 2 2.71155 114.575 42.5688
15015 1 3.61953 116.185 41.3077
20621 2 5.44084 116.169 42.5865
14581 1 6.34646 114.592 41.2901
20243 2 4.52689 114.609 40.007
20628 2 7.2561 116.201 40.0245
14978 1 9.07577 116.185 41.3077
20193 2 8.16779 114.575 42.5688
20195 2 9.98313 114.609 40.007
23458 2 10.8971 116.169 42.5865
20640 2 1.80189 119.384 40.0579
15009 1 0.892549 117.778 41.3246
15007 1 3.62174 119.371 41.3411
20626 2 4.52902 117.792 40.0415
14979 1 6.34879 117.778 41.3246
20624 2 7.25813 119.384 40.0579
14980 1 9.07798 119.371 41.3411
20580 2 9.98526 117.792 40.0415
20636 2 1.8037 122.567 40.0888
15008 1 0.89463 120.963 41.3569
15010 1 3.6237 122.556 41.372
20625 2 4.53094 120.976 40.0737
14973 1 6.35087 120.963 41.3569
20627 2 7.25994 122.567 40.0888
14971 1 9.07993 122.556 41.372
20579 2 9.98718 120.976 40.0737
20637 2 1.80529 125.751 40.1171
14998 1 0.896459 124.148 41.3866
14996 1 3.6254 125.741 41.4004
20618 2 4.53264 124.159 40.1033
14972 1 6.3527 124.148 41.3866
20616 2 7.26153 125.751 40.1171
14974 1 9.08164 125.741 41.4004
20578 2 9.98888 124.159 40.1033
20632 2 1.80666 128.934 40.1426
14997 1 0.898037 127.334 41.4135
14999 1 3.62685 128.926 41.4259
20617 2 4.53412 127.342 40.1303
14959 1 6.35428 127.334 41.4135
20619 2 7.2629 128.934 40.1426
14957 1 9.08309 128.926 41.4259
20571 2 9.99036 127.342 40.1303
20633 2 1.80781 132.118 40.1651
14990 1 0.899374 130.519 41.4375
14988 1 3.62807 132.112 41.4484
14958 1 6.35561 130.519 41.4375
20604 2 4.53538 130.526 40.1543
20602 2 7.26404 132.118 40.1651
14960 1 9.08431 132.112 41.4484
20570 2 9.99162 130.526 40.1543
15005 1 1.80486 116.154 43.8686
20227 2 0.897446 114.542 45.1282
20620 2 3.62673 116.138 45.1464
14579 1 4.53175 114.559 43.8507
20174 2 6.35368 114.542 45.1282
14977 1 7.2611 116.154 43.8686
20573 2 9.08297 116.138 45.1464
14531 1 9.98799 114.559 43.8507
20622 2 2.71383 117.763 42.6037
15006 1 1.80713 119.344 43.9025
20610 2 0.899717 117.734 45.1639
20608 2 3.62889 119.33 45.1809
20623 2 5.443 119.357 42.6203
14969 1 4.53415 117.749 43.8859
20574 2 6.35596 117.734 45.1639
14967 1 7.26337 119.344 43.9025
20577 2 8.17006 117.763 42.6037
14916 1 9.99039 117.749 43.8859
20575 2 9.08513 119.33 45.1809
23454 2 10.8992 119.357 42.6203
20614 2 2.71587 120.951 42.6362
14994 1 1.80914 122.533 43.934
20609 2 0.901767 120.926 45.1971
20611 2 3.63082 122.521 45.2127
20612 2 5.44493 122.544 42.6515
14968 1 4.53629 120.938 43.9186
20566 2 6.35801 120.926 45.1971
14970 1 7.26538 122.533 43.934
20576 2 8.17211 120.951 42.6362
14915 1 9.99252 120.938 43.9186
20564 2 9.08706 122.521 45.2127
23455 2 10.9012 122.544 42.6515
20613 2 2.71768 124.138 42.6661
14995 1 1.81089 125.722 43.9626
20596 2 0.903585 124.116 45.2275
20594 2 3.63253 125.712 45.2416
20615 2 5.44662 125.731 42.6801
14955 1 4.53817 124.127 43.9486
20565 2 6.35982 124.116 45.2275
14953 1 7.26713 125.722 43.9626
20569 2 8.17392 124.138 42.6661
14914 1 9.99441 124.127 43.9486
20567 2 9.08876 125.712 45.2416
23450 2 10.9029 125.731 42.6801
20600 2 2.71925 127.325 42.6932
14986 1 1.8124 128.91 43.9883
20595 2 0.905171 127.307 45.2549
20597 2 3.634 128.902 45.2675
20598 2 5.44807 128.918 42.7057
14954 1 4.5398 127.316 43.9758
20551 2 6.36141 127.307 45.2549
14956 1 7.26864 128.91 43.9883
20568 2 8.17549 127.325 42.6932
14907 1 9.99603 127.316 43.9758
20549 2 9.09023 128.902 45.2675
23451 2 10.9043 128.918 42.7057
20599 2 2.72059 130.512 42.7174
14987 1 1.81366 132.099 44.011
20588 2 0.906526 130.497 45.2793
20586 2 3.63524 132.093 45.2902
20601 2 5.44929 132.105 42.7282
14940 1 4.54118 130.505 44
20550 2 6.36276 130.497 45.2793
14938 1 7.2699 132.099 44.011
20554 2 8.17683 130.512 42.7174
14906 1 9.99742 130.505 44
20552 2 9.09148 132.093 45.2902
23449 2 10.9055 132.105 42.7282
20606 2 1.8137 116.107 47.7042
14563 1 0.905891 114.492 48.9651
14565 1 2.71827 114.525 46.4089
14963 1 3.63508 116.092 48.9842
14964 1 5.44757 116.123 46.4274
14512 1 6.36213 114.492 48.9651
20172 2 4.54072 114.509 47.6854
20572 2 7.26993 116.107 47.7042
14909 1 9.09132 116.092 48.9842
14529 1 8.17451 114.525 46.4089
20133 2 9.99696 114.509 47.6854
17824 1 10.9038 116.123 46.4274
14947 1 0.907995 117.691 49.0026
14965 1 2.72058 117.72 46.4451
20607 2 1.81574 119.303 47.7397
14945 1 3.6371 119.289 49.0203
14910 1 6.36423 117.691 49.0026
14966 1 5.44977 119.317 46.4622
20562 2 4.54286 117.705 47.7223
20560 2 7.27198 119.303 47.7397
14911 1 9.09334 119.289 49.0203
14913 1 8.17682 117.72 46.4451
20514 2 9.9991 117.705 47.7223
17812 1 10.906 119.317 46.4622
14946 1 0.909917 120.888 49.0371
14951 1 2.72266 120.913 46.4786
20592 2 1.81759 122.498 47.7723
14902 1 6.36616 120.888 49.0371
14948 1 3.63892 122.486 49.0532
14949 1 5.45173 122.51 46.4943
20561 2 4.54481 120.9 47.7564
20563 2 7.27383 122.498 47.7723
17813 1 10.908 122.51 46.4943
14900 1 9.09516 122.486 49.0532
14912 1 8.17889 120.913 46.4786
20513 2 10.0011 120.9 47.7564
14932 1 0.911642 124.084 49.0685
14950 1 2.7245 124.106 46.5093
20593 2 1.81923 125.692 47.8018
14901 1 6.36788 124.084 49.0685
14930 1 3.64055 125.682 49.083
14952 1 5.45345 125.702 46.5235
20547 2 4.54656 124.095 47.7874
17804 1 10.9097 125.702 46.5235
14903 1 9.09679 125.682 49.083
14905 1 8.18074 124.106 46.5093
20512 2 10.0028 124.095 47.7874
20545 2 7.27547 125.692 47.8018
14931 1 0.913162 127.28 49.0967
14936 1 2.7261 127.298 46.5369
20584 2 1.82066 128.886 47.8281
14887 1 6.3694 127.28 49.0967
14933 1 3.64196 128.878 49.1096
14934 1 5.45494 128.894 46.5495
20546 2 4.5481 127.289 47.8153
17805 1 10.9112 128.894 46.5495
14885 1 9.0982 128.878 49.1096
14904 1 8.18234 127.298 46.5369
20505 2 10.0043 127.289 47.8153
20548 2 7.2769 128.886 47.8281
14924 1 0.914477 130.476 49.1216
14935 1 2.72747 130.49 46.5614
20585 2 1.82188 132.08 47.8511
14886 1 6.37072 130.476 49.1216
14922 1 3.64318 132.073 49.1328
14937 1 5.45619 132.086 46.5724
20533 2 4.54942 130.483 47.84
17803 1 10.9124 132.086 46.5724
14888 1 9.09942 132.073 49.1328
14890 1 8.18371 130.49 46.5614
20504 2 10.0057 130.483 47.84
20531 2 7.27812 132.08 47.8511
14943 1 1.82349 116.061 51.5395
20605 2 0.00161904 116.076 50.2603
20160 2 2.72876 114.476 50.2408
20557 2 5.45786 116.076 50.2603
14510 1 4.55068 114.459 51.5196
14908 1 7.27973 116.061 51.5395
14480 1 10.0069 114.459 51.5196
20131 2 8.185 114.476 50.2408
14944 1 1.82527 119.262 51.5768
20558 2 2.73068 117.676 50.2791
20590 2 0.00347109 119.276 50.297
14898 1 4.55252 117.662 51.5586
20559 2 5.45971 119.276 50.297
14856 1 10.0088 117.662 51.5586
14896 1 7.2815 119.262 51.5768
20511 2 8.18692 117.676 50.2791
14928 1 1.8269 122.463 51.6108
20543 2 2.73246 120.875 50.3142
20591 2 0.00516872 122.474 50.3305
14897 1 4.55422 120.863 51.5942
20541 2 5.46141 122.474 50.3305
14855 1 10.0105 120.863 51.5942
14899 1 7.28314 122.463 51.6108
20510 2 8.1887 120.875 50.3142
14929 1 1.82838 125.662 51.6414
20542 2 2.73407 124.073 50.346
20582 2 0.00669603 125.672 50.3607
14883 1 4.55578 124.063 51.6265
20544 2 5.46293 125.672 50.3607
14854 1 10.012 124.063 51.6265
14881 1 7.28462 125.662 51.6414
20503 2 8.19031 124.073 50.346
14920 1 1.82969 128.861 51.6684
20529 2 2.73551 127.271 50.3745
20583 2 0.00804355 128.87 50.3875
14882 1 4.55717 127.262 51.6553
20527 2 5.46428 128.87 50.3875
14848 1 10.0134 127.262 51.6553
14884 1 7.28593 128.861 51.6684
20502 2 8.19175 127.271 50.3745
14921 1 1.83083 132.06 51.692
20528 2 2.73677 130.468 50.3997
20581 2 0.00920615 132.067 50.4109
14871 1 4.5584 130.461 51.6807
20530 2 5.46544 132.067 50.4109
14847 1 10.0146 130.461 51.6807
14869 1 7.28706 132.06 51.692
20492 2 8.19301 130.468 50.3997
14942 1 0.0126474 116.03 54.0933
20535 2 1.83598 116.015 55.3683
14500 1 2.73999 114.427 54.0726
20158 2 0.917631 114.443 52.7945
14893 1 5.46889 116.03 54.0933
20556 2 3.64659 116.046 52.8149
20120 2 4.56339 114.411 55.3471
20122 2 6.37387 114.443 52.7945
20506 2 7.29222 116.015 55.3683
20507 2 9.10283 116.046 52.8149
14478 1 8.19623 114.427 54.0726
20113 2 10.0196 114.411 55.3471
14894 1 2.74153 117.633 54.1132
14926 1 0.0141484 119.236 54.1321
20536 2 1.83735 119.222 55.4077
20539 2 0.919291 117.647 52.8344
14895 1 5.47039 119.236 54.1321
20496 2 4.56479 117.619 55.3885
20508 2 6.37553 117.647 52.8344
20537 2 3.64821 119.249 52.8529
14853 1 8.19776 117.633 54.1132
20478 2 10.021 117.619 55.3885
20494 2 7.29359 119.222 55.4077
20509 2 9.10444 119.249 52.8529
14879 1 2.74299 120.838 54.1501
14927 1 0.0155648 122.439 54.1672
20521 2 1.83866 122.428 55.4433
20538 2 0.920855 120.85 52.8706
14877 1 5.4718 122.439 54.1672
20495 2 4.56614 120.825 55.426
20500 2 6.37709 120.85 52.8706
20540 2 3.64971 122.451 52.8875
14852 1 8.19923 120.838 54.1501
20477 2 10.0224 120.825 55.426
20497 2 7.2949 122.428 55.4433
20498 2 9.10595 122.451 52.8875
14878 1 2.74435 124.041 54.1833
14918 1 0.0168753 125.642 54.1986
20522 2 1.83989 125.632 55.4751
20525 2 0.922301 124.052 52.9034
14880 1 5.47311 125.642 54.1986
20485 2 4.56741 124.03 55.4597
20499 2 6.37854 124.052 52.9034
20523 2 3.65109 125.652 52.9184
14846 1 8.20059 124.041 54.1833
20476 2 10.0236 124.03 55.4597
20483 2 7.29613 125.632 55.4751
20501 2 9.10733 125.652 52.9184
14867 1 2.7456 127.244 54.2129
14919 1 0.018062 128.845 54.2263
20515 2 1.84101 128.836 55.5031
20524 2 0.923612 127.253 52.9326
20526 2 3.65233 128.853 52.9459
20489 2 6.37985 127.253 52.9326
14865 1 5.4743 128.845 54.2263
20484 2 4.56858 127.234 55.4896
20487 2 9.10857 128.853 52.9459
20486 2 7.29725 128.836 55.5031
20475 2 10.0248 127.234 55.4896
14845 1 8.20184 127.244 54.2129
20519 2 0.924775 130.453 52.9582
20516 2 1.84201 132.04 55.5274
14917 1 0.0191103 132.047 54.2503
14866 1 2.74672 130.446 54.2387
20517 2 3.65342 132.053 52.9697
20488 2 6.38101 130.453 52.9582
20481 2 4.56964 130.438 55.5157
14868 1 5.47535 132.047 54.2503
20490 2 9.10966 132.053 52.9697
20479 2 7.29825 132.04 55.5274
20474 2 10.0259 130.438 55.5157
14839 1 8.20296 130.446 54.2387
15191 1 1.84878 115.971 59.1983
20832 2 0.0258799 115.985 57.9207
14498 1 0.929869 114.395 56.6246
20439 2 2.75341 114.38 57.8988
14892 1 3.65862 116 56.6462
20824 2 5.48212 115.985 57.9207
14795 1 4.57639 114.364 59.1759
14473 1 6.38611 114.395 56.6246
14849 1 9.11486 116 56.6462
15180 1 7.30502 115.971 59.1983
14747 1 10.0326 114.364 59.1759
20409 2 8.20965 114.38 57.8988
14875 1 0.931125 117.605 56.6668
15192 1 1.84981 119.182 59.2398
20830 2 0.0270402 119.195 57.9615
20825 2 2.75458 117.591 57.9416
14873 1 3.65986 119.209 56.6863
14850 1 6.38736 117.605 56.6668
15178 1 4.57742 117.576 59.2196
20826 2 5.48328 119.195 57.9615
15132 1 10.0337 117.576 59.2196
14851 1 9.1161 119.209 56.6863
15176 1 7.30605 119.182 59.2398
20790 2 8.21082 117.591 57.9416
14874 1 0.932352 120.812 56.7049
20831 2 0.02817 122.404 57.9982
20821 2 2.75573 120.8 57.9804
14876 1 3.66107 122.416 56.7225
15177 1 4.57845 120.787 59.2589
14843 1 6.38859 120.812 56.7049
20819 2 5.48441 122.404 57.9982
15131 1 10.0347 120.787 59.2589
14841 1 9.11731 122.416 56.7225
20789 2 8.21197 120.8 57.9804
14863 1 0.933531 124.019 56.7391
20828 2 0.0292521 125.612 58.0308
20820 2 2.75684 124.008 58.015
14861 1 3.66221 125.622 56.7548
14842 1 6.38977 124.019 56.7391
20822 2 5.48549 125.612 58.0308
14844 1 9.11845 125.622 56.7548
20784 2 8.21308 124.008 58.015
14862 1 0.934638 127.225 56.7694
20829 2 0.0302649 128.819 58.0594
20810 2 2.75789 127.216 58.0456
14864 1 3.66328 128.828 56.7831
14836 1 6.39088 127.225 56.7694
20808 2 5.4865 128.819 58.0594
14834 1 9.11952 128.828 56.7831
20783 2 8.21413 127.216 58.0456
14859 1 0.935651 130.431 56.7958
20827 2 0.0311875 132.026 58.0841
20809 2 2.75886 130.423 58.0723
14857 1 3.66424 132.033 56.8075
14835 1 6.39189 130.431 56.7958
20811 2 5.48743 132.026 58.0841
14837 1 9.12047 132.033 56.8075
20770 2 8.2151 130.423 58.0723
15190 1 0.0392499 115.941 61.75
14781 1 2.76693 114.334 61.727
20437 2 0.943778 114.349 60.4499
15173 1 5.49549 115.941 61.75
20823 2 3.6724 115.956 60.4725
20389 2 6.40002 114.349 60.4499
20786 2 9.12864 115.956 60.4725
14745 1 8.22316 114.334 61.727
15174 1 2.76781 117.548 61.7719
15186 1 0.0401363 119.155 61.7926
20817 2 0.944783 117.562 60.4941
15175 1 5.49637 119.155 61.7926
20787 2 6.40102 117.562 60.4941
20815 2 3.6734 119.169 60.5145
15129 1 8.22405 117.548 61.7719
20788 2 9.12964 119.169 60.5145
15188 1 1.85084 122.392 59.277
15166 1 2.76871 120.762 61.8123
15187 1 0.041048 122.369 61.8308
20816 2 0.94578 120.775 60.5339
15164 1 5.49729 122.369 61.8308
20781 2 6.40202 120.775 60.5339
20818 2 3.6744 122.38 60.5522
15179 1 7.30708 122.392 59.277
15128 1 8.22495 120.762 61.8123
20779 2 9.13063 122.38 60.5522
15189 1 1.85185 125.602 59.3101
15165 1 2.76962 123.975 61.8483
15182 1 0.0419553 125.582 61.8646
20806 2 0.946766 123.986 60.5694
15170 1 4.57947 123.997 59.2941
15167 1 5.49819 125.582 61.8646
20780 2 6.403 123.986 60.5694
20804 2 3.67537 125.592 60.5856
15130 1 10.0357 123.997 59.2941
15168 1 7.30809 125.602 59.3101
15121 1 8.22586 123.975 61.8483
20782 2 9.13161 125.592 60.5856
15184 1 1.85281 128.811 59.339
15152 1 2.77052 127.188 61.8799
15183 1 0.0428391 128.794 61.8941
20805 2 0.947719 127.197 60.6007
15169 1 4.58046 127.206 59.325
15150 1 5.49908 128.794 61.8941
20767 2 6.40396 127.197 60.6007
20807 2 3.6763 128.802 60.6148
15123 1 10.0367 127.206 59.325
15171 1 7.30905 128.811 59.339
15120 1 8.22676 127.188 61.8799
20765 2 9.13253 128.802 60.6148
15185 1 1.85369 132.02 59.3639
15151 1 2.77138 130.4 61.9073
15181 1 0.0436743 132.006 61.9194
20798 2 0.948618 130.407 60.6279
15156 1 4.58138 130.415 59.3519
15153 1 5.49991 132.006 61.9194
20766 2 6.40486 130.407 60.6279
20796 2 3.67716 132.012 60.6399
15122 1 10.0376 130.415 59.3519
15154 1 7.30993 132.02 59.3639
15106 1 8.22762 130.4 61.9073
20768 2 9.1334 132.012 60.6399
20812 2 0.0537043 115.896 65.5745
20813 2 1.86296 115.926 63.0238
14779 1 0.957601 114.303 64.2782
20373 2 2.7814 114.287 65.5508
15172 1 3.68616 115.912 64.3017
20772 2 5.50994 115.896 65.5745
14726 1 6.41384 114.303 64.2782
20387 2 4.59063 114.318 63.0006
15125 1 9.14239 115.912 64.3017
20785 2 7.3192 115.926 63.0238
20337 2 8.23764 114.287 65.5508
20339 2 10.0469 114.318 63.0006
15162 1 0.958419 117.52 64.3241
20773 2 2.78231 117.506 65.597
20800 2 0.0546421 119.115 65.6184
20814 2 1.86388 119.142 63.0669
15126 1 6.41466 117.52 64.3241
15160 1 3.68698 119.129 64.3453
20774 2 5.51088 119.115 65.6184
20777 2 4.59154 117.534 63.0459
15127 1 9.14322 119.129 64.3453
20721 2 8.23855 117.506 65.597
20724 2 10.0478 117.534 63.0459
20775 2 7.32012 119.142 63.0669
15161 1 0.959282 120.737 64.3654
20759 2 2.78321 120.724 65.6386
20801 2 0.0555399 122.333 65.6577
20802 2 1.86479 122.357 63.1054
15118 1 6.41552 120.737 64.3654
15163 1 3.68783 122.345 64.3844
20757 2 5.51178 122.333 65.6577
20776 2 4.59246 120.749 63.0867
15116 1 9.14407 122.345 64.3844
20720 2 8.23945 120.724 65.6386
20723 2 10.0487 120.749 63.0867
20778 2 7.32103 122.357 63.1054
15148 1 0.960137 123.953 64.4022
20758 2 2.78411 123.942 65.6756
20792 2 0.0564306 125.55 65.6923
20803 2 1.8657 125.571 63.1395
15117 1 6.41638 123.953 64.4022
15146 1 3.68869 125.561 64.4188
20760 2 5.51267 125.55 65.6923
20763 2 4.59337 123.964 63.123
15119 1 9.14493 125.561 64.4188
20713 2 8.24034 123.942 65.6756
20722 2 10.0496 123.964 63.123
20761 2 7.32194 125.571 63.1395
15147 1 0.960996 127.169 64.4344
20744 2 2.78499 127.159 65.7079
20793 2 0.0573081 128.768 65.7225
20794 2 1.86658 128.785 63.1692
15103 1 6.41723 127.169 64.4344
15149 1 3.68954 128.777 64.4488
20742 2 5.51355 128.768 65.7225
20762 2 4.59426 127.178 63.1549
15101 1 9.14578 128.777 64.4488
20712 2 8.24123 127.159 65.7079
20715 2 10.0505 127.178 63.1549
20764 2 7.32282 128.785 63.1692
15140 1 0.961837 130.384 64.4622
20743 2 2.78585 130.376 65.7359
20791 2 0.0581474 131.984 65.7483
20795 2 1.86742 131.999 63.1947
15102 1 6.41808 130.384 64.4622
15138 1 3.69036 131.992 64.4744
20745 2 5.51439 131.984 65.7483
20748 2 4.59513 130.392 63.1825
15104 1 9.1466 131.992 64.4744
20698 2 8.24209 130.376 65.7359
20714 2 10.0514 130.392 63.1825
20746 2 7.32365 131.999 63.1947
15158 1 1.87691 115.883 66.8542
20371 2 0.972241 114.256 68.0997
20771 2 3.70085 115.866 68.1237
14724 1 4.60444 114.273 66.8308
20320 2 6.42848 114.256 68.0997
15124 1 7.33315 115.883 66.8542
20717 2 9.15709 115.866 68.1237
14685 1 10.0607 114.273 66.8308
15159 1 1.87773 119.103 66.8988
20755 2 0.973207 117.477 68.1466
15114 1 4.60544 117.493 66.8771
20718 2 6.42945 117.477 68.1466
20753 2 3.70179 119.087 68.1683
15066 1 10.0617 117.493 66.8771
15112 1 7.33397 119.103 66.8988
20719 2 9.15803 119.087 68.1683
15144 1 1.87856 122.322 66.9386
20754 2 0.97414 120.698 68.1888
15113 1 4.60626 120.713 66.9193
20710 2 6.43038 120.698 68.1888
20756 2 3.70273 122.308 68.2082
15065 1 10.0625 120.713 66.9193
15115 1 7.33479 122.322 66.9386
20708 2 9.15896 122.308 68.2082
15145 1 1.87941 125.542 66.9736
20740 2 0.975075 123.919 68.2263
15099 1 4.6071 123.932 66.9567
20709 2 6.43131 123.919 68.2263
20738 2 3.70366 125.529 68.2432
15064 1 10.0633 123.932 66.9567
15097 1 7.33565 125.542 66.9736
20711 2 9.1599 125.529 68.2432
15136 1 1.88027 128.76 67.004
20739 2 0.976009 127.14 68.2591
15098 1 4.60796 127.151 66.9893
20695 2 6.43225 127.14 68.2591
20741 2 3.70459 128.75 68.2737
15057 1 10.0642 127.151 66.9893
15100 1 7.33651 128.76 67.004
20693 2 9.16083 128.75 68.2737
15137 1 1.88111 131.979 67.0299
20732 2 0.976919 130.36 68.2873
15085 1 4.60882 130.37 67.0175
20694 2 6.43316 130.36 68.2873
20730 2 3.70547 131.97 68.2998
15056 1 10.0651 130.37 67.0175
15083 1 7.33735 131.979 67.0299
20696 2 9.16171 131.97 68.2998
15157 1 0.0664446 115.854 69.4121
20751 2 1.89122 115.835 70.6694
14710 1 0.978457 114.211 71.9631
14712 1 2.79407 114.243 69.3879
15108 1 3.70715 115.824 71.9873
15109 1 5.52268 115.854 69.4121
14674 1 6.4347 114.211 71.9631
20318 2 4.61878 114.223 70.6453
15059 1 9.16338 115.824 71.9873
20716 2 7.34746 115.835 70.6694
14683 1 8.25031 114.243 69.3879
20288 2 10.075 114.223 70.6453
15091 1 0.979599 117.436 72.0103
15110 1 2.79505 117.465 69.4351
15142 1 0.0674116 119.076 69.457
20752 2 1.89232 119.059 70.7141
15060 1 6.43584 117.436 72.0103
15089 1 3.7083 119.048 72.0322
15111 1 5.52365 119.076 69.457
20706 2 4.6199 117.447 70.6924
15061 1 9.16454 119.048 72.0322
15063 1 8.25129 117.465 69.4351
20664 2 10.0761 117.447 70.6924
20704 2 7.34856 119.059 70.7141
15090 1 0.980773 120.661 72.0528
15095 1 2.79602 120.687 69.4776
15143 1 0.0683909 122.298 69.497
20736 2 1.89341 122.283 70.7541
15052 1 6.43701 120.661 72.0528
15092 1 3.70949 122.274 72.0723
15093 1 5.52463 122.298 69.497
20705 2 4.62098 120.671 70.7347
15050 1 9.16573 122.274 72.0723
15062 1 8.25226 120.687 69.4776
20663 2 10.0772 120.671 70.7347
20707 2 7.34965 122.283 70.7541
15077 1 0.981983 123.886 72.0906
15094 1 2.79701 123.909 69.5152
15134 1 0.0693882 125.52 69.5322
20737 2 1.89449 125.507 70.7894
15051 1 6.43822 123.886 72.0906
15075 1 3.71071 125.499 72.1077
15096 1 5.52563 125.52 69.5322
20691 2 4.62207 123.895 70.7723
15053 1 9.16695 125.499 72.1077
15055 1 8.25325 123.909 69.5152
20662 2 10.0783 123.895 70.7723
20689 2 7.35073 125.507 70.7894
15076 1 0.983197 127.112 72.1236
15081 1 2.79801 127.131 69.5481
15135 1 0.0703797 128.743 69.5629
20728 2 1.89555 128.731 70.82
15041 1 6.43944 127.112 72.1236
15078 1 3.71191 128.724 72.1384
15079 1 5.52662 128.743 69.5629
20690 2 4.62314 127.119 70.8053
15039 1 9.16815 128.724 72.1384
15054 1 8.25424 127.131 69.5481
20656 2 10.0794 127.119 70.8053
20692 2 7.35178 128.731 70.82
15071 1 0.984367 130.337 72.1521
15080 1 2.79898 130.354 69.5765
15133 1 0.0713282 131.965 69.589
20729 2 1.89654 131.955 70.8463
15040 1 6.44061 130.337 72.1521
15069 1 3.71304 131.95 72.1647
15082 1 5.52757 131.965 69.589
20679 2 4.62417 130.343 70.8337
15042 1 9.16928 131.95 72.1647
15044 1 8.25522 130.354 69.5765
20655 2 10.0804 130.343 70.8337
20677 2 7.35278 131.955 70.8463
15087 1 1.83291 115.801 74.639
20750 2 0.0796912 115.802 73.2011
20306 2 0.968231 114.164 75.6524
20308 2 2.80717 114.189 73.1771
20700 2 3.69693 115.778 75.6761
20701 2 5.53593 115.802 73.2011
14672 1 4.56073 114.189 74.615
20281 2 6.42447 114.164 75.6524
15058 1 7.28915 115.801 74.639
20657 2 9.15317 115.778 75.6761
14665 1 10.017 114.189 74.615
20286 2 8.26341 114.189 73.1771
15088 1 1.83381 119.028 74.6836
20683 2 0.969437 117.392 75.6989
20702 2 2.80844 117.416 73.224
20734 2 0.0809599 119.029 73.2458
15048 1 4.56143 117.414 74.6619
20658 2 6.42568 117.392 75.6989
20681 2 3.69823 119.007 75.7204
20703 2 5.5372 119.029 73.2458
15030 1 10.0177 117.414 74.6619
15046 1 7.29004 119.028 74.6836
20659 2 9.15446 119.007 75.7204
20661 2 8.26468 117.416 73.224
15073 1 1.83504 122.255 74.7236
20682 2 0.970813 120.622 75.7409
20687 2 2.80972 120.643 73.2663
20735 2 0.0822365 122.257 73.2857
15047 1 4.56251 120.641 74.7042
20651 2 6.42705 120.622 75.7409
20684 2 3.69967 122.236 75.7602
20685 2 5.53847 122.257 73.2857
15029 1 10.0187 120.641 74.7042
15049 1 7.29128 122.255 74.7236
20649 2 9.15591 122.236 75.7602
20660 2 8.26595 120.643 73.2663
15074 1 1.83648 125.483 74.7589
20671 2 0.972304 123.851 75.7784
20686 2 2.81099 123.87 73.304
20726 2 0.083509 125.484 73.3211
15037 1 4.56386 123.869 74.7418
20650 2 6.42854 123.851 75.7784
20669 2 3.70119 125.466 75.7954
20688 2 5.53975 125.484 73.3211
15028 1 10.0201 123.869 74.7418
15035 1 7.29272 125.483 74.7589
20652 2 9.15742 125.466 75.7954
20654 2 8.26723 123.87 73.304
15067 1 1.83798 128.711 74.7896
20670 2 0.973824 127.082 75.8113
20675 2 2.81225 127.098 73.337
20727 2 0.0847395 128.711 73.3518
15036 1 4.56535 127.097 74.7748
20644 2 6.43006 127.082 75.8113
20672 2 3.70269 128.697 75.8261
20673 2 5.54098 128.711 73.3518
15027 1 10.0216 127.097 74.7748
15038 1 7.29422 128.711 74.7896
20642 2 9.15892 128.697 75.8261
20653 2 8.26849 127.098 73.337
15068 1 1.83944 131.94 74.8159
20667 2 0.975286 130.312 75.8398
20674 2 2.81344 130.325 73.3655
20725 2 0.0858838 131.938 73.3781
15033 1 4.56684 130.325 74.8033
20643 2 6.43152 130.312 75.8398
20665 2 3.70409 131.927 75.8524
20676 2 5.54212 131.938 73.3781
15026 1 10.0231 130.325 74.8033
15031 1 7.29568 131.94 74.8159
20645 2 9.16033 131.927 75.8524
20647 2 8.26968 130.325 73.3655
2879 1 1.78927 132.328 -2.37854
9177 2 0.90062 133.893 -0.923009
9185 2 2.71183 133.907 -3.43033
9183 2 3.62945 132.325 -0.935108
2866 1 4.51627 133.895 -2.36644
9147 2 6.35686 133.893 -0.923009
9184 2 5.44079 132.341 -3.44232
2868 1 7.24551 132.328 -2.37854
2820 1 9.97251 133.895 -2.36644
9146 2 9.08569 132.325 -0.935108
9150 2 8.16807 133.907 -3.43033
12456 2 10.897 132.341 -3.44232
2880 1 1.78723 135.463 -2.35548
9176 2 0.899339 137.029 -0.901999
9181 2 2.71041 137.04 -3.40947
9175 2 3.62807 135.461 -0.911974
2876 1 1.78585 138.597 -2.33672
9178 2 3.6269 138.596 -0.893077
2865 1 4.5146 137.03 -2.34559
9141 2 6.35558 137.029 -0.901999
9186 2 5.43919 135.473 -3.41938
2864 1 7.24347 135.463 -2.35548
9179 2 5.43794 138.606 -3.40059
2867 1 7.24208 138.597 -2.33672
2819 1 9.97084 137.03 -2.34559
9148 2 9.08431 135.461 -0.911974
9149 2 8.16665 137.04 -3.40947
12454 2 10.8954 135.473 -3.41938
9139 2 9.08314 138.596 -0.893077
12455 2 10.8942 138.606 -3.40059
9166 2 0.898294 140.164 -0.885202
9180 2 2.70931 140.172 -3.39276
2877 1 1.78481 141.731 -2.3221
9164 2 3.62599 141.731 -0.878376
2858 1 4.51341 140.164 -2.32889
9140 2 6.35453 140.164 -0.885202
2856 1 7.24105 141.731 -2.3221
9182 2 5.43698 141.738 -3.38597
2818 1 9.96965 140.164 -2.32889
9144 2 8.16555 140.172 -3.39276
9142 2 9.08222 141.731 -0.878376
12452 2 10.8932 141.738 -3.38597
9165 2 0.897505 143.299 -0.8726
9170 2 2.70849 143.304 -3.38022
2872 1 1.78408 144.864 -2.31165
9167 2 3.62533 144.866 -0.867873
2857 1 4.51253 143.297 -2.31636
9127 2 6.35374 143.299 -0.8726
2859 1 7.24032 144.864 -2.31165
9168 2 5.4363 144.869 -3.37551
2811 1 9.96877 143.297 -2.31636
9143 2 8.16473 143.304 -3.38022
9125 2 9.08157 144.866 -0.867873
12453 2 10.8925 144.869 -3.37551
9158 2 0.896977 146.434 -0.864196
9169 2 2.70794 146.435 -3.37185
2873 1 1.78364 147.997 -2.30538
9156 2 3.62493 148.001 -0.86157
2844 1 4.51194 146.431 -2.30799
9126 2 6.35322 146.434 -0.864196
9171 2 5.43589 148.001 -3.36924
2842 1 7.23988 147.997 -2.30538
2810 1 9.96818 146.431 -2.30799
9130 2 8.16418 146.435 -3.37185
9128 2 9.08117 148.001 -0.86157
12451 2 10.8921 148.001 -3.36924
9157 2 0.896713 149.568 -0.859994
9159 2 2.70766 149.567 -3.36767
191 1 1.7835 151.13 -2.30329
6327 2 3.6248 151.135 -0.859469
2843 1 4.51165 149.564 -2.30381
9109 2 6.35295 149.568 -0.859994
6328 2 5.43575 151.132 -3.36715
180 1 7.23973 151.13 -2.30329
2795 1 9.96789 149.564 -2.30381
9129 2 8.1639 149.567 -3.36767
6290 2 9.08104 151.135 -0.859469
9600 2 10.892 151.132 -3.36715
2862 1 2.71568 133.883 0.299961
9173 2 1.80875 132.308 1.61976
9174 2 1.80727 135.447 1.64301
2861 1 5.4446 132.314 0.287831
9137 2 4.5361 133.878 1.63192
9145 2 7.26498 132.308 1.61976
2863 1 5.44308 135.452 0.311018
9135 2 7.26351 135.447 1.64301
2817 1 8.17192 133.883 0.299961
9084 2 9.99233 133.878 1.63192
5950 1 10.9008 132.314 0.287831
5946 1 10.8993 135.452 0.311018
2854 1 2.71431 137.021 0.321006
9162 2 1.80605 138.586 1.66201
9136 2 4.53475 137.016 1.65304
9138 2 7.26229 138.586 1.66201
2852 1 5.44184 138.589 0.329937
2816 1 8.17055 137.021 0.321006
9083 2 9.99098 137.016 1.65304
5947 1 10.8981 138.589 0.329937
2853 1 2.71321 140.157 0.337818
9163 2 1.80509 141.724 1.67677
9123 2 4.53366 140.155 1.66992
9121 2 7.26133 141.724 1.67677
2855 1 5.44088 141.726 0.344648
2809 1 8.16945 140.157 0.337818
9082 2 9.98989 140.155 1.66992
5942 1 10.8971 141.726 0.344648
2840 1 2.71239 143.294 0.350429
9154 2 1.80441 144.862 1.68731
9122 2 4.53284 143.293 1.68257
9124 2 7.26065 144.862 1.68731
2838 1 5.4402 144.862 0.355159
2808 1 8.16862 143.294 0.350429
9075 2 9.98907 143.293 1.68257
5943 1 10.8964 144.862 0.355159
2839 1 2.71184 146.431 0.358838
9155 2 1.804 148 1.69364
9108 2 4.53229 146.431 1.691
2841 1 5.43978 147.999 0.361465
9106 2 7.26024 148 1.69364
2794 1 8.16808 146.431 0.358838
9074 2 9.98853 146.431 1.691
5941 1 10.896 147.999 0.361465
2829 1 2.71156 149.567 0.363042
6317 2 1.80386 151.138 1.69574
9107 2 4.53202 149.569 1.69522
173 1 5.43965 151.135 0.363568
6289 2 7.2601 151.138 1.69574
2793 1 8.1678 149.567 0.363042
9059 2 9.98826 149.569 1.69522
3262 1 10.8959 151.135 0.363568
2850 1 0.897029 133.869 2.89853
9133 2 2.71541 133.864 4.19957
2847 1 1.80409 135.429 5.492
2848 1 3.62441 135.439 2.90965
2814 1 6.35327 133.869 2.89853
2802 1 4.53295 133.857 5.48088
2800 1 7.26033 135.429 5.492
9134 2 5.44279 135.435 4.21069
2748 1 9.98919 133.857 5.48088
9081 2 8.17165 133.864 4.19957
12424 2 10.899 135.435 4.21069
2815 1 9.08065 135.439 2.90965
2849 1 0.895623 137.01 2.9197
9119 2 2.714 137.006 4.22074
2832 1 1.80282 138.572 5.51104
2851 1 3.62314 138.58 2.92869
2806 1 6.35186 137.01 2.9197
2801 1 4.53153 137 5.50205
2803 1 7.25905 138.572 5.51104
9117 2 5.44152 138.576 4.22974
2747 1 9.98777 137 5.50205
9080 2 8.17024 137.006 4.22074
2804 1 9.07938 138.58 2.92869
12425 2 10.8978 138.576 4.22974
2836 1 0.894497 140.15 2.93661
9118 2 2.71287 140.147 4.23766
2833 1 1.80183 141.715 5.52584
2834 1 3.62216 141.72 2.94347
2805 1 6.35074 140.15 2.93661
2787 1 4.53041 140.144 5.51897
2785 1 7.25807 141.715 5.52584
9120 2 5.44053 141.718 4.24453
2746 1 9.98665 140.144 5.51897
9073 2 8.16911 140.147 4.23766
12416 2 10.8968 141.718 4.24453
2807 1 9.0784 141.72 2.94347
2835 1 0.893654 143.29 2.94927
9104 2 2.71203 143.289 4.25034
2837 1 3.62146 144.86 2.95402
2824 1 1.80114 144.858 5.5364
2791 1 6.34989 143.29 2.94927
2786 1 4.52957 143.287 5.53165
9102 2 5.43983 144.859 4.25509
2788 1 7.25737 144.858 5.5364
2739 1 9.98581 143.287 5.53165
9072 2 8.16827 143.289 4.25034
2789 1 9.0777 144.86 2.95402
12417 2 10.8961 144.859 4.25509
2828 1 0.893094 146.429 2.95771
9103 2 2.71147 146.43 4.25878
2826 1 3.62104 147.999 2.96035
2825 1 1.80072 148.001 5.54274
2770 1 7.25696 148.001 5.54274
9105 2 5.43941 148.001 4.26142
2790 1 6.34933 146.429 2.95771
2772 1 4.52901 146.43 5.5401
12415 2 10.8957 148.001 4.26142
2792 1 9.07728 147.999 2.96035
9058 2 8.16771 146.43 4.25878
2738 1 9.98525 146.43 5.5401
9093 2 2.71119 149.571 4.263
2827 1 0.892815 149.569 2.96193
158 1 1.80059 151.144 5.54487
172 1 3.6209 151.139 2.96246
2771 1 4.52874 149.573 5.54433
2773 1 6.34905 149.569 2.96193
124 1 7.25683 151.144 5.54487
6276 2 5.43927 151.142 4.26353
9057 2 8.16743 149.571 4.263
2724 1 9.98498 149.573 5.54433
9580 2 10.8955 151.142 4.26353
125 1 9.07714 151.139 2.96246
2798 1 2.71247 133.845 8.05755
9115 2 0.894754 133.851 6.77144
9113 2 3.62215 135.424 6.78252
9078 2 6.35099 133.851 6.77144
2799 1 5.43986 135.418 8.06862
2745 1 8.1687 133.845 8.05755
5902 1 10.8961 135.418 8.06862
9079 2 9.07838 135.424 6.78252
2783 1 2.71109 136.991 8.07864
9114 2 0.893371 136.996 6.79255
9116 2 3.62091 138.568 6.80152
9070 2 6.34961 136.996 6.79255
2781 1 5.43864 138.564 8.0876
2744 1 8.16733 136.991 8.07864
5903 1 10.8949 138.564 8.0876
9068 2 9.07714 138.568 6.80152
2782 1 2.71001 140.138 8.0955
9100 2 0.892273 140.141 6.80943
9098 2 3.61995 141.713 6.81629
9069 2 6.34851 140.141 6.80943
2784 1 5.43769 141.711 8.10236
2737 1 8.16625 140.138 8.0955
9071 2 9.07619 141.713 6.81629
5894 1 10.8939 141.711 8.10236
2768 1 2.7092 143.284 8.10816
9099 2 0.891456 143.286 6.82209
9101 2 3.61927 144.858 6.82684
9055 2 6.34769 143.286 6.82209
2766 1 5.43703 144.857 8.1129
2736 1 8.16544 143.284 8.10816
9053 2 9.07551 144.858 6.82684
5895 1 10.8933 144.857 8.1129
2767 1 2.70868 146.43 8.1166
9092 2 0.890919 146.43 6.83053
9090 2 3.61887 148.002 6.83318
9054 2 6.34716 146.43 6.83053
2769 1 5.43664 148.003 8.11925
2723 1 8.16492 146.43 8.1166
9056 2 9.07511 148.002 6.83318
5893 1 10.8929 148.003 8.11925
2757 1 2.70842 149.576 8.12085
9091 2 0.890657 149.575 6.83477
6275 2 3.61875 151.147 6.83531
9040 2 6.3469 149.575 6.83477
109 1 5.43652 151.149 8.12139
2722 1 8.16466 149.576 8.12085
6221 2 9.07499 151.147 6.83531
3229 1 10.8928 151.149 8.12139
2779 1 0.892136 133.833 10.6319
9062 2 2.71034 133.827 11.9174
9112 2 1.80175 135.413 9.35543
2777 1 3.61958 135.408 10.6429
9066 2 4.53056 133.839 9.34443
2742 1 6.34837 133.833 10.6319
9064 2 7.25799 135.413 9.35543
9063 2 5.43782 135.403 11.9283
9024 2 9.9868 133.839 9.34443
9021 2 8.16658 133.827 11.9174
2743 1 9.07582 135.408 10.6429
12358 2 10.8941 135.403 11.9283
2778 1 0.890851 136.982 10.6529
9047 2 2.70913 136.978 11.9382
9096 2 1.80057 138.561 9.37431
2780 1 3.61843 138.557 10.6618
9065 2 4.52924 136.987 9.3654
2734 1 6.34709 136.982 10.6529
9067 2 7.25681 138.561 9.37431
9045 2 5.43674 138.554 11.947
9023 2 9.98548 136.987 9.3654
9020 2 8.16537 136.978 11.9382
2732 1 9.07467 138.557 10.6618
12359 2 10.893 138.554 11.947
2764 1 0.889839 140.132 10.6696
9046 2 2.70818 140.129 11.9548
9097 2 1.79967 141.709 9.38901
2762 1 3.61755 141.707 10.6764
9051 2 4.5282 140.135 9.38219
2733 1 6.34608 140.132 10.6696
9049 2 7.2559 141.709 9.38901
9048 2 5.43591 141.705 11.9616
9022 2 9.98444 140.135 9.38219
9014 2 8.16442 140.129 11.9548
2735 1 9.07379 141.707 10.6764
12350 2 10.8922 141.705 11.9616
2763 1 0.889092 143.281 10.6822
9035 2 2.70748 143.28 11.9673
9088 2 1.79903 144.857 9.39953
2765 1 3.61694 144.856 10.6869
9050 2 4.52743 143.283 9.39479
2720 1 6.34533 143.281 10.6822
9052 2 7.25527 144.857 9.39953
9033 2 5.43534 144.856 11.972
9016 2 9.98367 143.283 9.39479
9013 2 8.16371 143.28 11.9673
2718 1 9.07317 144.856 10.6869
12351 2 10.8916 144.856 11.972
2756 1 0.888606 146.431 10.6906
9034 2 2.70702 146.431 11.9757
9089 2 1.79866 148.004 9.40586
2754 1 3.61658 148.005 10.6933
9039 2 4.52693 146.431 9.40321
2719 1 6.34484 146.431 10.6906
9037 2 7.2549 148.004 9.40586
9036 2 5.435 148.007 11.9784
9015 2 9.98317 146.431 9.40321
9007 2 8.16326 146.431 11.9757
2721 1 9.07282 148.005 10.6933
12349 2 10.8912 148.007 11.9784
2755 1 0.888377 149.58 10.6949
9028 2 2.70681 149.582 11.98
6255 2 1.79855 151.152 9.408
108 1 3.61648 151.155 10.6954
9038 2 4.52669 149.578 9.40745
2709 1 6.34462 149.58 10.6949
6220 2 7.25479 151.152 9.408
6205 2 5.43491 151.157 11.9805
9008 2 9.98293 149.578 9.40745
9006 2 8.16304 149.582 11.98
53 1 9.07272 151.155 10.6954
9518 2 10.8911 151.157 11.9805
2726 1 2.70834 133.811 15.7777
9043 2 0.890337 133.816 14.4901
2776 1 1.79952 135.398 13.2161
9041 2 3.61789 135.393 14.5008
2730 1 4.52825 133.822 13.2052
9018 2 6.34658 133.816 14.4901
2727 1 5.43594 135.388 15.7884
2728 1 7.25576 135.398 13.2161
5830 1 10.8922 135.388 15.7884
2697 1 8.16458 133.811 15.7777
2700 1 9.98448 133.822 13.2052
9019 2 9.07413 135.393 14.5008
2712 1 2.70735 136.966 15.7981
9042 2 0.889271 136.97 14.5105
2760 1 1.79849 138.55 13.2347
9044 2 3.61694 138.547 14.5193
2729 1 4.52709 136.974 13.2259
9011 2 6.34551 136.97 14.5105
2710 1 5.43506 138.544 15.8067
2731 1 7.25472 138.55 13.2347
5831 1 10.8913 138.544 15.8067
2696 1 8.16359 136.966 15.7981
2699 1 9.98333 136.974 13.2259
9009 2 9.07318 138.547 14.5193
9029 2 3.61622 141.701 14.5337
2711 1 2.70658 140.121 15.8144
9031 2 0.888436 140.124 14.527
2761 1 1.7977 141.703 13.2492
2713 1 5.43439 141.699 15.8211
2716 1 4.52618 140.127 13.2425
9010 2 6.34467 140.124 14.527
2714 1 7.25394 141.703 13.2492
9012 2 9.07246 141.701 14.5337
5822 1 10.8906 141.699 15.8211
2693 1 8.16282 140.121 15.8144
2698 1 9.98242 140.127 13.2425
9032 2 3.61572 144.855 14.544
9030 2 0.887824 143.278 14.5394
2704 1 2.70601 143.277 15.8268
2752 1 1.79715 144.855 13.2596
2702 1 5.43392 144.855 15.8314
9004 2 6.34406 143.278 14.5394
2715 1 4.52552 143.279 13.2549
2717 1 7.25339 144.855 13.2596
9002 2 9.07196 144.855 14.544
2695 1 9.98175 143.279 13.2549
2692 1 8.16225 143.277 15.8268
5823 1 10.8902 144.855 15.8314
2753 1 1.79684 148.008 13.2659
9025 2 3.61543 148.009 14.5503
9027 2 0.887427 146.432 14.5477
2703 1 2.70565 146.432 15.835
2706 1 7.25307 148.008 13.2659
2705 1 5.43366 148.01 15.8377
9003 2 6.34367 146.432 14.5477
2708 1 4.52508 146.431 13.2633
5821 1 10.8899 148.01 15.8377
9005 2 9.07167 148.009 14.5503
2690 1 8.16189 146.432 15.835
2694 1 9.98132 146.431 13.2633
2701 1 2.70548 149.588 15.8393
9026 2 0.887245 149.586 14.5519
6204 2 3.61535 151.163 14.5525
87 1 1.79675 151.16 13.2681
2707 1 4.52488 149.584 13.2675
9001 2 6.34348 149.586 14.5519
52 1 7.25299 151.16 13.2681
37 1 5.43359 151.166 15.8398
2689 1 8.16172 149.588 15.8393
2691 1 9.98112 149.584 13.2675
3158 1 10.8898 151.166 15.8398
6161 2 9.07159 151.163 14.5525
3070 1 0.888691 133.8 18.3495
9384 2 1.79822 135.384 17.0727
3068 1 3.61639 135.379 18.36
9370 2 4.52681 133.805 17.0621
3047 1 6.34493 133.8 18.3495
9368 2 7.25446 135.384 17.0727
9324 2 9.98305 133.805 17.0621
3048 1 9.07263 135.379 18.36
3069 1 0.887901 136.958 18.3695
9380 2 1.79744 138.54 17.0909
3071 1 3.61569 138.537 18.3781
9369 2 4.52592 136.962 17.0823
3043 1 6.34414 136.958 18.3695
9371 2 7.25367 138.54 17.0909
9323 2 9.98216 136.962 17.0823
3041 1 9.07193 138.537 18.3781
3063 1 0.887286 140.116 18.3856
9381 2 1.79684 141.697 17.1051
3061 1 3.61516 141.696 18.3922
9362 2 4.52523 140.119 17.0985
3042 1 6.34352 140.116 18.3856
9360 2 7.25308 141.697 17.1051
9322 2 9.98147 140.119 17.0985
3044 1 9.0714 141.696 18.3922
3062 1 0.886836 143.275 18.3978
9376 2 1.79642 144.854 17.1154
3064 1 3.61479 144.854 18.4024
9361 2 4.52473 143.276 17.1107
3031 1 6.34307 143.275 18.3978
9363 2 7.25266 144.854 17.1154
9315 2 9.98097 143.276 17.1107
3029 1 9.07103 144.854 18.4024
3056 1 0.886546 146.433 18.406
9377 2 1.79619 148.011 17.1216
3054 1 3.61458 148.013 18.4086
3030 1 6.34278 146.433 18.406
9348 2 4.5244 146.433 17.119
9346 2 7.25243 148.011 17.1216
9314 2 9.98064 146.433 17.119
3032 1 9.07082 148.013 18.4086
3055 1 0.886415 149.592 18.4102
6527 2 1.79613 151.168 17.1237
384 1 3.61453 151.171 18.4108
3013 1 6.34265 149.592 18.4102
9347 2 4.52426 149.59 17.1232
6516 2 7.25237 151.168 17.1237
9299 2 9.98049 149.59 17.1232
358 1 9.07077 151.171 18.4108
9366 2 2.70732 133.795 19.6336
9354 2 0.888154 133.784 22.2044
3067 1 1.79716 135.37 20.931
9352 2 3.61604 135.365 22.2146
9367 2 5.43508 135.374 19.644
3039 1 4.52558 133.789 20.9207
9318 2 6.34439 133.784 22.2044
3037 1 7.2534 135.37 20.931
9321 2 8.16356 133.795 19.6336
2988 1 9.98181 133.789 20.9207
9319 2 9.07227 135.365 22.2146
12642 2 10.8913 135.374 19.644
9358 2 2.70664 136.954 19.6534
9353 2 0.887705 136.946 22.2238
3059 1 1.79666 138.531 20.9487
9355 2 3.61564 138.528 22.2321
9356 2 5.43448 138.534 19.6619
3038 1 4.52501 136.95 20.9403
9310 2 6.34394 136.946 22.2238
3040 1 7.25289 138.531 20.9487
9320 2 8.16288 136.954 19.6534
2987 1 9.98125 136.95 20.9403
9308 2 9.07188 138.528 22.2321
12643 2 10.8907 138.534 19.6619
9357 2 2.70612 140.114 19.6693
9340 2 0.887357 140.109 22.2395
3060 1 1.79628 141.692 20.9626
9338 2 3.61534 141.691 22.2459
9359 2 5.43403 141.694 19.6759
3027 1 4.52457 140.112 20.9561
9309 2 6.3436 140.109 22.2395
3025 1 7.25251 141.692 20.9626
9313 2 8.16236 140.114 19.6693
2986 1 9.98081 140.112 20.9561
9311 2 9.07158 141.691 22.2459
12638 2 10.8903 141.694 19.6759
9344 2 2.70573 143.274 19.6814
9339 2 0.887103 143.272 22.2513
3052 1 1.79601 144.854 20.9726
9341 2 3.61513 144.854 22.2558
9342 2 5.43371 144.854 19.686
3026 1 4.52425 143.273 20.9681
9295 2 6.34334 143.272 22.2513
3028 1 7.25225 144.854 20.9726
9312 2 8.16197 143.274 19.6814
2979 1 9.98049 143.273 20.9681
9293 2 9.07137 144.854 22.2558
12639 2 10.89 144.854 19.686
9343 2 2.70549 146.434 19.6895
9332 2 0.886938 146.435 22.2594
3053 1 1.79586 148.015 20.9788
9330 2 3.61501 148.017 22.2619
9345 2 5.43353 148.014 19.6921
3012 1 4.52404 146.435 20.9762
9294 2 6.34318 146.435 22.2594
3010 1 7.2521 148.015 20.9788
9298 2 8.16172 146.434 19.6895
2978 1 9.98028 146.435 20.9762
9296 2 9.07125 148.017 22.2619
12637 2 10.8898 148.014 19.6921
9333 2 2.70538 149.594 19.6937
9331 2 0.886865 149.598 22.2635
378 1 1.79582 151.177 20.981
6508 2 3.61498 151.18 22.2641
3011 1 4.52395 149.596 20.9804
9277 2 6.3431 149.598 22.2635
6509 2 5.43349 151.174 19.6943
357 1 7.25206 151.177 20.981
9297 2 8.16161 149.594 19.6937
2963 1 9.98019 149.596 20.9804
6461 2 9.07122 151.18 22.2641
9790 2 10.8897 151.174 19.6943
3035 1 2.70657 133.779 23.4911
9351 2 1.79737 135.356 24.7844
9306 2 4.52561 133.773 24.7744
3036 1 5.43452 135.361 23.5012
9304 2 7.25361 135.356 24.7844
2985 1 8.16281 133.779 23.4911
9252 2 9.98184 133.773 24.7744
6129 1 10.8908 135.361 23.5012
3023 1 2.70624 136.943 23.5103
9336 2 1.79719 138.522 24.8016
9305 2 4.52539 136.939 24.7935
3021 1 5.43423 138.525 23.5185
9307 2 7.25342 138.522 24.8016
2984 1 8.16248 136.943 23.5103
9251 2 9.98163 136.939 24.7935
6130 1 10.8905 138.525 23.5185
3022 1 2.70599 140.107 23.5259
9337 2 1.79704 141.688 24.8152
9291 2 4.52523 140.105 24.8088
3024 1 5.434 141.689 23.5322
9289 2 7.25328 141.688 24.8152
2977 1 8.16223 140.107 23.5259
9250 2 9.98147 140.105 24.8088
6122 1 10.8902 141.689 23.5322
3008 1 2.7058 143.271 23.5376
9328 2 1.79694 144.854 24.825
9290 2 4.52511 143.271 24.8205
3006 1 5.43385 144.854 23.5421
9292 2 7.25318 144.854 24.825
2976 1 8.16204 143.271 23.5376
9243 2 9.98134 143.271 24.8205
6123 1 10.8901 144.854 23.5421
3007 1 2.70568 146.436 23.5456
9329 2 1.79688 148.02 24.831
9274 2 7.25312 148.02 24.831
3009 1 5.43376 148.018 23.5482
9276 2 4.52503 146.437 24.8284
6121 1 10.89 148.018 23.5482
9242 2 9.98126 146.437 24.8284
2962 1 8.16192 146.436 23.5456
2997 1 2.70562 149.601 23.5498
6494 2 1.79687 151.186 24.8332
9275 2 4.52499 149.603 24.8325
6460 2 7.25311 151.186 24.8332
346 1 5.43374 151.183 23.5504
9228 2 9.98123 149.603 24.8325
2961 1 8.16186 149.601 23.5498
3449 1 10.89 151.183 23.5504
3019 1 0.887979 133.768 26.0607
3017 1 3.61605 135.352 26.0706
9302 2 2.70726 133.763 27.3436
3016 1 1.79805 135.343 28.6391
2982 1 6.34422 133.768 26.0607
2970 1 4.52609 133.758 28.6295
9303 2 5.43539 135.347 27.3534
2968 1 7.25429 135.343 28.6391
12598 2 10.8916 135.347 27.3534
2983 1 9.07229 135.352 26.0706
2922 1 9.98233 133.758 28.6295
9249 2 8.1635 133.763 27.3436
3018 1 0.887889 136.935 26.0796
3020 1 3.61597 138.519 26.0876
9287 2 2.70728 136.931 27.3623
3000 1 1.79817 138.513 28.6559
2974 1 6.34413 136.935 26.0796
2969 1 4.52623 136.928 28.648
9285 2 5.43541 138.516 27.3703
2971 1 7.25441 138.513 28.6559
12599 2 10.8916 138.516 27.3703
2972 1 9.07221 138.519 26.0876
2921 1 9.98247 136.928 28.648
9248 2 8.16352 136.931 27.3623
3004 1 0.887819 140.102 26.0948
3002 1 3.61591 141.686 26.1011
9286 2 2.70729 140.1 27.3774
3001 1 1.79826 141.683 28.6691
2973 1 6.34406 140.102 26.0948
2955 1 4.52634 140.098 28.663
9288 2 5.43542 141.685 27.3836
2953 1 7.2545 141.683 28.6691
12590 2 10.8917 141.685 27.3836
2975 1 9.07215 141.686 26.1011
2920 1 9.98258 140.098 28.663
9241 2 8.16353 140.1 27.3774
3003 1 0.887764 143.27 26.1064
3005 1 3.61586 144.854 26.1108
9272 2 2.7073 143.269 27.3889
2992 1 1.79832 144.854 28.6787
2959 1 6.344 143.27 26.1064
2954 1 4.52641 143.268 28.6744
9270 2 5.43542 144.854 27.3933
2956 1 7.25456 144.854 28.6787
12591 2 10.8917 144.854 27.3933
2957 1 9.0721 144.854 26.1108
2913 1 9.98265 143.268 28.6744
9240 2 8.16354 143.269 27.3889
2996 1 0.887726 146.437 26.1143
2994 1 3.61583 148.021 26.1168
9271 2 2.7073 146.438 27.3967
2993 1 1.79835 148.024 28.6847
2958 1 6.34396 146.437 26.1143
2941 1 4.52646 146.439 28.6822
9273 2 5.43542 148.023 27.3992
2939 1 7.25459 148.024 28.6847
12589 2 10.8917 148.023 27.3992
2960 1 9.07207 148.021 26.1168
2912 1 9.98269 146.439 28.6822
9227 2 8.16354 146.438 27.3967
2995 1 0.887708 149.605 26.1184
9261 2 2.7073 149.607 27.4008
345 1 3.61583 151.189 26.119
327 1 1.79835 151.195 28.6869
2942 1 6.34395 149.605 26.1184
2940 1 4.52647 149.61 28.6862
6445 2 5.43542 151.192 27.4014
292 1 7.25459 151.195 28.6869
2901 1 9.98271 149.61 28.6862
9226 2 8.16354 149.607 27.4008
293 1 9.07207 151.189 26.119
9757 2 10.8917 151.192 27.4014
2966 1 2.70849 133.747 31.1973
9283 2 0.889409 133.752 29.9119
9280 2 1.80046 135.329 32.4888
9281 2 3.61766 135.338 29.9215
9234 2 4.52835 133.742 32.4793
9246 2 6.34565 133.752 29.9119
2967 1 5.4368 135.334 31.2068
9232 2 7.2567 135.329 32.4888
6070 1 10.893 135.334 31.2068
2919 1 8.16473 133.747 31.1973
9204 2 9.98459 133.742 32.4793
9247 2 9.07389 135.338 29.9215
2951 1 2.70885 136.92 31.2155
9282 2 0.889649 136.924 29.9303
9264 2 1.80085 138.504 32.5052
9284 2 3.61787 138.51 29.9382
9233 2 4.52879 136.916 32.4974
9238 2 6.34589 136.924 29.9303
2949 1 5.43711 138.507 31.2233
9235 2 7.25709 138.504 32.5052
6071 1 10.8933 138.507 31.2233
2918 1 8.16508 136.92 31.2155
9203 2 9.98502 136.916 32.4974
9236 2 9.07411 138.51 29.9382
2950 1 2.70912 140.094 31.2303
9268 2 0.889833 140.096 29.9452
9265 2 1.80113 141.679 32.5181
9266 2 3.61802 141.682 29.9513
9220 2 4.52912 140.091 32.5121
9237 2 6.34607 140.096 29.9452
2952 1 5.43734 141.68 31.2364
9218 2 7.25737 141.679 32.5181
6062 1 10.8936 141.68 31.2364
2911 1 8.16536 140.094 31.2303
9202 2 9.98536 140.091 32.5121
9239 2 9.07426 141.682 29.9513
2937 1 2.70931 143.267 31.2416
9267 2 0.889962 143.268 29.9565
9256 2 1.80132 144.854 32.5275
9269 2 3.61813 144.854 29.9608
9219 2 4.52936 143.266 32.5233
9224 2 6.3462 143.268 29.9565
2935 1 5.43749 144.854 31.2459
9221 2 7.25756 144.854 32.5275
6063 1 10.8937 144.854 31.2459
2910 1 8.16555 143.267 31.2416
9199 2 9.9856 143.266 32.5233
9222 2 9.07436 144.854 29.9608
2936 1 2.70942 146.441 31.2492
9260 2 0.89004 146.44 29.9642
9257 2 1.80143 148.029 32.5334
9258 2 3.61818 148.026 29.9667
9212 2 4.52951 146.441 32.5309
9223 2 6.34628 146.44 29.9642
2938 1 5.43757 148.028 31.2517
9210 2 7.25767 148.029 32.5334
6061 1 10.8938 148.028 31.2517
2900 1 8.16566 146.441 31.2492
9198 2 9.98574 146.441 32.5309
9225 2 9.07442 148.026 29.9667
2928 1 2.70947 149.614 31.2533
9259 2 0.890073 149.612 29.9683
6423 2 1.80145 151.204 32.5355
6444 2 3.61819 151.198 29.9689
9211 2 4.52957 149.617 32.5349
9213 2 6.34631 149.612 29.9683
6388 2 7.25769 151.204 32.5355
277 1 5.43759 151.201 31.2539
2899 1 8.16571 149.614 31.2533
9195 2 9.98581 149.617 32.5349
3398 1 10.8938 151.201 31.2539
6389 2 9.07443 151.198 29.9689
2947 1 0.891467 133.737 33.7641
9230 2 2.71165 133.731 35.0456
2945 1 3.61987 135.325 33.7735
2916 1 6.34771 133.737 33.7641
9231 2 5.44009 135.32 35.055
12526 2 10.8963 135.32 35.055
9201 2 8.16789 133.731 35.0456
2917 1 9.07611 135.325 33.7735
2948 1 3.62035 138.501 33.7899
2946 1 0.89201 136.913 33.7821
9216 2 2.71225 136.909 35.0635
9214 2 5.44062 138.498 35.0712
2908 1 6.34825 136.913 33.7821
12527 2 10.8969 138.498 35.0712
2906 1 9.07659 138.501 33.7899
9200 2 8.16849 136.909 35.0635
2931 1 3.6207 141.677 33.8027
2933 1 0.892423 140.089 33.7967
9215 2 2.71272 140.087 35.0781
9217 2 5.44102 141.676 35.084
2907 1 6.34866 140.089 33.7967
12518 2 10.8973 141.676 35.084
2909 1 9.07694 141.677 33.8027
9197 2 8.16896 140.087 35.0781
2934 1 3.62094 144.854 33.8121
9208 2 2.71305 143.265 35.0892
2932 1 0.892715 143.266 33.8079
9206 2 5.44128 144.854 35.0934
2897 1 6.34895 143.266 33.8079
12519 2 10.8975 144.854 35.0934
2895 1 9.07718 144.854 33.8121
9196 2 8.16929 143.265 35.0892
2927 1 0.892894 146.442 33.8155
9207 2 2.71325 146.443 35.0967
2925 1 3.62106 148.031 33.8179
2896 1 6.34913 146.442 33.8155
9209 2 5.44143 148.032 35.0992
12517 2 10.8977 148.032 35.0992
9194 2 8.16949 146.443 35.0967
2898 1 9.0773 148.031 33.8179
2926 1 0.892969 149.619 33.8195
9205 2 2.71334 149.621 35.1007
276 1 3.62109 151.207 33.8201
2890 1 6.34921 149.619 33.8195
9193 2 8.16958 149.621 35.1007
227 1 9.07733 151.207 33.8201
9406 2 0.895582 133.721 37.6109
14991 1 2.71555 133.715 38.8948
2944 1 1.80355 135.316 36.3393
9404 2 3.62409 135.311 37.6202
9395 2 6.35182 133.721 37.6109
15345 1 5.4441 135.306 38.904
2904 1 4.5313 133.726 36.33
2902 1 7.25979 135.316 36.3393
2886 1 9.98754 133.726 36.33
14961 1 8.17179 133.715 38.8948
9396 2 9.08033 135.311 37.6202
18172 1 10.9003 135.306 38.904
9405 2 0.896323 136.901 37.6287
15346 1 2.71636 136.898 38.9125
2929 1 1.80416 138.495 36.3555
9407 2 3.62475 138.492 37.6364
9392 2 6.35256 136.901 37.6287
15347 1 5.44482 138.489 38.9201
2903 1 4.532 136.905 36.3478
2905 1 7.2604 138.495 36.3555
15317 1 8.1726 136.898 38.9125
2885 1 9.98824 136.905 36.3478
9390 2 9.08098 138.492 37.6364
18170 1 10.9011 138.489 38.9201
9402 2 0.896889 140.082 37.6431
15342 1 2.71698 140.08 38.9269
2930 1 1.80462 141.674 36.3682
9400 2 3.62523 141.673 37.6491
9391 2 6.35313 140.082 37.6431
15340 1 5.44534 141.672 38.9328
2893 1 4.53253 140.085 36.3623
2891 1 7.26085 141.674 36.3682
15316 1 8.17322 140.08 38.9269
2884 1 9.98877 140.085 36.3623
9393 2 9.08147 141.673 37.6491
18171 1 10.9016 141.672 38.9328
9401 2 0.897293 143.264 37.6542
15341 1 2.71742 143.263 38.9379
2923 1 1.80492 144.854 36.3775
9403 2 3.62556 144.854 37.6584
9388 2 6.35353 143.264 37.6542
15343 1 5.4457 144.854 38.9421
2892 1 4.5329 143.264 36.3733
2894 1 7.26116 144.854 36.3775
15311 1 8.17366 143.263 38.9379
2883 1 9.98914 143.264 36.3733
9386 2 9.08179 144.854 37.6584
18168 1 10.9019 144.854 38.9421
9399 2 0.897544 146.445 37.6617
15332 1 2.7177 146.446 38.9454
2924 1 1.80508 148.034 36.3833
9397 2 3.62573 148.035 37.6641
9387 2 6.35378 146.445 37.6617
15330 1 5.44589 148.037 38.9478
2889 1 4.53314 146.444 36.3809
2887 1 7.26132 148.034 36.3833
15310 1 8.17393 146.446 38.9454
2882 1 9.98937 146.444 36.3809
9389 2 9.08197 148.035 37.6641
18169 1 10.9021 148.037 38.9478
9398 2 0.897649 149.626 37.6656
15331 1 2.71781 149.629 38.9493
9385 2 6.35389 149.626 37.6656
2888 1 4.53323 149.624 36.3849
15297 1 8.17405 149.629 38.9493
2881 1 9.98947 149.624 36.3849
20971 2 1.80874 135.302 40.1845
14989 1 0.900479 133.704 41.4585
15344 1 3.62907 135.297 41.4677
14941 1 6.35672 133.704 41.4585
20603 2 4.53642 133.71 40.1752
20962 2 7.26498 135.302 40.1845
15313 1 9.08531 135.297 41.4677
20555 2 9.99266 133.71 40.1752
20972 2 1.80948 138.486 40.2005
15338 1 0.901365 136.89 41.4762
15336 1 3.62985 138.483 41.4838
20960 2 4.53726 136.894 40.1929
15314 1 6.3576 136.89 41.4762
20958 2 7.26572 138.486 40.2005
15315 1 9.08609 138.483 41.4838
20922 2 9.99349 136.894 40.1929
20968 2 1.81003 141.67 40.2132
15337 1 0.902044 140.076 41.4905
15339 1 3.63043 141.669 41.4965
20959 2 4.5379 140.078 40.2073
15308 1 6.35828 140.076 41.4905
20961 2 7.26627 141.67 40.2132
15306 1 9.08667 141.669 41.4965
20921 2 9.99413 140.078 40.2073
20969 2 1.8104 144.854 40.2224
15328 1 0.902529 143.261 41.5015
15326 1 3.63082 144.854 41.5057
15307 1 6.35877 143.261 41.5015
20952 2 4.53835 143.262 40.2183
20950 2 7.26664 144.854 40.2224
15309 1 9.08706 144.854 41.5057
20920 2 9.99459 143.262 40.2183
20965 2 1.8106 148.039 40.2282
15327 1 0.90283 146.447 41.509
15329 1 3.63103 148.04 41.5114
15296 1 6.35907 146.447 41.509
20951 2 4.53864 146.446 40.2257
20953 2 7.26684 148.039 40.2282
15294 1 9.08727 148.04 41.5114
20913 2 9.99488 146.446 40.2257
15321 1 0.902956 149.633 41.5129
15295 1 6.35919 149.633 41.5129
20938 2 4.53876 149.631 40.2297
20912 2 9.995 149.631 40.2297
20589 2 2.7217 133.699 42.7383
15334 1 1.8147 135.288 44.0304
20587 2 0.907658 133.688 45.3004
20954 2 3.63626 135.283 45.3097
20955 2 5.45029 135.292 42.7476
14939 1 4.54233 133.693 44.0211
20534 2 6.3639 133.688 45.3004
15312 1 7.27094 135.288 44.0304
20553 2 8.17794 133.699 42.7383
20915 2 9.0925 135.283 45.3097
14891 1 9.99857 133.693 44.0211
23790 2 10.9065 135.292 42.7476
20956 2 2.72259 136.886 42.7561
15335 1 1.81551 138.477 44.0465
20944 2 0.908575 136.878 45.3182
20942 2 3.63707 138.473 45.3259
20957 2 5.45108 138.48 42.7637
15304 1 4.54325 136.882 44.0388
20916 2 6.36481 136.878 45.3182
15302 1 7.27175 138.477 44.0465
23786 2 10.9073 138.48 42.7637
20919 2 8.17883 136.886 42.7561
15262 1 9.99949 136.882 44.0388
20917 2 9.09331 138.473 45.3259
20948 2 2.72328 140.073 42.7705
15324 1 1.81612 141.665 44.0592
20943 2 0.909284 140.069 45.3327
20946 2 5.45167 141.667 42.7764
15303 1 4.54396 140.071 44.0532
20908 2 6.36552 140.069 45.3327
20945 2 3.63768 141.664 45.3386
15305 1 7.27236 141.665 44.0592
23787 2 10.9079 141.667 42.7764
20918 2 8.17952 140.073 42.7705
15261 1 10.0002 140.071 44.0532
20906 2 9.09392 141.664 45.3386
20947 2 2.72377 143.261 42.7814
15325 1 1.81654 144.854 44.0684
20933 2 0.909796 143.259 45.3436
20949 2 5.45207 144.854 42.7856
15292 1 4.54447 143.26 44.0642
20907 2 6.36603 143.259 45.3436
20931 2 3.6381 144.854 45.3478
15290 1 7.27278 144.854 44.0684
23783 2 10.9083 144.854 42.7856
20911 2 8.18001 143.261 42.7814
15260 1 10.0007 143.26 44.0642
20909 2 9.09434 144.854 45.3478
20937 2 2.72408 146.448 42.7889
15320 1 1.81676 148.043 44.0741
20932 2 0.910117 146.45 45.3511
20935 2 5.45229 148.042 42.7913
15291 1 4.54479 146.449 44.0717
20896 2 6.36636 146.45 45.3511
20934 2 3.63833 148.045 45.3535
15293 1 7.273 148.043 44.0741
23784 2 10.9085 148.042 42.7913
20910 2 8.18032 146.448 42.7889
15253 1 10.001 146.449 44.0717
20894 2 9.09457 148.045 45.3535
20936 2 2.72421 149.636 42.7928
20926 2 0.910253 149.64 45.355
15278 1 4.54493 149.638 44.0756
20895 2 6.36649 149.64 45.355
20897 2 8.18045 149.636 42.7928
15252 1 10.0012 149.638 44.0756
15333 1 0.000993367 135.278 46.592
20940 2 1.8229 135.273 47.8708
14923 1 0.915588 133.671 49.1431
14925 1 2.72862 133.682 46.5826
15298 1 3.64419 135.269 49.1526
15299 1 5.45723 135.278 46.592
14872 1 6.37183 133.671 49.1431
20532 2 4.55054 133.676 47.8614
15255 1 9.10042 135.269 49.1526
20914 2 7.27913 135.273 47.8708
14889 1 8.18486 133.682 46.5826
20493 2 10.0068 133.676 47.8614
15284 1 0.916496 136.866 49.1612
15300 1 2.72955 136.874 46.6005
15322 1 0.0018177 138.47 46.6082
20941 2 1.82371 138.467 47.8871
15256 1 6.37273 136.866 49.1612
15282 1 3.645 138.464 49.1689
15301 1 5.45806 138.47 46.6082
20904 2 4.55145 136.87 47.8794
15257 1 9.10123 138.464 49.1689
15259 1 8.18579 136.874 46.6005
20867 2 10.0077 136.87 47.8794
20902 2 7.27994 138.467 47.8871
15283 1 0.917207 140.061 49.1757
15288 1 2.73027 140.066 46.615
15323 1 0.00243724 141.662 46.6209
20929 2 1.82432 141.661 47.8998
15248 1 6.37345 140.061 49.1757
15285 1 3.64561 141.659 49.1817
15286 1 5.45868 141.662 46.6209
20903 2 4.55216 140.064 47.8939
15246 1 9.10185 141.659 49.1817
15258 1 8.18651 140.066 46.615
20866 2 10.0084 140.064 47.8939
20905 2 7.28056 141.661 47.8998
15273 1 0.917723 143.257 49.1868
15287 1 2.73079 143.258 46.626
15318 1 0.0028595 144.854 46.6302
20930 2 1.82474 144.854 47.9091
15247 1 6.37396 143.257 49.1868
15271 1 3.64603 144.854 49.191
15289 1 5.4591 144.854 46.6302
20892 2 4.55267 143.257 47.9049
15249 1 9.10227 144.854 49.191
15251 1 8.18703 143.258 46.626
20865 2 10.0089 143.257 47.9049
20890 2 7.28098 144.854 47.9091
15272 1 0.91805 146.452 49.1943
15277 1 2.73112 146.45 46.6335
15319 1 0.00309096 148.047 46.6359
20925 2 1.82497 148.048 47.9148
15236 1 6.37429 146.452 49.1943
15274 1 3.64626 148.05 49.1967
15275 1 5.45933 148.047 46.6359
20891 2 4.553 146.451 47.9124
15234 1 9.1025 148.05 49.1967
15250 1 8.18736 146.45 46.6335
20858 2 10.0092 146.451 47.9124
20893 2 7.28121 148.048 47.9148
15266 1 0.91819 149.647 49.1982
15276 1 2.73126 149.643 46.6374
15235 1 6.37443 149.647 49.1982
20879 2 4.55314 149.645 47.9163
15237 1 8.18749 149.643 46.6374
20857 2 10.0094 149.645 47.9163
15280 1 1.83178 135.259 51.7121
20939 2 0.0101816 135.263 50.4309
20520 2 2.73784 133.665 50.4213
20899 2 5.46642 135.263 50.4309
14870 1 4.55945 133.659 51.7025
15254 1 7.28802 135.259 51.7121
14840 1 10.0157 133.659 51.7025
20491 2 8.19407 133.665 50.4213
15281 1 1.83256 138.457 51.7286
20900 2 2.73872 136.862 50.4395
20927 2 0.0109694 138.46 50.4473
15244 1 4.56032 136.858 51.7208
20901 2 5.46721 138.46 50.4473
15212 1 10.0166 136.858 51.7208
15242 1 7.2888 138.457 51.7286
20864 2 8.19496 136.862 50.4395
15269 1 1.83316 141.656 51.7415
20888 2 2.73941 140.059 50.4541
20928 2 0.0115705 141.657 50.4601
15243 1 4.561 140.056 51.7355
20886 2 5.46781 141.657 50.4601
15211 1 10.0172 140.056 51.7355
15245 1 7.2894 141.656 51.7415
20863 2 8.19565 140.059 50.4541
15270 1 1.83357 144.854 51.7508
20887 2 2.73992 143.256 50.4652
20923 2 0.0119861 144.854 50.4694
15232 1 4.56151 143.255 51.7466
20889 2 5.46822 144.854 50.4694
15210 1 10.0177 143.255 51.7466
15230 1 7.28981 144.854 51.7508
20856 2 8.19616 143.256 50.4652
15265 1 1.8338 148.053 51.7565
20878 2 2.74024 146.453 50.4727
20924 2 0.0122182 148.051 50.4751
15231 1 4.56183 146.453 51.7541
20876 2 5.46846 148.051 50.4751
15204 1 10.0181 146.453 51.7541
15233 1 7.29004 148.053 51.7565
20855 2 8.19648 146.453 50.4727
20877 2 2.74039 149.65 50.4767
15221 1 4.56197 149.652 51.7581
15203 1 10.0182 149.652 51.7581
20846 2 8.19662 149.65 50.4767
15279 1 0.0200086 135.249 54.2706
20880 2 1.84287 135.243 55.5479
14860 1 2.7477 133.648 54.2609
20518 2 0.92578 133.653 52.9802
15239 1 5.47625 135.249 54.2706
20898 2 3.65434 135.253 52.9899
20480 2 4.57058 133.642 55.5381
20482 2 6.38202 133.653 52.9802
20859 2 7.29911 135.243 55.5479
20860 2 9.11058 135.253 52.9899
14838 1 8.20394 133.648 54.2609
20473 2 10.0268 133.642 55.5381
15240 1 2.74852 136.849 54.2794
15267 1 0.0207481 138.45 54.2873
20881 2 1.84359 138.447 55.5647
20884 2 0.926619 136.854 52.9986
15241 1 5.47699 138.45 54.2873
20849 2 4.57137 136.845 55.5568
20861 2 6.38286 136.854 52.9986
20882 2 3.65509 138.454 53.0065
15209 1 8.20476 136.849 54.2794
20837 2 10.0276 136.845 55.5568
20847 2 7.29983 138.447 55.5647
20862 2 9.11133 138.454 53.0065
15228 1 2.74918 140.051 54.2943
15268 1 0.0213216 141.652 54.3003
20870 2 1.84415 141.65 55.5778
20883 2 0.927288 140.054 53.0134
15226 1 5.47756 141.652 54.3003
20848 2 4.57201 140.048 55.5717
20853 2 6.38353 140.054 53.0134
20885 2 3.65568 141.654 53.0194
15208 1 8.20541 140.051 54.2943
20836 2 10.0283 140.048 55.5717
20850 2 7.30039 141.65 55.5778
20851 2 9.11192 141.654 53.0194
15227 1 2.74966 143.253 54.3055
15263 1 0.0217241 144.854 54.3097
20871 2 1.84455 144.853 55.5872
20874 2 0.927783 143.254 53.0246
15229 1 5.47796 144.854 54.3097
20841 2 4.57249 143.252 55.5829
20852 2 6.38402 143.254 53.0246
20872 2 3.65608 144.854 53.0288
15202 1 8.2059 143.253 54.3055
20835 2 10.0287 143.252 55.5829
20839 2 7.30079 144.853 55.5872
20854 2 9.11232 144.854 53.0288
15220 1 2.74998 146.455 54.313
15264 1 0.0219525 148.056 54.3154
20868 2 1.84478 148.057 55.5929
20873 2 0.928102 146.454 53.0321
15218 1 5.47819 148.056 54.3154
20840 2 4.5728 146.455 55.5905
20845 2 6.38434 146.454 53.0321
20875 2 3.65631 148.054 53.0345
20843 2 9.11255 148.054 53.0345
20842 2 7.30102 148.057 55.5929
20834 2 10.029 146.455 55.5905
15201 1 8.20622 146.455 54.313
20869 2 0.928243 149.654 53.036
15219 1 2.75012 149.657 54.3169
20844 2 6.38448 149.654 53.036
20838 2 4.57295 149.659 55.5944
20833 2 10.0292 149.659 55.5944
15196 1 8.20636 149.657 54.3169
21132 2 0.0320004 135.233 58.1049
14858 1 0.936552 133.636 56.8183
20799 2 2.75973 133.63 58.095
21125 2 5.48824 135.233 58.1049
15238 1 3.66507 135.238 56.8282
14833 1 6.39279 133.636 56.8183
15205 1 9.12131 135.238 56.8282
20769 2 8.21597 133.63 58.095
21126 2 2.76048 136.836 58.1139
21130 2 0.0326858 138.44 58.1219
15224 1 0.937324 136.841 56.8371
21127 2 5.48892 138.44 58.1219
15206 1 6.39356 136.841 56.8371
15222 1 3.66578 138.443 56.8451
21097 2 8.21672 136.836 58.1139
15207 1 9.12201 138.443 56.8451
21122 2 2.7611 140.043 58.129
21131 2 0.0332287 141.646 58.1351
15223 1 0.937952 140.046 56.8521
21120 2 5.48947 141.646 58.1351
15199 1 6.39419 140.046 56.8521
15225 1 3.66633 141.648 56.8582
21096 2 8.21733 140.043 58.129
15197 1 9.12257 141.648 56.8582
21121 2 2.76156 143.25 58.1403
21128 2 0.0336177 144.853 58.1446
15216 1 0.938425 143.251 56.8634
21123 2 5.48986 144.853 58.1446
15198 1 6.39466 143.251 56.8634
15214 1 3.66672 144.853 56.8676
21091 2 8.2178 143.25 58.1403
15200 1 9.12296 144.853 56.8676
21112 2 2.76187 146.456 58.1479
15215 1 0.938735 146.456 56.871
15195 1 6.39497 146.456 56.871
21090 2 8.21811 146.456 58.1479
21129 2 0.0338448 148.06 58.1503
21111 2 2.76202 149.663 58.1518
15213 1 0.938877 149.661 56.8749
21110 2 5.49008 148.06 58.1503
15217 1 3.66695 148.058 56.8734
15194 1 6.39512 149.661 56.8749
15193 1 9.12318 148.058 56.8734
21077 2 8.21825 149.663 58.1518
15491 1 1.85448 135.228 59.3848
15490 1 0.0444331 135.217 61.9406
15141 1 2.77218 133.612 61.9305
20797 2 0.949441 133.617 60.651
15155 1 4.58222 133.624 59.3749
15475 1 5.50067 135.217 61.9406
21124 2 3.67793 135.223 60.661
20749 2 6.40568 133.617 60.651
15482 1 7.31072 135.228 59.3848
15107 1 10.0385 133.624 59.3749
21093 2 9.13417 135.223 60.661
15105 1 8.22842 133.612 61.9305
15492 1 1.85515 138.436 59.4019
15476 1 2.77289 136.823 61.9498
15486 1 0.0450891 138.429 61.9579
21118 2 0.950163 136.828 60.6701
15480 1 4.58295 136.832 59.3939
15477 1 5.50133 138.429 61.9579
21094 2 6.4064 136.828 60.6701
21116 2 3.6786 138.432 60.6782
15442 1 10.0392 136.832 59.3939
15478 1 7.31139 138.436 59.4019
15439 1 8.22913 136.823 61.9498
21095 2 9.13484 138.432 60.6782
15488 1 1.85569 141.645 59.4152
15468 1 2.77349 140.035 61.965
15487 1 0.0456195 141.641 61.9712
21117 2 0.950763 140.037 60.6853
15479 1 4.58356 140.04 59.409
15466 1 5.50186 141.641 61.9712
21088 2 6.407 140.037 60.6853
21119 2 3.67913 141.642 60.6915
15441 1 10.0398 140.04 59.409
15481 1 7.31193 141.645 59.4152
15438 1 8.22973 140.035 61.965
21086 2 9.13537 141.642 60.6915
15489 1 1.85607 144.853 59.4246
15467 1 2.77395 143.247 61.9765
15483 1 0.0460064 144.852 61.9808
21108 2 0.951224 143.247 60.6967
15472 1 4.58402 143.249 59.4204
15469 1 5.50224 144.852 61.9808
21087 2 6.40746 143.247 60.6967
21106 2 3.67952 144.852 60.701
15440 1 10.0403 143.249 59.4204
15470 1 7.31231 144.853 59.4246
15431 1 8.23019 143.247 61.9765
21089 2 9.13576 144.852 60.701
15457 1 2.77426 146.458 61.9841
21107 2 0.951533 146.457 60.7043
15471 1 4.58433 146.457 59.428
21076 2 6.40777 146.457 60.7043
15433 1 10.0406 146.457 59.428
15430 1 8.2305 146.458 61.9841
15485 1 1.8563 148.061 59.4304
15484 1 0.0462375 148.064 61.9865
15456 1 2.77441 149.67 61.988
21101 2 0.951681 149.667 60.7082
15455 1 5.50248 148.064 61.9865
21109 2 3.67975 148.062 60.7068
15458 1 4.58447 149.665 59.4319
21075 2 6.40792 149.667 60.7082
15473 1 7.31254 148.061 59.4304
21074 2 9.13598 148.062 60.7068
15432 1 10.0407 149.665 59.4319
15417 1 8.23065 149.67 61.988
21113 2 0.0589176 135.201 65.7699
21114 2 1.86818 135.212 63.2161
15139 1 0.962629 133.6 64.4857
20733 2 2.78666 133.593 65.7596
15474 1 3.69112 135.207 64.4959
21079 2 5.51516 135.201 65.7699
15086 1 6.41887 133.6 64.4857
20747 2 4.59593 133.605 63.2059
15435 1 9.14735 135.207 64.4959
21092 2 7.32441 135.212 63.2161
20697 2 8.2429 133.593 65.7596
20699 2 10.0522 133.605 63.2059
15464 1 0.96334 136.815 64.5051
21080 2 2.78739 136.81 65.7791
21102 2 0.0595888 138.418 65.7873
21115 2 1.86883 138.425 63.2334
15436 1 6.41958 136.815 64.5051
15462 1 3.69178 138.422 64.5133
21081 2 5.51583 138.418 65.7873
21084 2 4.59664 136.819 63.2252
15437 1 9.14801 138.422 64.5133
21039 2 8.24362 136.81 65.7791
21042 2 10.0529 136.819 63.2252
21082 2 7.32507 138.425 63.2334
15463 1 0.963942 140.029 64.5205
21068 2 2.788 140.026 65.7946
21103 2 0.0601356 141.634 65.8008
21104 2 1.86937 141.639 63.2468
15428 1 6.42018 140.029 64.5205
15465 1 3.69231 141.637 64.5268
21066 2 5.51637 141.634 65.8008
21083 2 4.59724 140.032 63.2406
15426 1 9.14855 141.637 64.5268
21038 2 8.24424 140.026 65.7946
21041 2 10.0535 140.032 63.2406
21085 2 7.3256 141.639 63.2468
15453 1 0.96441 143.244 64.532
21067 2 2.78848 143.243 65.8061
21098 2 0.0605384 144.851 65.8104
21105 2 1.86976 144.852 63.2564
15427 1 6.42065 143.244 64.532
15451 1 3.69271 144.852 64.5363
21069 2 5.51678 144.851 65.8104
21072 2 4.5977 143.245 63.2521
15429 1 9.14895 144.852 64.5363
21031 2 8.24471 143.243 65.8061
21040 2 10.0539 143.245 63.2521
21070 2 7.32599 144.852 63.2564
15452 1 0.964729 146.459 64.5397
21057 2 2.7888 146.459 65.8138
15416 1 6.42097 146.459 64.5397
21071 2 4.59801 146.458 63.2597
21030 2 8.24504 146.459 65.8138
21033 2 10.0543 146.458 63.2597
21099 2 0.0607838 148.068 65.8162
21100 2 1.86999 148.065 63.2621
15446 1 0.964888 149.674 64.5435
21056 2 2.78896 149.676 65.8176
15454 1 3.69295 148.067 64.5421
21055 2 5.51702 148.068 65.8162
15415 1 6.42113 149.674 64.5435
21058 2 4.59817 149.672 63.2636
15414 1 9.14919 148.067 64.5421
21073 2 7.32623 148.065 63.2621
21017 2 8.2452 149.676 65.8176
21032 2 10.0544 149.672 63.2636
15460 1 1.88189 135.197 67.0516
20731 2 0.977771 133.58 68.3112
21078 2 3.70628 135.19 68.3216
15084 1 4.60963 133.588 67.0413
20680 2 6.43401 133.58 68.3112
15434 1 7.33812 135.197 67.0516
21035 2 9.16252 135.19 68.3216
15045 1 10.0659 133.588 67.0413
15461 1 1.88257 138.416 67.0692
21064 2 0.978533 136.8 68.3309
15424 1 4.61036 136.807 67.0609
21036 2 6.43477 136.8 68.3309
21062 2 3.70699 138.41 68.3392
15387 1 10.0666 136.807 67.0609
15422 1 7.33881 138.416 67.0692
21037 2 9.16323 138.41 68.3392
15449 1 1.88313 141.634 67.0827
21063 2 0.979175 140.02 68.3465
15423 1 4.61098 140.025 67.0764
21028 2 6.43541 140.02 68.3465
21065 2 3.70756 141.63 68.3528
15386 1 10.0672 140.025 67.0764
15425 1 7.33937 141.634 67.0827
21026 2 9.1638 141.63 68.3528
15450 1 1.88354 144.852 67.0923
21053 2 0.979675 143.24 68.3581
15412 1 4.61147 143.243 67.088
21027 2 6.43591 143.24 68.3581
21051 2 3.70799 144.85 68.3624
15385 1 10.0677 143.243 67.088
15410 1 7.33978 144.852 67.0923
21029 2 9.16422 144.85 68.3624
21052 2 0.980017 146.46 68.3658
15411 1 4.61181 146.461 67.0956
21016 2 6.43626 146.46 68.3658
15378 1 10.068 146.461 67.0956
15445 1 1.88379 148.07 67.098
21046 2 0.98019 149.68 68.3696
21054 2 3.70824 148.07 68.3682
15399 1 4.61198 149.68 67.0995
21015 2 6.43643 149.68 68.3696
15413 1 7.34003 148.07 67.098
21014 2 9.16448 148.07 68.3682
15377 1 10.0682 149.68 67.0995
15459 1 0.0721948 135.186 69.6109
21060 2 1.89744 135.178 70.8682
15070 1 0.985444 133.562 72.1763
15072 1 2.79989 133.575 69.6005
15418 1 3.71405 135.175 72.1867
15419 1 5.52843 135.186 69.6109
15034 1 6.44168 133.562 72.1763
20678 2 4.62512 133.566 70.8577
15380 1 9.17029 135.175 72.1867
21034 2 7.35368 135.178 70.8682
15043 1 8.25613 133.575 69.6005
20648 2 10.0814 133.566 70.8577
15404 1 0.986387 136.788 72.1961
15420 1 2.80071 136.797 69.6202
15447 1 0.0729456 138.408 69.6286
21061 2 1.89821 138.401 70.8859
15381 1 6.44263 136.788 72.1961
15402 1 3.71492 138.4 72.2045
15421 1 5.52918 138.408 69.6286
21024 2 4.62596 136.79 70.8775
15382 1 9.17116 138.4 72.2045
15384 1 8.25694 136.797 69.6202
20992 2 10.0822 136.79 70.8775
21022 2 7.35445 138.401 70.8859
15403 1 0.987168 140.013 72.2119
15408 1 2.80139 140.019 69.6359
15448 1 0.0735538 141.63 69.6422
21049 2 1.89883 141.624 70.8996
15373 1 6.44341 140.013 72.2119
15405 1 3.71561 141.625 72.2182
15406 1 5.52979 141.63 69.6422
21023 2 4.62666 140.013 70.8932
15371 1 9.17185 141.625 72.2182
15383 1 8.25763 140.019 69.6359
20991 2 10.0829 140.013 70.8932
21025 2 7.35507 141.624 70.8996
15394 1 0.987767 143.238 72.2236
15407 1 2.80192 143.24 69.6475
15443 1 0.0740003 144.851 69.6519
21050 2 1.89928 144.847 70.9093
15372 1 6.44401 143.238 72.2236
15392 1 3.71611 144.85 72.2279
15409 1 5.53024 144.851 69.6519
21012 2 4.6272 143.236 70.9049
15374 1 9.17235 144.85 72.2279
15376 1 8.25816 143.24 69.6475
20990 2 10.0834 143.236 70.9049
21010 2 7.35552 144.847 70.9093
15393 1 0.988171 146.463 72.2313
15398 1 2.80228 146.462 69.6552
15365 1 6.44441 146.463 72.2313
21011 2 4.62756 146.459 70.9126
15375 1 8.25852 146.462 69.6552
20984 2 10.0838 146.459 70.9126
15444 1 0.0742729 148.073 69.6576
21045 2 1.89956 148.07 70.9151
15389 1 0.988375 149.687 72.2352
15397 1 2.80246 149.684 69.6591
15396 1 5.53051 148.073 69.6576
15395 1 3.71642 148.075 72.2338
15364 1 6.44461 149.687 72.2352
21001 2 4.62775 149.682 70.9165
21013 2 7.3558 148.07 70.9151
15363 1 9.17266 148.075 72.2338
15366 1 8.2587 149.684 69.6591
20983 2 10.084 149.682 70.9165
15400 1 1.84076 135.168 74.8379
21059 2 0.086902 135.165 73.4001
20666 2 0.976618 133.542 75.864
20668 2 2.81453 133.552 73.3896
21018 2 3.70534 135.157 75.8745
21019 2 5.54314 135.165 73.4001
15032 1 4.56824 133.554 74.8274
20641 2 6.43286 133.542 75.864
15379 1 7.297 135.168 74.8379
20985 2 9.16158 135.157 75.8745
15025 1 10.0245 133.554 74.8274
20646 2 8.27077 133.552 73.3896
15401 1 1.84188 138.398 74.8558
21004 2 0.977769 136.772 75.8839
21020 2 2.81547 136.778 73.4095
21047 2 0.0877641 138.392 73.4179
15369 1 4.56947 136.783 74.8474
20986 2 6.43401 136.772 75.8839
21002 2 3.70639 138.387 75.8924
21021 2 5.544 138.392 73.4179
15357 1 10.0257 136.783 74.8474
15367 1 7.29812 138.398 74.8558
20987 2 9.16262 138.387 75.8924
20989 2 8.27171 136.778 73.4095
15390 1 1.84278 141.627 74.8695
21003 2 0.978709 140.002 75.8998
21008 2 2.81625 140.005 73.4253
21048 2 0.0884495 141.618 73.4317
15368 1 4.57048 140.012 74.8631
20979 2 6.43495 140.002 75.8998
21005 2 3.70721 141.617 75.9062
21006 2 5.54469 141.618 73.4317
15356 1 10.0267 140.012 74.8631
15370 1 7.29902 141.627 74.8695
20977 2 9.16345 141.617 75.9062
20988 2 8.27249 140.005 73.4253
15391 1 1.84343 144.856 74.8793
20996 2 0.979421 143.232 75.9116
21007 2 2.81684 143.231 73.437
21043 2 0.0889456 144.844 73.4414
15361 1 4.57126 143.241 74.8749
20978 2 6.43566 143.232 75.9116
20994 2 3.70781 144.847 75.916
21009 2 5.54518 144.844 73.4414
15355 1 10.0275 143.241 74.8749
15359 1 7.29967 144.856 74.8793
20980 2 9.16405 144.847 75.916
20982 2 8.27308 143.231 73.437
20995 2 0.979898 146.462 75.9194
21000 2 2.81724 146.457 73.4448
15360 1 4.57178 146.471 74.8827
20975 2 6.43614 146.462 75.9194
15354 1 10.028 146.471 74.8827
20981 2 8.27348 146.457 73.4448
21044 2 0.0892454 148.07 73.4473
15388 1 1.84382 148.085 74.8851
20993 2 0.980136 149.691 75.9233
20999 2 2.81744 149.683 73.4487
20998 2 5.54548 148.07 73.4473
20997 2 3.70817 148.076 75.9219
15358 1 4.57204 149.7 74.8866
20974 2 6.43637 149.691 75.9233
20973 2 9.1644 148.076 75.9219
15362 1 7.30006 148.085 74.8851
15353 1 10.0283 149.7 74.8866
20976 2 8.27368 149.683 73.4487
9585 2 11.8092 1.49491 -0.859994
9593 2 13.6201 1.49031 -3.36767
3264 1 12.6961 3.05565 -2.30538
9583 2 14.5374 3.06211 -0.86157
3250 1 15.4241 1.48916 -2.30381
9555 2 17.2654 1.49491 -0.859994
9594 2 16.3484 3.05595 -3.36924
3248 1 18.1524 3.05565 -2.30538
3204 1 20.8804 1.48916 -2.30381
9558 2 19.0764 1.49031 -3.36767
9556 2 19.9936 3.06211 -0.86157
6334 2 21.8046 3.05595 -3.36924
9584 2 11.8095 4.62929 -0.864196
9589 2 13.6204 4.62158 -3.37185
3260 1 12.6966 6.18862 -2.31165
9586 2 14.5378 6.19648 -0.867873
3249 1 15.4244 4.62214 -2.30799
9549 2 17.2657 4.62929 -0.864196
9587 2 16.3488 6.18721 -3.37551
3251 1 18.1528 6.18862 -2.31165
3203 1 20.8807 4.62214 -2.30799
9557 2 19.0767 4.62158 -3.37185
9547 2 19.994 6.19648 -0.867873
6335 2 21.805 6.18721 -3.37551
9574 2 11.81 7.76366 -0.8726
9588 2 13.621 7.75285 -3.38022
3261 1 12.6973 9.32164 -2.3221
9572 2 14.5385 9.33085 -0.878376
3242 1 15.425 7.75512 -2.31636
9548 2 17.2662 7.76366 -0.8726
9590 2 16.3495 9.3185 -3.38597
3240 1 18.1535 9.32164 -2.3221
3202 1 20.8812 7.75512 -2.31636
9552 2 19.0772 7.75285 -3.38022
9550 2 19.9947 9.33085 -0.878376
6332 2 21.8057 9.3185 -3.38597
9573 2 11.8108 10.8981 -0.885202
9578 2 13.6218 10.8842 -3.39276
3256 1 12.6983 12.4548 -2.33672
9575 2 14.5394 12.4653 -0.893077
3241 1 15.4259 10.8882 -2.32889
9535 2 17.267 10.8981 -0.885202
9576 2 16.3504 12.4499 -3.40059
3243 1 18.1546 12.4548 -2.33672
3195 1 20.8821 10.8882 -2.32889
9551 2 19.078 10.8842 -3.39276
9533 2 19.9956 12.4653 -0.893077
6333 2 21.8067 12.4499 -3.40059
9566 2 11.8118 14.0326 -0.902
9577 2 13.6229 14.0156 -3.40947
3257 1 12.6997 15.5881 -2.35548
9564 2 14.5405 15.5999 -0.911974
3228 1 15.4271 14.0214 -2.34559
9534 2 17.2681 14.0326 -0.902
9579 2 16.3517 15.5814 -3.41938
3226 1 18.1559 15.5881 -2.35548
3194 1 20.8833 14.0214 -2.34559
9538 2 19.0791 14.0156 -3.40947
9536 2 19.9968 15.5999 -0.911974
6331 2 21.8079 15.5814 -3.41938
9565 2 11.8131 17.1673 -0.92301
9567 2 13.6243 17.1473 -3.43033
3647 1 12.7017 18.7219 -2.37854
9999 2 14.5419 18.7348 -0.935108
3227 1 15.4287 17.1549 -2.36644
9517 2 17.2693 17.1673 -0.92301
10000 2 16.3533 18.7132 -3.44232
3636 1 18.158 18.7219 -2.37854
3179 1 20.885 17.1549 -2.36644
9537 2 19.0805 17.1473 -3.43033
9962 2 19.9982 18.7348 -0.935108
6744 2 21.8095 18.7132 -3.44232
3246 1 13.624 1.49526 0.363042
9582 2 12.7165 3.06811 1.69364
9545 2 15.4445 1.49925 1.69522
3247 1 16.3523 3.06331 0.361465
9543 2 18.1727 3.06811 1.69364
3201 1 19.0803 1.49526 0.363042
9492 2 20.9007 1.49925 1.69522
186 1 21.8085 3.06331 0.361465
3238 1 13.6243 4.63135 0.358837
9570 2 12.7169 6.20579 1.68731
9544 2 15.4448 4.63696 1.691
3236 1 16.3527 6.19937 0.355159
9546 2 18.1731 6.20579 1.68731
3200 1 19.0806 4.63135 0.358837
9491 2 20.901 4.63696 1.691
187 1 21.8089 6.19937 0.355159
3237 1 13.6249 7.7674 0.350429
9571 2 12.7176 9.34344 1.67677
9531 2 15.4453 7.77461 1.68257
3239 1 16.3534 9.33544 0.344648
9529 2 18.1738 9.34344 1.67677
3193 1 19.0811 7.7674 0.350429
9490 2 20.9016 7.77461 1.68257
182 1 21.8096 9.33544 0.344648
3224 1 13.6257 10.9035 0.337817
9562 2 12.7185 12.4811 1.66201
9530 2 15.4461 10.9123 1.66992
3222 1 16.3543 12.4716 0.329937
9532 2 18.1748 12.4811 1.66201
3192 1 19.0819 10.9035 0.337817
9483 2 20.9024 10.9123 1.66992
183 1 21.8106 12.4716 0.329937
3223 1 13.6268 14.0397 0.321006
9563 2 12.7197 15.6189 1.64301
9516 2 15.4472 14.05 1.65304
3225 1 16.3556 15.6079 0.311018
9514 2 18.176 15.6189 1.64301
3178 1 19.083 14.0397 0.321006
9482 2 20.9035 14.05 1.65304
181 1 21.8118 15.6079 0.311018
3213 1 13.6282 17.1761 0.29996
9989 2 12.7212 18.757 1.61976
9515 2 15.4486 17.1879 1.63192
3629 1 16.3571 18.7445 0.28783
9961 2 18.1775 18.757 1.61976
3177 1 19.0844 17.1761 0.29996
9467 2 20.9048 17.1879 1.63192
574 1 21.8133 18.7445 0.28783
3234 1 11.8053 1.50073 2.96193
3232 1 14.5335 3.07043 2.96035
9541 2 13.6237 1.50474 4.263
3231 1 12.7132 3.07908 5.54277
3198 1 17.2615 1.50073 2.96193
3186 1 15.4412 1.50774 5.54435
9542 2 16.3519 3.07524 4.26142
3184 1 18.1695 3.07908 5.54277
3199 1 19.9898 3.07043 2.96035
3132 1 20.8975 1.50774 5.54435
9489 2 19.0799 1.50474 4.263
6304 2 21.8081 3.07524 4.26142
3233 1 11.8056 4.64011 2.95771
3235 1 14.5339 6.20978 2.95402
9527 2 13.6239 4.64573 4.25878
3216 1 12.7136 6.22167 5.53646
3190 1 17.2618 4.64011 2.95771
3185 1 15.4415 4.65038 5.54014
9525 2 16.3523 6.21619 4.25509
3187 1 18.1699 6.22167 5.53646
3188 1 19.9902 6.20978 2.95402
3131 1 20.8978 4.65038 5.54014
9488 2 19.0802 4.64573 4.25878
6305 2 21.8085 6.21619 4.25509
3220 1 11.8061 7.77944 2.94927
3218 1 14.5346 9.34909 2.94347
9526 2 13.6245 7.78664 4.25034
3217 1 12.7144 9.36419 5.52591
3189 1 17.2624 7.77944 2.94927
3171 1 15.4421 7.79294 5.53171
9528 2 16.353 9.35709 4.24453
3169 1 18.1706 9.36419 5.52591
3191 1 19.9909 9.34909 2.94347
3130 1 20.8983 7.79294 5.53171
9481 2 19.0807 7.78664 4.25034
6296 2 21.8092 9.35709 4.24453
3219 1 11.807 10.9188 2.93661
3221 1 14.5356 12.4884 2.92869
9512 2 13.6253 10.9275 4.23766
3208 1 12.7154 12.5067 5.51112
3175 1 17.2632 10.9188 2.93661
3170 1 15.4429 10.9354 5.51904
9510 2 16.354 12.498 4.22974
3172 1 18.1716 12.5067 5.51112
3173 1 19.9919 12.4884 2.92869
3123 1 20.8992 10.9354 5.51904
9480 2 19.0816 10.9275 4.23766
6297 2 21.8102 12.498 4.22974
3212 1 11.8081 14.0581 2.9197
3210 1 14.5369 15.6279 2.90965
9511 2 13.6265 14.0684 4.22074
3209 1 12.7167 15.6491 5.49205
3174 1 17.2643 14.0581 2.9197
3156 1 15.4441 14.0779 5.50212
9513 2 16.3553 15.6389 4.21069
3154 1 18.1729 15.6491 5.49205
3176 1 19.9931 15.6279 2.90965
3122 1 20.9003 14.0779 5.50212
9466 2 19.0827 14.0684 4.22074
6295 2 21.8115 15.6389 4.21069
3211 1 11.8095 17.1977 2.89853
9501 2 13.6279 17.2094 4.19957
3628 1 14.5384 18.7675 2.88635
3614 1 12.7183 18.7917 5.46871
3157 1 17.2657 17.1977 2.89853
3155 1 15.4456 17.2204 5.48092
9948 2 16.3568 18.7799 4.18738
3580 1 18.1745 18.7917 5.46871
3108 1 20.9018 17.2204 5.48092
9465 2 19.0841 17.2094 4.19957
3581 1 19.9947 18.7675 2.88635
6724 2 21.8131 18.7799 4.18738
3182 1 13.6209 1.5146 8.12089
9523 2 11.8031 1.51131 6.83479
9521 2 14.5314 3.08343 6.83323
9486 2 17.2594 1.51131 6.83479
3183 1 16.3492 3.08754 8.11933
3129 1 19.0772 1.5146 8.12089
9487 2 19.9876 3.08343 6.83323
142 1 21.8054 3.08754 8.11933
3167 1 13.6212 4.66046 8.11672
9522 2 11.8034 4.65553 6.83061
9524 2 14.5318 6.22761 6.82693
9478 2 17.2597 4.65553 6.83061
3165 1 16.3496 6.23334 8.11306
3128 1 19.0775 4.66046 8.11672
9476 2 19.988 6.22761 6.82693
143 1 21.8058 6.23334 8.11306
3166 1 13.6218 7.80619 8.10834
9508 2 11.804 7.79966 6.8222
9506 2 14.5325 9.37169 6.81641
9477 2 17.2602 7.79966 6.8222
3168 1 16.3503 9.37901 8.10256
3121 1 19.078 7.80619 8.10834
9479 2 19.9888 9.37169 6.81641
134 1 21.8065 9.37901 8.10256
3152 1 13.6227 10.9518 8.09572
9507 2 11.8049 10.9437 6.80956
9509 2 14.5335 12.5157 6.80165
9463 2 17.2611 10.9437 6.80956
3150 1 16.3513 12.5246 8.08782
3120 1 19.0789 10.9518 8.09572
9461 2 19.9898 12.5157 6.80165
135 1 21.8075 12.5246 8.08782
3151 1 13.6238 14.0973 8.07885
9500 2 11.806 14.0877 6.79268
9498 2 14.5348 15.6596 6.78264
9462 2 17.2623 14.0877 6.79268
3153 1 16.3526 15.67 8.06882
3107 1 19.08 14.0973 8.07885
9464 2 19.9911 15.6596 6.78264
133 1 21.8089 15.67 8.06882
3141 1 13.6253 17.2427 8.05772
9499 2 11.8075 17.2316 6.77153
9947 2 14.5364 18.8035 6.75937
9448 2 17.2637 17.2316 6.77153
3565 1 16.3542 18.8153 8.04555
3106 1 19.0815 17.2427 8.05772
541 1 21.8105 18.8153 8.04555
9893 2 19.9927 18.8035 6.75937
3163 1 11.8009 1.52149 10.6949
9470 2 13.6193 1.52493 11.98
9520 2 12.7112 3.09177 9.40596
3161 1 14.5291 3.09602 10.6934
9474 2 15.4392 1.51805 9.40751
3126 1 17.2571 1.52149 10.6949
9472 2 18.1674 3.09177 9.40596
9471 2 16.3475 3.10023 11.9785
9432 2 20.8954 1.51805 9.40751
9429 2 19.0756 1.52493 11.98
3127 1 19.9853 3.09602 10.6934
6238 2 21.8038 3.10023 11.9785
3162 1 11.8012 4.67051 10.6908
9455 2 13.6196 4.6755 11.976
9504 2 12.7116 6.23912 9.39973
3164 1 14.5295 6.24496 10.6872
9473 2 15.4395 4.66546 9.40337
3118 1 17.2574 4.67051 10.6908
9475 2 18.1678 6.23912 9.39973
9453 2 16.3479 6.25072 11.9724
9431 2 20.8957 4.66546 9.40337
9428 2 19.0758 4.6755 11.976
3116 1 19.9858 6.24496 10.6872
6239 2 21.8042 6.25072 11.9724
9505 2 12.7123 9.38634 9.38928
3148 1 11.8017 7.81938 10.6825
9454 2 13.6201 7.8259 11.9677
3146 1 14.5302 9.39374 10.6768
9459 2 15.44 7.81275 9.39503
9457 2 18.1685 9.38634 9.38928
3117 1 17.258 7.81938 10.6825
9456 2 16.3486 9.40102 11.962
9430 2 20.8963 7.81275 9.39503
9422 2 19.0764 7.8259 11.9677
3119 1 19.9865 9.39374 10.6768
6230 2 21.8048 9.40102 11.962
9496 2 12.7133 12.5334 9.37462
3147 1 11.8026 10.9681 10.67
9443 2 13.6209 10.9761 11.9553
3149 1 14.5312 12.5423 10.6622
9458 2 15.4409 10.9599 9.38248
9460 2 18.1695 12.5334 9.37462
3104 1 17.2588 10.9681 10.67
9441 2 16.3495 12.5511 11.9475
9424 2 20.8971 10.9599 9.38248
9421 2 19.0772 10.9761 11.9553
3102 1 19.9874 12.5423 10.6622
6231 2 21.8058 12.5511 11.9475
9497 2 12.7146 15.6803 9.35572
3140 1 11.8037 14.1166 10.6533
9442 2 13.622 14.1261 11.9387
3138 1 14.5325 15.6907 10.6433
9447 2 15.442 14.1069 9.3657
9445 2 18.1708 15.6803 9.35572
3103 1 17.2599 14.1166 10.6533
9444 2 16.3508 15.7009 11.9288
9423 2 20.8983 14.1069 9.3657
9415 2 19.0782 14.1261 11.9387
3105 1 19.9887 15.6907 10.6433
6229 2 21.807 15.7009 11.9288
3139 1 11.8051 17.2648 10.6323
9436 2 13.6234 17.2757 11.9179
9927 2 12.7162 18.827 9.33258
3564 1 14.5341 18.8388 10.6202
9446 2 15.4434 17.2537 9.34468
3093 1 17.2613 17.2648 10.6323
9892 2 18.1724 18.827 9.33258
9877 2 16.3523 18.8504 11.9059
9416 2 20.8997 17.2537 9.34468
9414 2 19.0796 17.2757 11.9179
3509 1 19.9903 18.8388 10.6202
6662 2 21.8085 18.8504 11.9059
3110 1 13.618 1.53556 15.8394
9451 2 11.7998 1.53195 14.552
3160 1 12.7094 3.10456 13.2661
9449 2 14.528 3.10881 14.5505
3114 1 15.4374 1.52847 13.2676
9426 2 17.256 1.53195 14.552
3111 1 16.3462 3.11321 15.838
3112 1 18.1656 3.10456 13.2661
3081 1 19.0742 1.53556 15.8394
3084 1 20.8936 1.52847 13.2676
9427 2 19.9842 3.10881 14.5505
70 1 21.8024 3.11321 15.838
3096 1 13.6182 4.69081 15.8355
9450 2 11.8 4.68563 14.548
3144 1 12.7098 6.25663 13.26
9452 2 14.5283 6.2624 14.5445
3113 1 15.4377 4.68062 13.2636
9419 2 17.2562 4.68563 14.548
3094 1 16.3465 6.26836 15.832
3115 1 18.166 6.25663 13.26
3080 1 19.0745 4.69081 15.8355
3083 1 20.8939 4.68062 13.2636
9417 2 19.9846 6.2624 14.5445
71 1 21.8028 6.26836 15.832
3095 1 13.6187 7.84585 15.8274
9439 2 11.8005 7.83911 14.5399
9437 2 14.5289 9.41577 14.5343
3145 1 12.7104 9.40849 13.2498
3100 1 15.4382 7.83259 13.2554
9418 2 17.2567 7.83911 14.5399
3098 1 18.1666 9.40849 13.2498
3097 1 16.3471 9.42328 15.8219
3077 1 19.0749 7.84585 15.8274
3082 1 20.8944 7.83259 13.2554
9420 2 19.9852 9.41577 14.5343
62 1 21.8033 9.42328 15.8219
9438 2 11.8012 10.9923 14.5277
3088 1 13.6194 11.0006 15.8153
9440 2 14.5298 12.5689 14.52
3136 1 12.7113 12.5601 13.2353
9412 2 17.2574 10.9923 14.5277
3099 1 15.4389 10.9843 13.2431
3101 1 18.1676 12.5601 13.2353
3086 1 16.3479 12.5779 15.8077
9410 2 19.986 12.5689 14.52
63 1 21.8041 12.5779 15.8077
3079 1 20.8952 10.9843 13.2431
3076 1 19.0756 11.0006 15.8153
9433 2 14.5309 15.7216 14.5016
3137 1 12.7125 15.7114 13.2167
9435 2 11.8022 14.1453 14.5113
3087 1 13.6203 14.155 15.799
3089 1 16.349 15.7321 15.7894
3090 1 18.1687 15.7114 13.2167
9411 2 17.2584 14.1453 14.5113
3092 1 15.44 14.1358 13.2266
61 1 21.8052 15.7321 15.7894
9413 2 19.9871 15.7216 14.5016
3078 1 20.8962 14.1358 13.2266
3074 1 19.0765 14.155 15.799
9434 2 11.8034 17.2978 14.4908
3085 1 13.6215 17.309 15.7787
9876 2 14.5323 18.8739 14.479
3543 1 12.714 18.8623 13.1939
9409 2 17.2597 17.2978 14.4908
3091 1 15.4413 17.2869 13.2058
3508 1 18.1702 18.8623 13.1939
3493 1 16.3503 18.8858 15.7669
3073 1 19.0777 17.309 15.7787
3075 1 20.8976 17.2869 13.2058
9833 2 19.9885 18.8739 14.479
470 1 21.8065 18.8858 15.7669
3454 1 11.7989 1.54277 18.4104
9792 2 12.7087 3.11749 17.1219
3452 1 14.5271 3.12195 18.409
9778 2 15.4368 1.53909 17.1233
3431 1 17.2552 1.54277 18.4104
9776 2 18.165 3.11749 17.1219
9732 2 20.893 1.53909 17.1233
3432 1 19.9834 3.12195 18.409
3453 1 11.7991 4.70109 18.4065
9788 2 12.709 6.27416 17.116
3455 1 14.5274 6.28018 18.4031
9777 2 15.437 4.69585 17.1194
3427 1 17.2554 4.70109 18.4065
9779 2 18.1653 6.27416 17.116
9731 2 20.8932 4.69585 17.1194
3425 1 19.9836 6.28018 18.4031
3447 1 11.7995 7.85919 18.3987
9789 2 12.7096 9.43058 17.106
3445 1 14.5279 9.43814 18.3932
9770 2 15.4374 7.8524 17.1115
3426 1 17.2557 7.85919 18.3987
9768 2 18.1658 9.43058 17.106
9730 2 20.8936 7.8524 17.1115
3428 1 19.9841 9.43814 18.3932
3446 1 11.8001 11.017 18.3868
9784 2 12.7103 12.5867 17.0919
3448 1 14.5285 12.5958 18.3793
9769 2 15.438 11.0087 17.0995
3415 1 17.2563 11.017 18.3868
9771 2 18.1665 12.5867 17.0919
9723 2 20.8942 11.0087 17.0995
3413 1 19.9848 12.5958 18.3793
3440 1 11.8008 14.1744 18.3708
9785 2 12.7112 15.7423 17.0738
3414 1 17.2571 14.1744 18.3708
9756 2 15.4388 14.1646 17.0834
9754 2 18.1675 15.7423 17.0738
9722 2 20.8951 14.1646 17.0834
3439 1 11.8018 17.3313 18.3509
3438 1 14.5294 15.7529 18.3614
10199 2 12.7125 18.8975 17.0516
3397 1 17.2581 17.3313 18.3509
9755 2 15.4399 17.32 17.0632
10188 2 18.1687 18.8975 17.0516
3416 1 19.9856 15.7529 18.3614
9707 2 20.8962 17.32 17.0632
9774 2 13.6179 1.54634 19.6939
9762 2 11.7994 1.55371 22.2637
3451 1 12.7084 3.1308 20.9792
9760 2 14.5275 3.13518 22.2624
3423 1 15.4364 1.55009 20.9806
9726 2 17.2556 1.55371 22.2637
9775 2 16.3461 3.12628 19.6925
3421 1 18.1646 3.1308 20.9792
9729 2 19.0741 1.54634 19.6939
3372 1 20.8927 1.55009 20.9806
6522 2 21.8023 3.12628 19.6925
9727 2 19.9838 3.13518 22.2624
9766 2 13.6181 4.70618 19.6901
9761 2 11.7995 4.7166 22.2601
3443 1 12.7086 6.29208 20.9735
9763 2 14.5277 6.29796 22.2568
3422 1 15.4366 4.71147 20.9768
9718 2 17.2557 4.7166 22.2601
9764 2 16.3463 6.28601 19.6867
3424 1 18.1648 6.29208 20.9735
9728 2 19.0743 4.70618 19.6901
3371 1 20.8928 4.71147 20.9768
6523 2 21.8026 6.28601 19.6867
9716 2 19.9839 6.29796 22.2568
9765 2 13.6184 7.86578 19.6823
9748 2 11.7997 7.87926 22.2525
3411 1 15.4369 7.87262 20.9692
9717 2 17.256 7.87926 22.2525
9767 2 16.3467 9.44548 19.677
9721 2 19.0746 7.86578 19.6823
3370 1 20.8931 7.87262 20.9692
6518 2 21.803 9.44548 19.677
9752 2 13.6189 11.0251 19.6706
3444 1 12.7089 9.45309 20.9638
9747 2 11.8001 11.0416 22.241
9746 2 14.528 9.46047 22.2472
3410 1 15.4373 11.0335 20.9575
9703 2 17.2563 11.0416 22.241
3409 1 18.1652 9.45309 20.9638
9720 2 19.0751 11.0251 19.6706
3363 1 20.8935 11.0335 20.9575
9719 2 19.9842 9.46047 22.2472
9751 2 13.6195 14.184 19.6548
3436 1 12.7095 12.6137 20.9502
9740 2 11.8006 14.2035 22.2256
9749 2 14.5284 12.6226 22.2338
9750 2 16.3473 12.6046 19.6632
3396 1 15.4379 14.1939 20.9419
9702 2 17.2568 14.2035 22.2256
3412 1 18.1657 12.6137 20.9502
9706 2 19.0758 14.184 19.6548
3362 1 20.8941 14.1939 20.9419
9701 2 19.9846 12.6226 22.2338
6519 2 21.8035 12.6046 19.6632
9741 2 13.6204 17.3423 19.6351
3437 1 12.7101 15.7739 20.9327
9739 2 11.8012 17.3648 22.2063
9738 2 14.529 15.7843 22.2164
9753 2 16.3481 15.7632 19.6455
3395 1 15.4387 17.3537 20.9224
9685 2 17.2574 17.3648 22.2063
3394 1 18.1664 15.7739 20.9327
9705 2 19.0767 17.3423 19.6351
3347 1 20.8949 17.3537 20.9224
9704 2 19.9852 15.7843 22.2164
6517 2 21.8043 15.7632 19.6455
3419 1 13.6181 1.55751 23.55
9759 2 12.7094 3.14417 24.8315
9714 2 15.4375 1.56118 24.8328
3420 1 16.3463 3.13975 23.5487
9712 2 18.1656 3.14417 24.8315
3369 1 19.0744 1.55751 23.55
9660 2 20.8937 1.56118 24.8328
369 1 21.8025 3.13975 23.5487
3407 1 13.6182 4.72194 23.5464
9713 2 15.4375 4.72712 24.8293
3368 1 19.0744 4.72194 23.5464
9659 2 20.8938 4.72712 24.8293
3406 1 13.6184 7.88615 23.5389
9744 2 12.7095 6.31 24.826
3405 1 16.3464 6.30408 23.5431
9699 2 15.4377 7.89283 24.8218
9715 2 18.1657 6.31 24.826
3361 1 19.0746 7.88615 23.5389
9658 2 20.8939 7.89283 24.8218
370 1 21.8026 6.30408 23.5431
3392 1 13.6187 11.05 23.5275
9745 2 12.7096 9.47557 24.8167
3408 1 16.3466 9.46813 23.5337
9698 2 15.4379 11.0582 24.8106
9697 2 18.1659 9.47557 24.8167
3360 1 19.0749 11.05 23.5275
9651 2 20.8941 11.0582 24.8106
362 1 21.8029 9.46813 23.5337
3391 1 13.619 14.2135 23.5123
9736 2 12.7099 12.6408 24.8035
3390 1 16.347 12.6318 23.5204
9684 2 15.4382 14.2232 24.7955
9700 2 18.1661 12.6408 24.8035
3346 1 19.0753 14.2135 23.5123
9650 2 20.8944 14.2232 24.7955
363 1 21.8032 12.6318 23.5204
3381 1 13.6196 17.3764 23.4932
9737 2 12.7102 15.8055 24.7866
3393 1 16.3474 15.795 23.5032
9683 2 15.4385 17.3876 24.7767
9682 2 18.1665 15.8055 24.7866
3345 1 19.0758 17.3764 23.4932
9636 2 20.8948 17.3876 24.7767
361 1 21.8036 15.795 23.5032
3403 1 11.8002 1.56503 26.1187
9710 2 13.6198 1.56874 27.4011
3401 1 14.5283 3.14879 26.1174
3366 1 17.2564 1.56503 26.1187
3354 1 15.4389 1.57264 28.6866
3306 1 20.8952 1.57264 28.6866
9657 2 19.076 1.56874 27.4011
3367 1 19.9846 3.14879 26.1174
3402 1 11.8002 4.73251 26.1152
3400 1 12.7108 3.15792 28.6853
9695 2 13.6198 4.73772 27.3977
3358 1 17.2565 4.73251 26.1152
3353 1 15.4389 4.74316 28.6832
9711 2 16.3479 3.15325 27.3999
3352 1 18.1671 3.15792 28.6853
3305 1 20.8952 4.74316 28.6832
9656 2 19.076 4.73772 27.3977
6478 2 21.8041 3.15325 27.3999
3388 1 11.8003 7.89977 26.1079
3404 1 14.5284 6.31617 26.112
3384 1 12.7108 6.32835 28.68
9694 2 13.6198 7.9065 27.3904
3357 1 17.2565 7.89977 26.1079
3339 1 15.4389 7.91348 28.676
9693 2 16.3479 6.32214 27.3945
3355 1 18.167 6.32835 28.68
3356 1 19.9846 6.31617 26.112
3304 1 20.8951 7.91348 28.676
9649 2 19.0761 7.9065 27.3904
6479 2 21.8042 6.32214 27.3945
3387 1 11.8004 11.0667 26.0967
3386 1 14.5285 9.48329 26.1028
3385 1 12.7108 9.49854 28.671
9680 2 13.6199 11.075 27.3794
3343 1 17.2567 11.0667 26.0967
3338 1 15.4389 11.0835 28.6651
9696 2 16.348 9.49077 27.3854
3337 1 18.167 9.49854 28.671
3359 1 19.9847 9.48329 26.1028
3297 1 20.8951 11.0835 28.6651
9648 2 19.0761 11.075 27.3794
6470 2 21.8042 9.49077 27.3854
3380 1 11.8006 14.2332 26.0819
3389 1 14.5286 12.65 26.0898
3376 1 12.7107 12.6684 28.6583
9679 2 13.6199 14.243 27.3647
3342 1 17.2568 14.2332 26.0819
3325 1 15.4388 14.2532 28.6506
9678 2 16.348 12.6591 27.3725
3340 1 18.167 12.6684 28.6583
3341 1 19.9849 12.65 26.0898
3296 1 20.8951 14.2532 28.6506
9635 2 19.0762 14.243 27.3647
6471 2 21.8043 12.6591 27.3725
3379 1 11.8008 17.3992 26.0633
3378 1 14.5288 15.8163 26.073
3377 1 12.7107 15.8378 28.642
9669 2 13.6201 17.4106 27.3463
3326 1 17.2571 17.3992 26.0633
3324 1 15.4388 17.4223 28.6324
9681 2 16.3481 15.8269 27.356
3323 1 18.1669 15.8378 28.642
3344 1 19.9851 15.8163 26.073
3285 1 20.8951 17.4223 28.6324
9634 2 19.0763 17.4106 27.3463
6469 2 21.8044 15.8269 27.356
3350 1 13.6219 1.58032 31.2536
9691 2 11.8025 1.57638 29.9686
9642 2 15.442 1.58409 32.5353
9654 2 17.2588 1.57638 29.9686
3303 1 19.0782 1.58032 31.2536
9612 2 20.8983 1.58409 32.5353
3335 1 13.6219 4.75389 31.2503
9688 2 12.7139 3.17165 32.5341
9690 2 11.8025 4.74841 29.9652
9689 2 14.5306 3.16242 29.9674
3351 1 16.35 3.16712 31.2524
9641 2 15.4419 4.75918 32.532
9646 2 17.2587 4.74841 29.9652
9640 2 18.1701 3.17165 32.5341
3302 1 19.0781 4.75389 31.2503
9611 2 20.8982 4.75918 32.532
9655 2 19.9869 3.16242 29.9674
310 1 21.8063 3.16712 31.2524
3334 1 13.6217 7.92729 31.2433
9672 2 12.7137 6.34668 32.529
9676 2 11.8024 7.92026 29.9582
9692 2 14.5306 6.33437 29.9622
3333 1 16.3499 6.34062 31.2473
9628 2 15.4418 7.93412 32.525
9645 2 17.2587 7.92026 29.9582
9643 2 18.17 6.34668 32.529
3295 1 19.078 7.92729 31.2433
9610 2 20.898 7.93412 32.525
9644 2 19.9868 6.33437 29.9622
311 1 21.8062 6.34062 31.2473
3321 1 13.6216 11.1004 31.2327
9673 2 12.7135 9.5215 32.5202
9675 2 11.8023 11.0918 29.9474
9674 2 14.5305 9.50609 29.9532
3336 1 16.3498 9.5139 31.2384
9627 2 15.4415 11.1088 32.5145
9632 2 17.2586 11.0918 29.9474
9626 2 18.1698 9.5215 32.5202
3294 1 19.0778 11.1004 31.2327
9607 2 20.8978 11.1088 32.5145
9647 2 19.9867 9.50609 29.9532
302 1 21.806 9.5139 31.2384
3320 1 13.6213 14.2732 31.2184
9664 2 12.7133 12.6961 32.5078
9668 2 11.8022 14.263 29.933
9677 2 14.5304 12.6775 29.9406
3319 1 16.3496 12.6869 31.226
9620 2 15.4412 14.2832 32.5003
9631 2 17.2585 14.263 29.933
9629 2 18.1695 12.6961 32.5078
3284 1 19.0776 14.2732 31.2184
9606 2 20.8975 14.2832 32.5003
9630 2 19.9866 12.6775 29.9406
303 1 21.8058 12.6869 31.226
3312 1 13.6211 17.4456 31.2006
9665 2 12.713 15.8702 32.4919
9667 2 11.8021 17.4337 29.915
9666 2 14.5303 15.8485 29.9244
3322 1 16.3493 15.8595 31.2099
9619 2 15.4409 17.4571 32.4827
9621 2 17.2583 17.4337 29.915
9618 2 18.1692 15.8702 32.4919
3283 1 19.0773 17.4456 31.2006
9603 2 20.8971 17.4571 32.4827
9633 2 19.9865 15.8485 29.9244
301 1 21.8056 15.8595 31.2099
3331 1 11.8054 1.58806 33.8199
9638 2 13.6258 1.59185 35.1011
3300 1 17.2617 1.58806 33.8199
9637 2 16.3539 0.0027345 35.1014
9609 2 19.082 1.59185 35.1011
6422 2 21.8102 0.0027345 35.1014
3330 1 11.8053 4.7647 33.8166
9624 2 13.6257 4.77002 35.0979
3329 1 14.5335 3.17639 33.8187
3292 1 17.2615 4.7647 33.8166
9639 2 16.3539 3.18095 35.0999
3301 1 19.9897 3.17639 33.8187
9608 2 19.0819 4.77002 35.0979
6406 2 21.8101 3.18095 35.0999
3332 1 14.5333 6.35297 33.8136
3317 1 11.8051 7.94119 33.8097
9623 2 13.6254 7.94807 35.091
9622 2 16.3537 6.35906 35.0949
3291 1 17.2613 7.94119 33.8097
9605 2 19.0817 7.94807 35.091
3290 1 19.9896 6.35297 33.8136
6407 2 21.8099 6.35906 35.0949
3315 1 14.5331 9.52936 33.805
9616 2 13.6251 11.1259 35.0806
3316 1 11.8048 11.1175 33.7993
9625 2 16.3534 9.53702 35.0863
3281 1 17.261 11.1175 33.7993
9604 2 19.0813 11.1259 35.0806
3293 1 19.9893 9.52936 33.805
6398 2 21.8096 9.53702 35.0863
3311 1 11.8044 14.2935 33.7852
3318 1 14.5327 12.7055 33.7927
9615 2 13.6246 14.3035 35.0667
9614 2 16.353 12.7147 35.0741
3280 1 17.2606 14.2935 33.7852
6399 2 21.8092 12.7147 35.0741
3279 1 19.989 12.7055 33.7927
9602 2 19.0809 14.3035 35.0667
3309 1 14.5323 15.8813 33.7769
9613 2 13.6241 17.4807 35.0493
3310 1 11.8039 17.4691 33.7677
9617 2 16.3525 15.8922 35.0584
3274 1 17.2602 17.4691 33.7677
9601 2 19.0803 17.4807 35.0493
3282 1 19.9885 15.8813 33.7769
6397 2 21.8087 15.8922 35.0584
9814 2 11.8101 1.59965 37.666
15677 1 13.6302 1.60367 38.9497
3327 1 12.7176 0.00595768 36.3855
9816 2 14.5382 0.00899829 37.6663
9803 2 17.2663 1.59965 37.666
15676 1 16.3584 0.0122396 38.95
3288 1 15.4457 1.59584 36.3852
3298 1 18.1738 0.00595768 36.3855
9802 2 19.9945 0.00899829 37.6663
15642 1 19.0865 1.60367 38.9497
3270 1 20.9019 1.59584 36.3852
12864 1 21.8146 0.0122396 38.95
9813 2 11.8099 4.78092 37.6628
15673 1 13.6301 4.78649 38.9466
3328 1 12.7175 3.18571 36.3841
9812 2 14.5381 3.1903 37.6649
9800 2 17.2662 4.78092 37.6628
15678 1 16.3583 3.19509 38.9486
3287 1 15.4455 4.77557 36.3821
3286 1 18.1737 3.18571 36.3841
9804 2 19.9944 3.1903 37.6649
15641 1 19.0863 4.78649 38.9466
3269 1 20.9018 4.77557 36.3821
12862 1 21.8145 3.19509 38.9486
9810 2 11.8096 7.9621 37.6561
15672 1 13.6297 7.96924 38.9399
3313 1 12.7173 6.36539 36.3791
9815 2 14.5379 6.37152 37.6599
9799 2 17.2659 7.9621 37.6561
15671 1 16.358 6.37788 38.9437
3277 1 15.4452 7.95518 36.3753
3289 1 18.1735 6.36539 36.3791
9798 2 19.9941 6.37152 37.6599
15636 1 19.086 7.96924 38.9399
3268 1 20.9015 7.95518 36.3753
12863 1 21.8143 6.37788 38.9437
9809 2 11.8092 11.1431 37.6458
15662 1 13.6292 11.1519 38.9296
3314 1 12.7169 9.54492 36.3705
9808 2 14.5375 9.55263 37.6514
9796 2 17.2654 11.1431 37.6458
15674 1 16.3576 9.56057 38.9352
3276 1 15.4448 11.1346 36.3649
3275 1 18.1732 9.54492 36.3705
9801 2 19.9938 9.55263 37.6514
15635 1 19.0855 11.1519 38.9296
3267 1 20.9011 11.1346 36.3649
12860 1 21.8139 9.56057 38.9352
9807 2 11.8086 14.324 37.632
15661 1 13.6286 14.3343 38.9158
3307 1 12.7165 12.7243 36.3584
9811 2 14.537 12.7336 37.6393
9795 2 17.2648 14.324 37.632
15660 1 16.3571 12.7431 38.9231
3273 1 15.4443 14.3138 36.3511
3278 1 18.1727 12.7243 36.3584
9794 2 19.9933 12.7336 37.6393
15622 1 19.0848 14.3343 38.9158
3266 1 20.9005 14.3138 36.3511
12861 1 21.8133 12.7431 38.9231
9806 2 11.8079 17.5045 37.6147
15651 1 13.6278 17.5166 38.8987
3308 1 12.7159 15.9033 36.3429
9805 2 14.5364 15.9143 37.6238
9793 2 17.2641 17.5045 37.6147
15663 1 16.3563 15.9255 38.9077
3272 1 15.4436 17.4927 36.3338
3271 1 18.1721 15.9033 36.3429
9797 2 19.9926 15.9143 37.6238
15621 1 19.084 17.5166 38.8987
3265 1 20.8999 17.4927 36.3338
12859 1 21.8126 15.9255 38.9077
21299 2 12.7231 0.0152812 40.2303
15669 1 11.8154 1.61152 41.5133
15675 1 14.5436 0.0185341 41.5136
21286 2 15.4512 1.60749 40.2301
15639 1 17.2716 1.61152 41.5133
21288 2 18.1794 0.0152812 40.2303
15638 1 19.9998 0.0185341 41.5136
21240 2 20.9074 1.60749 40.2301
21300 2 12.723 3.19968 40.2289
15668 1 11.8152 4.79747 41.5102
15667 1 14.5434 3.2045 41.5122
21285 2 15.451 4.79187 40.2269
15633 1 17.2714 4.79747 41.5102
21284 2 18.1792 3.19968 40.2289
15640 1 19.9997 3.2045 41.5122
21239 2 20.9072 4.79187 40.2269
21296 2 12.7227 6.38405 40.224
15658 1 11.8148 7.98338 41.5035
15670 1 14.5431 6.39043 41.5073
21278 2 15.4507 7.9762 40.2202
15632 1 17.271 7.98338 41.5035
21287 2 18.179 6.38405 40.224
15631 1 19.9994 6.39043 41.5073
21238 2 20.9069 7.9762 40.2202
21297 2 12.7223 9.56833 40.2155
15657 1 11.8143 11.1692 41.4933
15656 1 14.5427 9.57632 41.4988
21277 2 15.4501 11.1604 40.2099
15619 1 17.2705 11.1692 41.4933
21276 2 18.1785 9.56833 40.2155
15634 1 19.9989 9.57632 41.4988
21231 2 20.9064 11.1604 40.2099
21292 2 12.7217 12.7525 40.2035
15650 1 11.8135 14.355 41.4795
15659 1 14.542 12.7621 41.4868
15618 1 17.2698 14.355 41.4795
21264 2 15.4495 14.3445 40.1962
21279 2 18.178 12.7525 40.2035
15617 1 19.9983 12.7621 41.4868
21230 2 20.9057 14.3445 40.1962
21293 2 12.721 15.9365 40.188
15649 1 11.8127 17.5406 41.4624
15648 1 14.5412 15.9478 41.4714
15601 1 17.2689 17.5406 41.4624
21263 2 15.4487 17.5285 40.179
21262 2 18.1772 15.9365 40.188
15620 1 19.9975 15.9478 41.4714
21215 2 20.9049 17.5285 40.179
21282 2 13.6366 1.61534 42.7932
15665 1 12.7293 0.0248277 44.0763
21270 2 11.8227 1.62319 45.3554
21281 2 16.3648 0.0215696 42.7935
21280 2 14.5508 0.0278503 45.3557
15629 1 15.4574 1.61938 44.076
21234 2 17.2789 1.62319 45.3554
15637 1 18.1855 0.0248277 44.0763
21237 2 19.0929 1.61534 42.7932
15576 1 20.9136 1.61938 44.076
21233 2 20.0071 0.0278503 45.3557
18478 2 21.821 0.0215696 42.7935
21274 2 13.6364 4.80287 42.7901
15666 1 12.7291 3.21393 44.0749
21269 2 11.8225 4.8139 45.3522
21283 2 16.3647 3.20911 42.7921
15628 1 15.4571 4.80849 44.0729
21226 2 17.2787 4.8139 45.3522
21268 2 14.5507 3.21855 45.3543
15627 1 18.1854 3.21393 44.0749
21236 2 19.0927 4.80287 42.7901
15575 1 20.9134 4.80849 44.0729
21235 2 20.007 3.21855 45.3543
18474 2 21.8209 3.20911 42.7921
21273 2 13.6361 7.99038 42.7833
15654 1 12.7288 6.40304 44.0699
21256 2 11.8221 8.00462 45.3455
21272 2 16.3644 6.39663 42.7871
15615 1 15.4567 7.99759 44.0661
21225 2 17.2783 8.00462 45.3455
21271 2 14.5504 6.40926 45.3493
15630 1 18.1851 6.40304 44.0699
21229 2 19.0923 7.99038 42.7833
15574 1 20.913 7.99759 44.0661
21224 2 20.0066 6.40926 45.3493
18475 2 21.8206 6.39663 42.7871
21260 2 13.6355 11.1778 42.7731
15655 1 12.7284 9.59214 44.0615
21255 2 11.8215 11.1953 45.3352
21254 2 14.5499 9.59997 45.3408
21275 2 16.3639 9.58412 42.7787
15614 1 15.4562 11.1867 44.0559
21211 2 17.2777 11.1953 45.3352
15613 1 18.1846 9.59214 44.0615
21228 2 19.0917 11.1778 42.7731
15567 1 20.9124 11.1867 44.0559
21227 2 20.0062 9.59997 45.3408
18470 2 21.8202 9.58412 42.7787
21259 2 13.6348 14.3652 42.7593
15646 1 12.7277 12.7812 44.0494
21248 2 11.8208 14.386 45.3214
21257 2 14.5493 12.7907 45.3287
21258 2 16.3633 12.7715 42.7666
15600 1 15.4554 14.3757 44.0421
21210 2 17.277 14.386 45.3214
15616 1 18.1839 12.7812 44.0494
21214 2 19.091 14.3652 42.7593
15566 1 20.9116 14.3757 44.0421
21209 2 20.0055 12.7907 45.3287
18471 2 21.8195 12.7715 42.7666
21249 2 13.6339 17.5526 42.7422
15647 1 12.7268 15.9702 44.034
21247 2 11.8198 17.5768 45.3041
21246 2 14.5484 15.9814 45.3132
21261 2 16.3625 15.9589 42.7512
15599 1 15.4545 17.5648 44.0249
21194 2 17.2761 17.5768 45.3041
15598 1 18.1831 15.9702 44.034
21213 2 19.0901 17.5526 42.7422
15551 1 20.9107 17.5648 44.0249
21212 2 20.0047 15.9814 45.3132
18469 2 21.8187 15.9589 42.7512
15607 1 11.8306 1.6351 49.1985
15625 1 13.6437 1.62724 46.6378
15664 1 10.9156 0.0311078 46.638
21266 2 12.7375 0.0341112 47.917
15570 1 17.2869 1.6351 49.1985
15623 1 14.5588 0.0373626 49.1988
15624 1 16.3719 0.0311078 46.638
21222 2 15.4656 1.63105 47.9167
15569 1 20.015 0.0373626 49.1988
15573 1 19.0999 1.62724 46.6378
21174 2 20.9218 1.63105 47.9167
21232 2 18.1937 0.0341112 47.917
15606 1 11.8304 4.83061 49.1953
15611 1 13.6435 4.81954 46.6346
15652 1 10.9155 3.22339 46.6366
21267 2 12.7374 3.228 47.9155
15562 1 17.2866 4.83061 49.1953
15605 1 14.5587 3.23284 49.1974
15626 1 16.3717 3.22339 46.6366
21221 2 15.4653 4.82496 47.9135
15571 1 20.0149 3.23284 49.1974
15572 1 19.0997 4.81954 46.6346
21173 2 20.9216 4.82496 47.9135
21220 2 18.1936 3.228 47.9155
15592 1 11.83 8.02618 49.1885
15610 1 13.6431 8.01186 46.6278
15653 1 10.9152 6.4157 46.6316
21252 2 12.7371 6.42192 47.9105
15561 1 17.2862 8.02618 49.1885
15608 1 14.5583 6.42838 49.1923
15609 1 16.3714 6.4157 46.6316
21207 2 15.465 8.0189 47.9067
15560 1 20.0146 6.42838 49.1923
15565 1 19.0993 8.01186 46.6278
21172 2 20.9212 8.0189 47.9067
21223 2 18.1933 6.42192 47.9105
15591 1 11.8294 11.2218 49.1781
15596 1 13.6425 11.2042 46.6175
15644 1 10.9147 9.60803 46.6231
21253 2 12.7366 9.61589 47.9019
15547 1 17.2857 11.2218 49.1781
15590 1 14.5579 9.62398 49.1837
15612 1 16.3709 9.60803 46.6231
21206 2 15.4644 11.2129 47.8963
15563 1 20.0141 9.62398 49.1837
15564 1 19.0987 11.2042 46.6175
21165 2 20.9206 11.2129 47.8963
21205 2 18.1928 9.61589 47.9019
15584 1 11.8287 14.4175 49.1641
15595 1 13.6417 14.3966 46.6036
15645 1 10.914 12.8004 46.611
21244 2 12.7359 12.8099 47.8898
15546 1 17.2849 14.4175 49.1641
15593 1 14.5572 12.8197 49.1715
15594 1 16.3702 12.8004 46.611
21193 2 15.4636 14.4069 47.8823
15545 1 20.0134 12.8197 49.1715
15550 1 19.0979 14.3966 46.6036
21164 2 20.9199 14.4069 47.8823
21208 2 18.1922 12.8099 47.8898
15583 1 11.8278 17.6134 49.1465
15585 1 13.6408 17.589 46.5863
15643 1 10.9131 15.9928 46.5954
21245 2 12.7351 16.004 47.874
15532 1 17.284 17.6134 49.1465
15582 1 14.5564 16.0154 49.1557
15597 1 16.3694 15.9928 46.5954
21192 2 15.4627 17.6011 47.8649
15548 1 20.0126 16.0154 49.1557
15549 1 19.097 17.589 46.5863
21153 2 20.919 17.6011 47.8649
21191 2 18.1913 16.004 47.874
15603 1 12.7463 0.0435812 51.7587
21218 2 13.6528 1.63888 50.477
21265 2 10.9247 0.040341 50.4773
15558 1 15.4744 1.64293 51.7584
21217 2 16.381 0.040341 50.4773
15516 1 20.9306 1.64293 51.7584
15568 1 18.2026 0.0435812 51.7587
21171 2 19.1091 1.63888 50.477
15604 1 12.7462 3.2423 51.7572
21203 2 13.6526 4.83602 50.4737
21250 2 10.9246 3.23744 50.4758
15557 1 15.4742 4.84168 51.7551
21219 2 16.3809 3.23744 50.4758
15515 1 20.9304 4.84168 51.7551
15556 1 18.2024 3.2423 51.7572
21170 2 19.1088 4.83602 50.4737
15588 1 12.7459 6.44109 51.7521
21202 2 13.6522 8.03323 50.4668
21251 2 10.9243 6.43461 50.4707
15543 1 15.4738 8.04052 51.7481
21201 2 16.3806 6.43461 50.4707
15514 1 20.93 8.04052 51.7481
15559 1 18.2021 6.44109 51.7521
21163 2 19.1085 8.03323 50.4668
15589 1 12.7454 9.63998 51.7433
21189 2 13.6517 11.2305 50.4563
21242 2 10.9238 9.63186 50.462
15542 1 15.4732 11.2395 51.7376
21204 2 16.3801 9.63186 50.462
15508 1 20.9295 11.2395 51.7376
15541 1 18.2017 9.63998 51.7433
21162 2 19.1079 11.2305 50.4563
15580 1 12.7448 12.839 51.7309
21188 2 13.6509 14.4279 50.4422
21243 2 10.9232 12.8292 50.4497
15531 1 15.4725 14.4385 51.7234
21187 2 16.3794 12.8292 50.4497
15507 1 20.9288 14.4385 51.7234
15544 1 18.201 12.839 51.7309
21152 2 19.1072 14.4279 50.4422
15581 1 12.744 16.0382 51.7149
21180 2 13.6501 17.6255 50.4245
21241 2 10.9224 16.0267 50.4338
15530 1 15.4717 17.6378 51.7056
21190 2 16.3786 16.0267 50.4338
15500 1 20.9279 17.6378 51.7056
15529 1 18.2002 16.0382 51.7149
21151 2 19.1063 17.6255 50.4245
15554 1 13.6626 1.65073 54.3172
15602 1 10.9345 0.0497543 54.3175
21195 2 12.7573 0.0526674 55.595
21199 2 11.8407 1.64669 53.0363
15553 1 16.3907 0.0497543 54.3175
21156 2 15.4854 1.65446 55.5947
21168 2 17.2969 1.64669 53.0363
21216 2 14.5688 0.0465294 53.0366
15513 1 19.1188 1.65073 54.3172
21138 2 20.9416 1.65446 55.5947
21166 2 18.2136 0.0526674 55.595
21167 2 20.0251 0.0465294 53.0366
15539 1 13.6624 4.85275 54.3138
15586 1 10.9344 3.25173 54.316
21196 2 12.7572 3.25628 55.5934
21198 2 11.8405 4.84708 53.033
15555 1 16.3906 3.25173 54.316
21155 2 15.4852 4.85813 55.5912
21160 2 17.2967 4.84708 53.033
21197 2 14.5687 3.24688 53.0351
15512 1 19.1186 4.85275 54.3138
21137 2 20.9414 4.85813 55.5912
21154 2 18.2134 3.25628 55.5934
21169 2 20.025 3.24688 53.0351
15538 1 13.662 8.05488 54.3068
15587 1 10.9341 6.4538 54.3108
21181 2 12.7569 6.46 55.5881
21185 2 11.8401 8.04757 53.026
15537 1 16.3903 6.4538 54.3108
21145 2 15.4848 8.06191 55.5841
21159 2 17.2963 8.04757 53.026
21200 2 14.5684 6.44731 53.0299
15506 1 19.1182 8.05488 54.3068
21136 2 20.9411 8.06191 55.5841
21157 2 18.2132 6.46 55.5881
21158 2 20.0247 6.44731 53.0299
15527 1 13.6615 11.2572 54.2961
15578 1 10.9336 9.656 54.3019
21182 2 12.7565 9.66386 55.5792
21184 2 11.8396 11.2482 53.0153
15540 1 16.3899 9.656 54.3019
21144 2 15.4843 11.2658 55.5733
21149 2 17.2958 11.2482 53.0153
21183 2 14.568 9.64786 53.0211
15505 1 19.1177 11.2572 54.2961
21135 2 20.9406 11.2658 55.5733
21143 2 18.2127 9.66386 55.5792
21161 2 20.0242 9.64786 53.0211
15526 1 13.6608 14.4596 54.2817
15579 1 10.933 12.8583 54.2894
21175 2 12.7559 12.8679 55.5665
21179 2 11.8389 14.4489 53.001
15525 1 16.3893 12.8583 54.2894
21141 2 15.4837 14.47 55.5588
21148 2 17.2951 14.4489 53.001
21186 2 14.5674 12.8485 53.0086
15499 1 19.117 14.4596 54.2817
21134 2 20.9399 14.47 55.5588
21146 2 18.2121 12.8679 55.5665
21147 2 20.0236 12.8485 53.0086
21178 2 11.8381 17.6499 52.983
21176 2 12.7552 16.0721 55.5501
15577 1 10.9323 16.0609 54.2731
15520 1 13.66 17.6623 54.2635
21177 2 14.5666 16.0494 52.9925
21142 2 17.2943 17.6499 52.983
21140 2 15.4829 17.6743 55.5404
15528 1 16.3885 16.0609 54.2731
21150 2 20.0228 16.0494 52.9925
21139 2 18.2114 16.0721 55.5501
21133 2 20.9392 17.6743 55.5404
15498 1 19.1162 17.6623 54.2635
21485 2 13.6745 1.66218 58.152
21492 2 10.9464 0.0587467 58.1524
15535 1 11.8513 1.65849 56.8751
21484 2 16.4026 0.0587467 58.1524
15510 1 17.3076 1.65849 56.8751
15552 1 14.5795 0.0558751 56.8754
21450 2 19.1307 1.66218 58.152
15509 1 20.0357 0.0558751 56.8754
21481 2 13.6743 4.86913 58.1485
21490 2 10.9463 3.26564 58.1507
15534 1 11.8511 4.8638 56.8716
21486 2 16.4025 3.26564 58.1507
15503 1 17.3074 4.8638 56.8716
15533 1 14.5794 3.26113 56.8738
21449 2 19.1305 4.86913 58.1485
15511 1 20.0356 3.26113 56.8738
21480 2 13.6739 8.07623 58.1413
21491 2 10.946 6.47266 58.1454
15523 1 11.8508 8.06924 56.8645
21479 2 16.4023 6.47266 58.1454
15502 1 17.307 8.06924 56.8645
15536 1 14.5791 6.4665 56.8685
21444 2 19.1302 8.07623 58.1413
15501 1 20.0353 6.4665 56.8685
21470 2 13.6735 11.2835 58.1303
21488 2 10.9456 9.67983 58.1363
15522 1 11.8503 11.2748 56.8536
21482 2 16.4018 9.67983 58.1363
15496 1 17.3065 11.2748 56.8536
15521 1 14.5787 9.67202 56.8595
21443 2 19.1297 11.2835 58.1303
15504 1 20.0349 9.67202 56.8595
21469 2 13.6728 14.491 58.1155
21489 2 10.945 12.8872 58.1234
15519 1 11.8496 14.4807 56.839
21468 2 16.4013 12.8872 58.1234
15495 1 17.3059 14.4807 56.839
15524 1 14.5781 12.8777 56.8468
21430 2 19.1291 14.491 58.1155
15494 1 20.0343 12.8777 56.8468
21459 2 13.6721 17.6987 58.0969
21487 2 10.9444 16.0948 58.1067
15518 1 11.8489 17.6867 56.8205
21471 2 16.4006 16.0948 58.1067
15493 1 17.3051 17.6867 56.8205
15517 1 14.5774 16.0837 56.8302
21429 2 19.1284 17.6987 58.0969
15497 1 20.0336 16.0837 56.8302
15851 1 12.7688 0.061943 59.4324
15834 1 13.6869 1.67389 61.9881
15850 1 10.9588 0.0679826 61.9885
21477 2 11.8641 1.66984 60.7084
15838 1 15.4969 1.6662 59.432
15833 1 16.415 0.0679826 61.9885
21447 2 17.3204 1.66984 60.7084
21483 2 14.5923 0.0647587 60.7088
15792 1 20.9532 1.6662 59.432
15840 1 18.2251 0.061943 59.4324
15789 1 19.1431 1.67389 61.9881
21446 2 20.0485 0.0647587 60.7088
15852 1 12.7687 3.27049 59.4307
15826 1 13.6867 4.8858 61.9845
15846 1 10.9587 3.27983 61.9868
21476 2 11.864 4.88008 60.7048
15837 1 15.4967 4.87481 59.4285
15835 1 16.4149 3.27983 61.9868
21441 2 17.3202 4.88008 60.7048
21475 2 14.5922 3.27494 60.707
15791 1 20.953 4.87481 59.4285
15836 1 18.225 3.27049 59.4307
15788 1 19.1429 4.8858 61.9845
21448 2 20.0484 3.27494 60.707
15848 1 12.7685 6.47917 59.4253
15825 1 13.6864 8.09787 61.9771
15847 1 10.9584 6.49181 61.9812
21466 2 11.8636 8.09049 60.6974
15830 1 15.4964 8.08357 59.4212
15824 1 16.4147 6.49181 61.9812
21440 2 17.3199 8.09049 60.6974
21478 2 14.5919 6.48526 60.7016
15790 1 20.9526 8.08357 59.4212
15839 1 18.2247 6.47917 59.4253
15781 1 19.1426 8.09787 61.9771
21439 2 20.0482 6.48526 60.7016
15849 1 12.7681 9.68801 59.4162
15812 1 13.6859 11.3101 61.9658
15842 1 10.958 9.70398 61.9719
21465 2 11.8632 11.3011 60.6863
15829 1 15.4959 11.2925 59.4102
15827 1 16.4143 9.70398 61.9719
21427 2 17.3194 11.3011 60.6863
21464 2 14.5915 9.69575 60.6923
15783 1 20.9522 11.2925 59.4102
15828 1 18.2243 9.68801 59.4162
15780 1 19.1421 11.3101 61.9658
21442 2 20.0478 9.69575 60.6923
15844 1 12.7675 12.8971 59.4032
15811 1 13.6853 14.5227 61.9507
15843 1 10.9575 12.9164 61.9588
21458 2 11.8626 14.5119 60.6713
15816 1 15.4953 14.5017 59.3953
15810 1 16.4137 12.9164 61.9588
21426 2 17.3188 14.5119 60.6713
21467 2 14.591 12.9065 60.6793
15782 1 20.9516 14.5017 59.3953
15831 1 18.2238 12.8971 59.4032
15766 1 19.1416 14.5227 61.9507
21425 2 20.0472 12.9065 60.6793
15845 1 12.7669 16.1064 59.3864
15801 1 13.6846 17.7355 61.9316
15841 1 10.9569 16.129 61.9417
21457 2 11.8619 17.723 60.6523
15815 1 15.4946 17.7112 59.3765
15813 1 16.4131 16.129 61.9417
21409 2 17.3181 17.723 60.6523
21456 2 14.5904 16.1174 60.6623
15767 1 20.9509 17.7112 59.3765
15814 1 18.2231 16.1064 59.3864
15765 1 19.1409 17.7355 61.9316
21428 2 20.0466 16.1174 60.6623
15822 1 11.8774 1.68168 64.5436
21433 2 13.7014 1.68482 65.8177
21472 2 10.9733 0.0764726 65.8181
21473 2 12.7825 0.0706866 63.2641
15786 1 17.3336 1.68168 64.5436
15832 1 14.6055 0.074128 64.544
21432 2 16.4296 0.0764726 65.8181
21437 2 15.5106 1.6774 63.2637
15785 1 20.0617 0.074128 64.544
21381 2 19.1577 1.68482 65.8177
21384 2 20.9669 1.6774 63.2637
21445 2 18.2388 0.0706866 63.2641
15821 1 11.8772 4.89689 64.5399
21419 2 13.7013 4.90163 65.8139
21460 2 10.9733 3.29321 65.8163
21474 2 12.7825 3.28416 63.2623
15778 1 17.3334 4.89689 64.5399
15820 1 14.6054 3.28926 64.5422
21434 2 16.4295 3.29321 65.8163
21436 2 15.5105 4.89094 63.26
15787 1 20.0616 3.28926 64.5422
21380 2 19.1575 4.90163 65.8139
21383 2 20.9667 4.89094 63.26
21435 2 18.2387 3.28416 63.2623
15808 1 11.8769 8.11226 64.5323
21418 2 13.7009 8.11861 65.8063
21461 2 10.973 6.5101 65.8106
21462 2 12.7822 6.49777 63.2567
15777 1 17.3331 8.11226 64.5323
15823 1 14.6052 6.50455 64.5366
21417 2 16.4292 6.5101 65.8106
21423 2 15.5101 8.10464 63.2525
15776 1 20.0614 6.50455 64.5366
21373 2 19.1572 8.11861 65.8063
21382 2 20.9664 8.10464 63.2525
21438 2 18.2384 6.49777 63.2567
15807 1 11.8764 11.3279 64.5209
21404 2 13.7005 11.3358 65.7949
21452 2 10.9726 9.72718 65.8011
21463 2 12.7818 9.71157 63.2473
15763 1 17.3326 11.3279 64.5209
15806 1 14.6048 9.72003 64.5271
21420 2 16.4288 9.72718 65.8011
21422 2 15.5097 11.3186 63.2412
15779 1 20.061 9.72003 64.5271
21372 2 19.1567 11.3358 65.7949
21375 2 20.9659 11.3186 63.2412
21421 2 18.238 9.71157 63.2473
15800 1 11.8758 14.5437 64.5056
21403 2 13.6999 14.5533 65.7794
21453 2 10.9721 12.9445 65.7877
21454 2 12.7813 12.9256 63.2341
15762 1 17.332 14.5437 64.5056
15809 1 14.6042 12.9357 64.5138
21402 2 16.4283 12.9445 65.7877
21408 2 15.5091 14.5327 63.226
15761 1 20.0605 12.9357 64.5138
21358 2 19.1561 14.5533 65.7794
21374 2 20.9653 14.5327 63.226
21424 2 18.2375 12.9256 63.2341
15799 1 11.8751 17.7599 64.4863
21393 2 13.6992 17.7711 65.76
21451 2 10.9714 16.1621 65.7702
21455 2 12.7806 16.1399 63.2169
15746 1 17.3313 17.7599 64.4863
15798 1 14.6036 16.1518 64.4964
21405 2 16.4276 16.1621 65.7702
21407 2 15.5084 17.7472 63.2067
15764 1 20.0598 16.1518 64.4964
21357 2 19.1554 17.7711 65.76
21359 2 20.9646 17.7472 63.2067
21406 2 18.2369 16.1399 63.2169
15818 1 12.7964 0.0810328 67.0999
21415 2 11.8927 1.69183 68.3696
15774 1 15.5245 1.69023 67.0995
21378 2 17.3489 1.69183 68.3696
21431 2 14.6208 0.08186 68.3701
15726 1 20.9807 1.69023 67.0995
15784 1 18.2526 0.0810328 67.0999
21377 2 20.077 0.08186 68.3701
15819 1 12.7963 3.29945 67.098
21414 2 11.8925 4.91187 68.3658
15773 1 15.5243 4.90872 67.0956
21370 2 17.3487 4.91187 68.3658
21413 2 14.6207 3.30183 68.3682
15725 1 20.9805 4.90872 67.0956
15772 1 18.2525 3.29945 67.098
21379 2 20.077 3.30183 68.3682
15804 1 12.796 6.51802 67.0923
21400 2 11.8922 8.13209 68.3581
15759 1 15.5239 8.12738 67.088
21369 2 17.3484 8.13209 68.3581
21416 2 14.6205 6.52195 68.3624
15724 1 20.9802 8.12738 67.088
15775 1 18.2523 6.51802 67.0923
21368 2 20.0767 6.52195 68.3624
15805 1 12.7956 9.7368 67.0827
21399 2 11.8917 11.3526 68.3465
15758 1 15.5235 11.3463 67.0764
21355 2 17.3479 11.3526 68.3465
21398 2 14.62 9.74229 68.3528
15717 1 20.9797 11.3463 67.0764
15757 1 18.2518 9.7368 67.0827
21371 2 20.0763 9.74229 68.3528
15796 1 12.795 12.9558 67.0692
21392 2 11.891 14.5733 68.3309
15745 1 15.5228 14.5654 67.0609
21354 2 17.3472 14.5733 68.3309
21401 2 14.6195 12.9629 68.3392
15716 1 20.9791 14.5654 67.0609
15760 1 18.2513 12.9558 67.0692
21353 2 20.0757 12.9629 68.3392
15797 1 12.7944 16.1751 67.0516
21391 2 11.8902 17.7944 68.3112
15744 1 15.5221 17.7849 67.0413
21340 2 17.3465 17.7944 68.3112
21390 2 14.6188 16.1838 68.3216
15705 1 20.9783 17.7849 67.0413
15743 1 18.2506 16.1751 67.0516
21356 2 20.075 16.1838 68.3216
15751 1 11.9009 1.70476 72.2352
15770 1 13.7149 1.69745 69.6591
15817 1 10.9868 0.0866208 69.6596
21411 2 12.8121 0.0858058 70.917
15720 1 17.3571 1.70476 72.2352
15768 1 14.629 0.0922392 72.2357
15769 1 16.4431 0.0866208 69.6596
21366 2 15.5402 1.69736 70.9165
15719 1 20.0852 0.0922392 72.2357
15723 1 19.1712 1.69745 69.6591
21324 2 20.9965 1.69736 70.9165
21376 2 18.2684 0.0858058 70.917
15750 1 11.9006 4.9299 72.2313
15755 1 13.7148 4.91923 69.6552
15802 1 10.9867 3.30832 69.6576
21412 2 12.812 3.30895 70.9151
15712 1 17.3569 4.9299 72.2313
15749 1 14.6289 3.31731 72.2338
15771 1 16.443 3.30832 69.6576
21365 2 15.54 4.92058 70.9126
15721 1 20.0851 3.31731 72.2338
15722 1 19.171 4.91923 69.6552
21323 2 20.9963 4.92058 70.9126
21364 2 18.2683 3.30895 70.9151
15737 1 11.9002 8.15522 72.2236
15754 1 13.7144 8.14118 69.6475
15803 1 10.9865 6.53018 69.6519
21396 2 12.8118 6.53226 70.9093
15711 1 17.3565 8.15522 72.2236
15752 1 14.6286 6.54253 72.2279
15753 1 16.4427 6.53018 69.6519
21351 2 15.5397 8.144 70.9049
15710 1 20.0848 6.54253 72.2279
15715 1 19.1706 8.14118 69.6475
21322 2 20.9959 8.144 70.9049
21367 2 18.268 6.53226 70.9093
15736 1 11.8996 11.3808 72.2119
15741 1 13.7139 11.3634 69.6359
15794 1 10.986 9.75224 69.6422
21397 2 12.8113 9.7558 70.8996
15701 1 17.3559 11.3808 72.2119
15735 1 14.6281 9.76796 72.2182
15756 1 16.4423 9.75224 69.6422
21350 2 15.5391 11.3677 70.8932
15713 1 20.0843 9.76796 72.2182
15714 1 19.1701 11.3634 69.6359
21316 2 20.9954 11.3677 70.8932
21349 2 18.2675 9.7558 70.8996
15731 1 11.8989 14.6066 72.1961
15740 1 13.7132 14.5858 69.6202
15795 1 10.9854 12.9746 69.6286
21388 2 12.8107 12.9796 70.8859
15700 1 17.3551 14.6066 72.1961
15738 1 14.6274 12.9936 72.2045
15739 1 16.4417 12.9746 69.6286
21339 2 15.5384 14.5917 70.8775
15699 1 20.0836 12.9936 72.2045
15704 1 19.1694 14.5858 69.6202
21315 2 20.9947 14.5917 70.8775
21352 2 18.2669 12.9796 70.8859
15730 1 11.8979 17.8326 72.1763
15732 1 13.7124 17.8086 69.6005
15793 1 10.9847 16.1972 69.6109
21389 2 12.8099 16.2038 70.8682
15694 1 17.3542 17.8326 72.1763
15729 1 14.6265 16.2196 72.1867
15742 1 16.4409 16.1972 69.6109
21338 2 15.5376 17.816 70.8577
15702 1 20.0828 16.2196 72.1867
15703 1 19.1686 17.8086 69.6005
21308 2 20.9938 17.816 70.8577
21337 2 18.2662 16.2038 70.8682
15747 1 12.7564 0.106764 74.8871
21343 2 11.8926 1.7136 75.9233
21362 2 13.7299 1.70189 73.4487
21410 2 11.0018 0.0887684 73.4492
15708 1 15.4845 1.72145 74.8866
21318 2 17.3489 1.7136 75.9233
21360 2 14.6208 0.0986434 75.9238
21361 2 16.4581 0.0887684 73.4492
15690 1 20.9408 1.72145 74.8866
15718 1 18.2127 0.106764 74.8871
21317 2 20.077 0.0986434 75.9238
21321 2 19.1862 1.70189 73.4487
15748 1 12.7563 3.33616 74.8851
21342 2 11.8924 4.94362 75.9194
21347 2 13.7297 4.92823 73.4448
21394 2 11.0017 3.31504 73.4473
15707 1 15.4843 4.9509 74.8827
21311 2 17.3486 4.94362 75.9194
21341 2 14.6206 3.32859 75.9219
21363 2 16.458 3.31504 73.4473
15689 1 20.9405 4.9509 74.8827
15706 1 18.2125 3.33616 74.8851
21319 2 20.0769 3.32859 75.9219
21320 2 19.186 4.92823 73.4448
15733 1 12.7559 6.56566 74.8793
21331 2 11.8919 8.1738 75.9116
21346 2 13.7293 8.15479 73.437
21395 2 11.0014 6.54148 73.4414
15697 1 15.4837 8.18044 74.8749
21310 2 17.3481 8.1738 75.9116
21344 2 14.6203 6.55868 75.916
21345 2 16.4577 6.54148 73.4414
15688 1 20.94 8.18044 74.8749
15709 1 18.2121 6.56566 74.8793
21309 2 20.0765 6.55868 75.916
21314 2 19.1856 8.15479 73.437
15734 1 12.7553 9.79524 74.8695
21330 2 11.8912 11.4042 75.8998
21335 2 13.7287 11.3816 73.4253
21386 2 11.0009 9.76817 73.4317
15696 1 15.483 11.4101 74.8631
21304 2 17.3474 11.4042 75.8998
21329 2 14.6197 9.78896 75.9062
21348 2 16.4572 9.76817 73.4317
15687 1 20.9392 11.4101 74.8631
15695 1 18.2115 9.79524 74.8695
21312 2 20.0759 9.78896 75.9062
21313 2 19.185 11.3816 73.4253
15727 1 12.7544 13.0249 74.8558
21327 2 11.8902 14.6348 75.8839
21334 2 13.728 14.6088 73.4095
21387 2 11.0002 12.9952 73.4179
15693 1 15.4819 14.6397 74.8474
21303 2 17.3465 14.6348 75.8839
21332 2 14.6189 13.0195 75.8924
21333 2 16.4565 12.9952 73.4179
15686 1 20.9382 14.6397 74.8474
15698 1 18.2106 13.0249 74.8558
21302 2 20.0751 13.0195 75.8924
21307 2 19.1842 14.6088 73.4095
15728 1 12.7532 16.2546 74.8379
21326 2 11.8891 17.8656 75.864
21328 2 13.727 17.8364 73.3896
21385 2 10.9994 16.2226 73.4001
15692 1 15.4807 17.8694 74.8274
21301 2 17.3453 17.8656 75.864
21325 2 14.6178 16.2502 75.8745
21336 2 16.4556 16.2226 73.4001
15685 1 20.937 17.8694 74.8274
15691 1 18.2095 16.2546 74.8379
21305 2 20.0741 16.2502 75.8745
21306 2 19.1832 17.8364 73.3896
9993 2 11.8146 20.3024 -0.948255
10001 2 13.6261 20.2794 -3.45534
3648 1 12.7045 21.8563 -2.40582
9991 2 14.5435 21.8702 -0.962428
3634 1 15.4312 20.289 -2.39168
9963 2 17.2708 20.3024 -0.948255
10002 2 16.3552 21.8458 -3.46936
3632 1 18.1607 21.8563 -2.40582
3588 1 20.8874 20.289 -2.39168
9966 2 19.0823 20.2794 -3.45534
9964 2 19.9997 21.8702 -0.962428
6742 2 21.8114 21.8458 -3.46936
9992 2 11.8163 23.4381 -0.977614
9997 2 13.6282 23.4124 -3.48438
3644 1 12.7077 24.9917 -2.43711
9994 2 14.5453 25.0063 -0.993795
3633 1 15.4341 23.4239 -2.42097
9957 2 17.2725 23.4381 -0.977614
9995 2 16.3575 24.9793 -3.50037
3635 1 18.164 24.9917 -2.43711
3587 1 20.8904 23.4239 -2.42097
9965 2 19.0844 23.4124 -3.48438
9955 2 20.0015 25.0063 -0.993795
6743 2 21.8137 24.9793 -3.50037
9982 2 11.8181 26.5747 -1.01095
9996 2 13.6306 26.5465 -3.51731
3645 1 12.7116 28.1284 -2.47228
9980 2 14.5472 28.1434 -1.02905
3626 1 15.4377 26.5599 -2.45423
9956 2 17.2744 26.5747 -1.01095
9998 2 16.36 28.1141 -3.53517
3624 1 18.1678 28.1284 -2.47228
3586 1 20.8939 26.5599 -2.45423
9960 2 19.0868 26.5465 -3.51731
9958 2 20.0035 28.1434 -1.02905
6740 2 21.8163 28.1141 -3.53517
9981 2 11.8201 29.7124 -1.04807
9986 2 13.6333 29.682 -3.55392
3640 1 12.716 31.2667 -2.5111
9983 2 14.5493 31.2817 -1.06797
3625 1 15.4418 29.6974 -2.49126
9943 2 17.2764 29.7124 -1.04807
9984 2 16.3629 31.2505 -3.57352
3627 1 18.1723 31.2667 -2.5111
3579 1 20.8981 29.6974 -2.49126
9959 2 19.0895 29.682 -3.55392
9941 2 20.0055 31.2817 -1.06797
6741 2 21.8191 31.2505 -3.57352
9974 2 11.8222 32.8515 -1.08869
9985 2 13.6363 32.8194 -3.59392
3641 1 12.7211 34.4071 -2.55323
3612 1 15.4466 32.8366 -2.53178
9942 2 17.2785 32.8515 -1.08869
9972 2 14.5514 34.4218 -1.1102
9987 2 16.366 34.389 -3.61506
3610 1 18.1774 34.4071 -2.55323
3578 1 20.9029 32.8366 -2.53178
9946 2 19.0925 32.8194 -3.59392
9944 2 20.0077 34.4218 -1.1102
6739 2 21.8222 34.389 -3.61506
9973 2 11.8244 35.9926 -1.13241
9975 2 13.6395 35.9592 -3.63688
4031 1 12.7268 37.5499 -2.5982
10416 2 10.9131 37.5301 -3.65931
3611 1 15.452 35.9782 -2.57539
9925 2 17.2806 35.9926 -1.13241
10407 2 14.5536 37.5639 -1.15527
10408 2 16.3694 37.5301 -3.65931
4020 1 18.1831 37.5499 -2.5982
3563 1 20.9083 35.9782 -2.57539
9945 2 19.0958 35.9592 -3.63688
10370 2 20.0098 37.5639 -1.15527
3630 1 13.6298 20.313 0.274643
9990 2 12.7229 21.8953 1.5923
9953 2 15.4502 20.3261 1.60655
3631 1 16.3589 21.8816 0.260421
9951 2 18.1792 21.8953 1.5923
3585 1 19.0861 20.313 0.274643
9900 2 20.9064 20.3261 1.60655
570 1 21.8151 21.8816 0.260421
3622 1 13.6317 23.4503 0.24518
9978 2 12.7249 25.0342 1.56072
9952 2 15.452 23.4647 1.57701
3620 1 16.3609 25.0193 0.228935
9954 2 18.1811 25.0342 1.56072
3584 1 19.088 23.4503 0.24518
9899 2 20.9082 23.4647 1.57701
571 1 21.8172 25.0193 0.228935
3621 1 13.6339 26.5885 0.211708
9979 2 12.7271 28.1738 1.5252
9939 2 15.4541 26.6039 1.54344
3623 1 16.3632 28.158 0.193524
9937 2 18.1833 28.1738 1.5252
3577 1 19.0902 26.5885 0.211708
9898 2 20.9103 26.6039 1.54344
566 1 21.8194 28.158 0.193524
3608 1 13.6363 29.7277 0.174413
9970 2 12.7294 31.3144 1.48595
9938 2 15.4563 29.744 1.50602
3606 1 16.3657 31.2978 0.154414
9940 2 18.1856 31.3144 1.48595
3576 1 19.0926 29.7277 0.174413
9891 2 20.9126 29.744 1.50602
567 1 21.8219 31.2978 0.154414
3607 1 13.6389 32.8683 0.133574
9971 2 12.7319 34.4562 1.44331
9924 2 15.4587 32.8851 1.46503
3609 1 16.3684 34.4392 0.111946
3562 1 19.0951 32.8683 0.133574
9890 2 20.915 32.8851 1.46503
9922 2 18.1881 34.4562 1.44331
565 1 21.8246 34.4392 0.111946
3597 1 13.6416 36.0106 0.0895941
4030 1 10.9149 37.5825 0.0665913
10397 2 12.7344 37.5996 1.39774
9923 2 15.4613 36.0277 1.42086
4013 1 16.3712 37.5825 0.0665913
3561 1 19.0979 36.0106 0.0895941
9875 2 20.9175 36.0277 1.42086
10369 2 18.1907 37.5996 1.39774
3618 1 11.8112 20.3374 2.8731
3616 1 14.5402 21.9074 2.8588
9949 2 13.6296 20.3505 4.17415
3615 1 12.7202 21.9343 5.44112
3582 1 17.2674 20.3374 2.8731
3570 1 15.4473 20.3629 5.45544
9950 2 16.3586 21.9211 4.15986
3568 1 18.1764 21.9343 5.44112
3583 1 19.9965 21.9074 2.8588
3516 1 20.9035 20.3629 5.45544
9897 2 19.0858 20.3505 4.17415
6712 2 21.8149 21.9211 4.15986
3617 1 11.8131 23.4775 2.84346
3619 1 14.5423 25.0477 2.82711
9935 2 13.6315 23.4918 4.14454
3600 1 12.7224 25.077 5.40934
3574 1 17.2694 23.4775 2.84346
3569 1 15.4493 23.5056 5.42574
9933 2 16.3607 25.0626 4.12819
3571 1 18.1786 25.077 5.40934
3572 1 19.9986 25.0477 2.82711
3515 1 20.9056 23.5056 5.42574
9896 2 19.0878 23.4918 4.14454
6713 2 21.817 25.0626 4.12819
3604 1 11.8153 26.6181 2.80976
3602 1 14.5447 28.1887 2.79143
9934 2 13.6338 26.6335 4.11085
3601 1 12.7248 28.2201 5.3735
3573 1 17.2716 26.6181 2.80976
3555 1 15.4517 26.6485 5.39191
9936 2 16.3631 28.2045 4.09253
3553 1 18.1811 28.2201 5.3735
3575 1 20.0009 28.1887 2.79143
3514 1 20.9079 26.6485 5.39191
9889 2 19.09 26.6335 4.11085
6704 2 21.8193 28.2045 4.09253
3603 1 11.8178 29.7594 2.77215
3605 1 14.5472 31.3304 2.75196
9920 2 13.6362 29.7757 4.07326
3592 1 12.7276 31.3635 5.3338
3559 1 17.274 29.7594 2.77215
3554 1 15.4543 29.7917 5.35412
9918 2 16.3657 31.347 4.05308
3556 1 18.1838 31.3635 5.3338
3557 1 20.0034 31.3304 2.75196
3507 1 20.9105 29.7917 5.35412
9888 2 19.0925 29.7757 4.07326
6705 2 21.8219 31.347 4.05308
3596 1 11.8204 32.9017 2.73091
3594 1 14.5499 34.4732 2.70905
9919 2 13.6389 32.9185 4.03203
3593 1 12.7305 34.5076 5.29055
3558 1 17.2767 32.9017 2.73091
3540 1 15.4571 32.9355 5.31259
9921 2 16.3685 34.4903 4.01017
3538 1 18.1868 34.5076 5.29055
3560 1 20.0062 34.4732 2.70905
3506 1 20.9134 32.9355 5.31259
9874 2 19.0952 32.9185 4.03203
6703 2 21.8247 34.4903 4.01017
3595 1 11.8232 36.0451 2.68643
9909 2 13.6418 36.0624 3.98755
3998 1 12.7337 37.6525 5.24416
10396 2 10.9151 37.6347 3.96424
3541 1 17.2794 36.0451 2.68643
3539 1 15.4602 36.0799 5.26771
4012 1 14.5528 37.6174 2.66314
10356 2 16.3714 37.6347 3.96424
3492 1 20.9164 36.0799 5.26771
9873 2 19.098 36.0624 3.98755
3965 1 20.009 37.6174 2.66314
3964 1 18.1899 37.6525 5.24416
3566 1 13.627 20.388 8.03232
9931 2 11.8092 20.3755 6.74614
9929 2 14.5383 21.9474 6.73186
9894 2 17.2654 20.3755 6.74614
3567 1 16.3562 21.9606 8.01803
526 1 21.8124 21.9606 8.01803
3513 1 19.0833 20.388 8.03232
9895 2 19.9946 21.9474 6.73186
3551 1 13.6291 23.5331 8.00269
9930 2 11.8113 23.5194 6.71654
9932 2 14.5405 25.0913 6.70019
9886 2 17.2675 23.5194 6.71654
3549 1 16.3584 25.1057 7.98632
527 1 21.8147 25.1057 7.98632
3512 1 19.0854 23.5331 8.00269
9884 2 19.9968 25.0913 6.70019
3550 1 13.6316 26.6782 7.96891
9916 2 11.8136 26.6634 6.68283
9913 2 12.7229 28.2659 9.23809
9914 2 14.543 28.2354 6.66448
9885 2 17.2699 26.6634 6.68283
3552 1 16.361 28.2508 7.9505
9865 2 18.1791 28.2659 9.23809
518 1 21.8173 28.2508 7.9505
3505 1 19.0878 26.6782 7.96891
9887 2 19.9993 28.2354 6.66448
3536 1 13.6343 29.8233 7.93111
9915 2 11.8163 29.8075 6.64516
9904 2 12.7258 31.4119 9.19858
9917 2 14.5458 31.3797 6.62491
9866 2 15.4524 29.8389 9.21881
9871 2 17.2725 29.8075 6.64516
3534 1 16.3639 31.3959 7.91077
9868 2 18.182 31.4119 9.19858
519 1 21.8202 31.3959 7.91077
3504 1 19.0905 29.8233 7.93111
9832 2 20.9086 29.8389 9.21881
9869 2 20.002 31.3797 6.62491
3535 1 13.6373 32.9685 7.8895
9908 2 11.8192 32.9519 6.60377
9905 2 12.729 34.5577 9.15542
9906 2 14.5488 34.5243 6.58177
9855 2 15.4555 32.9848 9.17744
9870 2 17.2754 32.9519 6.60377
3537 1 16.3671 34.5411 7.86737
9853 2 18.1852 34.5577 9.15542
517 1 21.8233 34.5411 7.86737
3491 1 19.0936 32.9685 7.8895
9831 2 20.9117 32.9848 9.17744
9872 2 20.0051 34.5243 6.58177
3525 1 13.6406 36.1138 7.84442
9907 2 11.8223 36.0968 6.55899
3997 1 10.9142 37.6866 7.8207
10335 2 12.7324 37.7035 9.10895
9854 2 15.4588 36.1306 9.13257
9856 2 17.2785 36.0968 6.55899
3949 1 16.3705 37.6866 7.8207
10355 2 14.5521 37.6695 6.53549
3490 1 19.0969 36.1138 7.84442
9824 2 20.915 36.1306 9.13257
10300 2 18.1887 37.7035 9.10895
10301 2 20.0083 37.6695 6.53549
9928 2 12.7181 21.9735 9.30522
3547 1 11.8068 20.4128 10.6071
9878 2 13.625 20.425 11.8929
3545 1 14.536 21.9867 10.5929
9882 2 15.4452 20.4003 9.31942
9880 2 18.1743 21.9735 9.30522
3510 1 17.2631 20.4128 10.6071
9879 2 16.3541 21.9996 11.8788
9840 2 20.9014 20.4003 9.31942
9837 2 19.0813 20.425 11.8929
3511 1 19.9922 21.9867 10.5929
6646 2 21.8104 21.9996 11.8788
9912 2 12.7203 25.1198 9.27369
3546 1 11.8089 23.5604 10.5777
9863 2 13.6271 23.574 11.8637
3548 1 14.5382 25.1341 10.5614
9881 2 15.4473 23.5467 9.28997
9883 2 18.1765 25.1198 9.27369
3502 1 17.2652 23.5604 10.5777
9861 2 16.3563 25.1482 11.8476
9839 2 20.9035 23.5467 9.28997
9836 2 19.0833 23.574 11.8637
3500 1 19.9945 25.1341 10.5614
6647 2 21.8126 25.1482 11.8476
3532 1 11.8114 26.7077 10.5441
9862 2 13.6294 26.7224 11.8304
3530 1 14.5408 28.2812 10.5258
9867 2 15.4497 26.6929 9.25639
3501 1 17.2676 26.7077 10.5441
9864 2 16.3589 28.2964 11.8123
9838 2 20.9059 26.6929 9.25639
9830 2 19.0857 26.7224 11.8304
3503 1 19.9971 28.2812 10.5258
6638 2 21.8151 28.2964 11.8123
3531 1 11.8141 29.8547 10.5065
9851 2 13.6322 29.8703 11.7931
3533 1 14.5438 31.428 10.4863
3488 1 17.2704 29.8547 10.5065
9849 2 16.3618 31.444 11.773
9829 2 19.0884 29.8703 11.7931
3486 1 20 31.428 10.4863
6639 2 21.818 31.444 11.773
3524 1 11.8173 33.0012 10.4651
9850 2 13.6353 33.0176 11.752
3522 1 14.5471 34.5743 10.443
3487 1 17.2735 33.0012 10.4651
9852 2 16.3651 34.5911 11.73
9823 2 19.0915 33.0176 11.752
3489 1 20.0033 34.5743 10.443
6637 2 21.8213 34.5911 11.73
3523 1 11.8207 36.1474 10.42
9844 2 13.6387 36.1644 11.7072
3477 1 17.277 36.1474 10.42
3948 1 14.5507 37.7204 10.3962
10285 2 16.3687 37.7376 11.6836
9822 2 19.0949 36.1644 11.7072
7070 2 21.8249 37.7376 11.6836
3893 1 20.0069 37.7204 10.3962
3494 1 13.6229 20.4625 15.7542
9859 2 11.805 20.4499 14.4662
3544 1 12.7158 22.0127 13.167
9857 2 14.534 22.0257 14.4523
3498 1 15.443 20.4376 13.181
9834 2 17.2612 20.4499 14.4662
3496 1 18.172 22.0127 13.167
3495 1 16.3519 22.0389 15.7404
3465 1 19.0792 20.4625 15.7542
3468 1 20.8992 20.4376 13.181
9835 2 19.9902 22.0257 14.4523
454 1 21.8082 22.0389 15.7404
3480 1 13.6248 23.6152 15.7256
9858 2 11.8069 23.6013 14.4374
3528 1 12.718 25.1626 13.1358
9860 2 14.5361 25.1768 14.4215
3497 1 15.4449 23.5877 13.1519
9827 2 17.2631 23.6013 14.4374
3499 1 18.1742 25.1626 13.1358
3478 1 16.3539 25.1912 15.7098
3464 1 19.081 23.6152 15.7256
3467 1 20.9012 23.5877 13.1519
9825 2 19.9923 25.1768 14.4215
455 1 21.8101 25.1912 15.7098
3479 1 13.6269 26.7671 15.693
9847 2 11.8091 26.752 14.4046
3529 1 12.7205 28.3118 13.1006
9845 2 14.5385 28.3271 14.3867
3484 1 15.4473 26.7373 13.1187
9826 2 17.2653 26.752 14.4046
3482 1 18.1767 28.3118 13.1006
3481 1 16.3563 28.3426 15.6752
3461 1 19.0832 26.7671 15.693
3466 1 20.9035 26.7373 13.1187
9828 2 19.9947 28.3271 14.3867
446 1 21.8125 28.3426 15.6752
9846 2 11.8117 29.9019 14.3677
3472 1 13.6295 29.9179 15.6564
3520 1 12.7234 31.4602 13.0615
9848 2 14.5413 31.4765 14.3479
9820 2 17.268 29.9019 14.3677
3483 1 15.45 29.8861 13.0815
3485 1 18.1797 31.4602 13.0615
3470 1 16.3591 31.4929 15.6366
3463 1 20.9063 29.8861 13.0815
3460 1 19.0857 29.9179 15.6564
9818 2 19.9976 31.4765 14.3479
447 1 21.8153 31.4929 15.6366
9843 2 11.8148 33.0508 14.327
3471 1 13.6325 33.0676 15.6159
3521 1 12.7268 34.6078 13.0184
9841 2 14.5446 34.6249 14.3053
3473 1 16.3623 34.642 15.5942
3474 1 18.183 34.6078 13.0184
9819 2 17.271 33.0508 14.327
3476 1 15.4532 33.0341 13.0404
445 1 21.8185 34.642 15.5942
9821 2 20.0008 34.6249 14.3053
3462 1 20.9094 33.0341 13.0404
3458 1 19.0887 33.0676 15.6159
9842 2 11.8182 36.1987 14.2826
3469 1 13.636 36.216 15.5715
10284 2 14.5482 37.7722 14.2591
3927 1 12.7305 37.7546 12.9719
3475 1 15.4567 36.1813 12.9956
9817 2 17.2745 36.1987 14.2826
3877 1 16.366 37.7896 15.548
3892 1 18.1867 37.7546 12.9719
3457 1 19.0922 36.216 15.5715
3459 1 20.9129 36.1813 12.9956
10241 2 20.0045 37.7722 14.2591
854 1 21.8222 37.7896 15.548
3838 1 11.8031 20.4875 18.3269
3840 1 14.5305 18.9095 18.3394
10186 2 15.4413 20.4748 17.039
3815 1 17.2593 20.4875 18.3269
3814 1 19.9868 18.9095 18.3394
10140 2 20.8975 20.4748 17.039
10200 2 12.714 22.052 17.0254
3837 1 11.8046 23.6429 18.2989
3836 1 14.5319 22.0653 18.3134
10185 2 15.443 23.6289 17.0108
3811 1 17.2609 23.6429 18.2989
10184 2 18.1702 22.052 17.0254
3816 1 19.9882 22.0653 18.3134
10139 2 20.8992 23.6289 17.0108
10196 2 12.7158 25.2056 16.9952
3831 1 11.8065 26.7973 18.267
3839 1 14.5336 25.2203 18.2834
10178 2 15.445 26.782 16.9786
3810 1 17.2628 26.7973 18.267
10187 2 18.172 25.2056 16.9952
3809 1 19.9899 25.2203 18.2834
10138 2 20.9012 26.782 16.9786
10197 2 12.718 28.3582 16.961
3830 1 11.8088 29.9505 18.2311
3829 1 14.5357 28.3741 18.2495
10177 2 15.4474 29.9341 16.9424
3799 1 17.2651 29.9505 18.2311
10176 2 18.1743 28.3582 16.961
3812 1 19.992 28.3741 18.2495
10131 2 20.9036 29.9341 16.9424
10192 2 12.7207 31.5096 16.9229
3824 1 11.8116 33.1021 18.1914
3832 1 14.5383 31.5265 18.2117
3798 1 17.2678 33.1021 18.1914
10164 2 15.4503 33.0848 16.9024
10179 2 18.1769 31.5096 16.9229
3797 1 19.9945 31.5265 18.2117
10130 2 20.9065 33.0848 16.9024
10193 2 12.7238 34.6596 16.8809
3823 1 11.8149 36.252 18.1478
3822 1 14.5413 34.6773 18.1701
3781 1 17.2711 36.252 18.1478
10163 2 15.4536 36.234 16.8586
10162 2 18.18 34.6596 16.8809
3800 1 19.9975 34.6773 18.1701
10115 2 20.9098 36.234 16.8586
10182 2 13.6215 20.5 19.6114
3834 1 12.711 18.9334 20.9112
10170 2 11.802 20.5255 22.1832
10180 2 14.5297 18.9453 22.1952
10181 2 16.3491 18.9213 19.6237
3807 1 15.4396 20.5129 20.899
10134 2 17.2583 20.5255 22.1832
3813 1 18.1672 18.9334 20.9112
10137 2 19.0778 20.5 19.6114
3756 1 20.8959 20.5129 20.899
10133 2 19.9859 18.9453 22.1952
6934 2 21.8053 18.9213 19.6237
10174 2 13.6229 23.6568 19.5838
3835 1 12.7121 22.0921 20.8858
10169 2 11.8031 23.6852 22.1562
10168 2 14.5306 22.1055 22.1702
10183 2 16.3503 22.0785 19.5981
3806 1 15.4409 23.6711 20.8717
10126 2 17.2593 23.6852 22.1562
3805 1 18.1683 22.0921 20.8858
10136 2 19.0792 23.6568 19.5838
3755 1 20.8971 23.6711 20.8717
10135 2 19.9869 22.1055 22.1702
6930 2 21.8066 22.0785 19.5981
10173 2 13.6246 26.8126 19.5523
3827 1 12.7135 25.2498 20.8566
10156 2 11.8044 26.8437 22.1255
10171 2 14.5318 25.2646 22.1413
10172 2 16.3519 25.2348 19.5685
3795 1 15.4424 26.8282 20.8405
10125 2 17.2606 26.8437 22.1255
3808 1 18.1697 25.2498 20.8566
10129 2 19.0809 26.8126 19.5523
3754 1 20.8987 26.8282 20.8405
10124 2 19.9881 25.2646 22.1413
6931 2 21.8081 25.2348 19.5685
10160 2 13.6267 29.967 19.5169
3828 1 12.7152 28.4062 20.8235
10155 2 11.8061 30.0008 22.0911
10154 2 14.5333 28.4225 22.1088
10175 2 16.3538 28.39 19.5351
3794 1 15.4443 29.9839 20.8056
10111 2 17.2623 30.0008 22.0911
3793 1 18.1714 28.4062 20.8235
10128 2 19.083 29.967 19.5169
3747 1 20.9006 29.9839 20.8056
10127 2 19.9896 28.4225 22.1088
6926 2 21.81 28.39 19.5351
10159 2 13.6293 33.1198 19.4777
3820 1 12.7173 31.5611 20.7867
10148 2 11.8082 33.1562 22.0529
10157 2 14.5352 31.5788 22.0724
10158 2 16.3561 31.5436 19.4978
3780 1 15.4467 33.1378 20.7668
10110 2 17.2644 33.1562 22.0529
3796 1 18.1736 31.5611 20.7867
10114 2 19.0855 33.1198 19.4777
3746 1 20.9029 33.1378 20.7668
10109 2 19.9914 31.5788 22.0724
6927 2 21.8123 31.5436 19.4978
10149 2 13.6324 36.2708 19.4348
3821 1 12.72 34.714 20.746
10147 2 11.8109 36.3093 22.011
10146 2 14.5376 34.7331 22.0324
10161 2 16.3589 34.6956 19.4567
3779 1 15.4496 36.2896 20.7243
10093 2 17.2671 36.3093 22.011
3778 1 18.1762 34.714 20.746
10113 2 19.0886 36.2708 19.4348
3731 1 20.9059 36.2896 20.7243
10112 2 19.9938 34.7331 22.0324
6925 2 21.8151 34.6956 19.4567
3803 1 13.6202 20.5385 23.4704
10166 2 12.7107 18.9695 24.7659
3802 1 16.348 18.9575 23.4823
10122 2 15.4391 20.5513 24.7542
10132 2 18.1669 18.9695 24.7659
3753 1 19.0765 20.5385 23.4704
10068 2 20.8953 20.5513 24.7542
761 1 21.8042 18.9575 23.4823
3791 1 13.6211 23.6997 23.4438
10167 2 12.7113 22.1328 24.7415
3804 1 16.3488 22.1192 23.4576
10121 2 15.4397 23.714 24.7279
10120 2 18.1675 22.1328 24.7415
3752 1 19.0773 23.6997 23.4438
10067 2 20.896 23.714 24.7279
753 1 21.805 22.1192 23.4576
3790 1 13.6222 26.8597 23.4135
10152 2 12.712 25.295 24.7134
3789 1 16.3497 25.2799 23.4291
10107 2 15.4406 26.8756 24.6981
10123 2 18.1683 25.295 24.7134
3745 1 19.0785 26.8597 23.4135
10066 2 20.8969 26.8756 24.6981
754 1 21.806 25.2799 23.4291
3776 1 13.6237 30.0182 23.3795
10153 2 12.7131 28.4558 24.6818
3792 1 16.351 28.4392 23.397
10106 2 15.4418 30.0357 24.6646
10105 2 18.1693 28.4558 24.6818
3744 1 19.0799 30.0182 23.3795
10059 2 20.8981 30.0357 24.6646
746 1 21.8073 28.4392 23.397
3764 1 11.8045 33.2134 25.9163
3775 1 13.6255 33.1749 23.3419
10144 2 12.7144 31.6151 24.6465
3726 1 17.2607 33.2134 25.9163
3774 1 16.3527 31.5968 23.3612
10092 2 15.4434 33.1939 24.6276
10108 2 18.1707 31.6151 24.6465
3730 1 19.0818 33.1749 23.3419
10058 2 20.8996 33.1939 24.6276
747 1 21.8089 31.5968 23.3612
3763 1 11.8062 36.3709 25.8763
3765 1 13.628 36.3292 23.3006
10145 2 12.7162 34.7722 24.6077
3762 1 14.5334 34.7925 25.8968
3710 1 17.2625 36.3709 25.8763
3777 1 16.3548 34.7524 23.3217
10091 2 15.4455 36.3499 24.5869
10090 2 18.1725 34.7722 24.6077
745 1 21.811 34.7524 23.3217
10044 2 20.9017 36.3499 24.5869
3728 1 19.9896 34.7925 25.8968
3729 1 19.0842 36.3292 23.3006
3787 1 11.8012 20.5644 26.041
3801 1 14.5291 18.9819 26.0526
3783 1 12.7107 19.0066 28.622
10118 2 13.6203 20.5774 27.3243
3750 1 17.2574 20.5644 26.041
3738 1 15.4388 20.5907 28.6107
10117 2 16.3483 18.9941 27.3358
3748 1 18.1669 19.0066 28.622
3749 1 19.9854 18.9819 26.0526
3690 1 20.8951 20.5907 28.6107
10065 2 19.0765 20.5774 27.3243
6901 2 21.8045 18.9941 27.3358
3786 1 11.8017 23.7288 26.0151
3785 1 14.5295 22.1467 26.0285
3784 1 12.7107 22.1746 28.5985
10103 2 13.6206 23.7433 27.2988
3742 1 17.2579 23.7288 26.0151
3737 1 15.4389 23.7583 28.5855
10119 2 16.3485 22.1605 27.312
3736 1 18.167 22.1746 28.5985
3751 1 19.9858 22.1467 26.0285
3689 1 20.8951 23.7583 28.5855
10064 2 19.0768 23.7433 27.2988
6886 2 21.8048 22.1605 27.312
3772 1 11.8023 26.8919 25.9857
3788 1 14.5301 25.3105 26.0008
3768 1 12.7109 25.3417 28.5716
10102 2 13.621 26.9082 27.2697
3741 1 17.2586 26.8919 25.9857
3723 1 15.4391 26.9248 28.5568
10101 2 16.3489 25.3259 27.2847
3739 1 18.1671 25.3417 28.5716
3740 1 19.9863 25.3105 26.0008
3688 1 20.8953 26.9248 28.5568
10057 2 19.0772 26.9082 27.2697
6887 2 21.8051 25.3259 27.2847
3771 1 11.8032 30.0536 25.9527
3770 1 14.5309 28.473 25.9696
3769 1 12.7111 28.5076 28.5413
10088 2 13.6216 30.0715 27.2372
3727 1 17.2595 30.0536 25.9527
3722 1 15.4394 30.09 28.5249
10104 2 16.3494 28.4901 27.2539
3721 1 18.1673 28.5076 28.5413
3743 1 19.9871 28.473 25.9696
3681 1 20.8956 30.09 28.5249
10056 2 19.0779 30.0715 27.2372
6878 2 21.8056 28.4901 27.2539
3773 1 14.5319 31.6338 25.9349
3760 1 12.7115 31.6719 28.5076
10087 2 13.6225 33.2331 27.2013
3709 1 15.44 33.2534 28.4896
10086 2 16.3502 31.6526 27.2197
3724 1 18.1678 31.6719 28.5076
3725 1 19.9882 31.6338 25.9349
3680 1 20.8962 33.2534 28.4896
10043 2 19.0788 33.2331 27.2013
6879 2 21.8064 31.6526 27.2197
3761 1 12.7123 34.8343 28.4707
10077 2 13.6239 36.3924 27.162
3708 1 15.4409 36.4145 28.4511
10089 2 16.3513 34.8131 27.1821
3707 1 18.1685 34.8343 28.4707
3669 1 20.8972 36.4145 28.4511
10042 2 19.0802 36.3924 27.162
6877 2 21.8075 34.8131 27.1821
3734 1 13.6208 20.6173 31.1793
10095 2 12.7126 19.0439 32.4725
10099 2 11.802 20.6038 29.8935
10116 2 14.5301 19.0189 29.9047
3733 1 16.3491 19.0315 31.1904
10050 2 15.4405 20.6306 32.4616
10062 2 17.2582 20.6038 29.8935
10060 2 18.1688 19.0439 32.4725
3687 1 19.077 20.6173 31.1793
10020 2 20.8967 20.6306 32.4616
10061 2 19.9864 19.0189 29.9047
710 1 21.8053 19.0315 31.1904
3719 1 13.6205 23.7883 31.1547
10096 2 12.7121 22.217 32.4498
10098 2 11.8019 23.7731 29.8685
10097 2 14.53 22.1886 29.8814
3735 1 16.3487 22.2029 31.1674
10049 2 15.44 23.8033 32.4371
10054 2 17.2581 23.7731 29.8685
10048 2 18.1684 22.217 32.4498
3686 1 19.0767 23.7883 31.1547
10019 2 20.8963 23.8033 32.4371
10063 2 19.9863 22.1886 29.8814
694 1 21.805 22.2029 31.1674
3718 1 13.6202 26.9584 31.1268
10080 2 12.7117 25.3894 32.4237
10084 2 11.8018 26.9414 29.8402
10100 2 14.5299 25.3574 29.8548
3717 1 16.3484 25.3735 31.1411
10036 2 15.4395 26.9752 32.4095
10053 2 17.2581 26.9414 29.8402
10051 2 18.1679 25.3894 32.4237
3679 1 19.0764 26.9584 31.1268
10018 2 20.8958 26.9752 32.4095
10052 2 19.9862 25.3574 29.8548
695 1 21.8047 25.3735 31.1411
3705 1 13.6199 30.1272 31.0957
10081 2 12.7112 28.5607 32.3944
10083 2 11.8019 30.1084 29.8087
10082 2 14.53 28.525 29.8249
3720 1 16.3482 28.543 31.1116
10035 2 15.4391 30.146 32.3787
10040 2 17.2581 30.1084 29.8087
10034 2 18.1674 28.5607 32.3944
3678 1 19.0762 30.1272 31.0957
10015 2 20.8953 30.146 32.3787
10055 2 19.9862 28.525 29.8249
686 1 21.8044 28.543 31.1116
3704 1 13.6198 33.2946 31.0615
10072 2 12.7107 31.7309 32.3621
10076 2 11.8022 33.2737 29.7739
10085 2 14.5301 31.6913 29.7917
3703 1 16.348 31.7111 31.079
10028 2 15.4387 33.3155 32.3448
10039 2 17.2584 33.2737 29.7739
10037 2 18.167 31.7309 32.3621
3668 1 19.0761 33.2946 31.0615
10014 2 20.8949 33.3155 32.3448
10038 2 19.9864 31.6913 29.7917
687 1 21.8042 31.7111 31.079
3696 1 13.6199 36.46 31.0242
10073 2 12.7104 34.8996 32.3268
10075 2 11.8027 36.437 29.7359
10074 2 14.5305 34.8556 29.7553
3706 1 16.348 34.8776 31.0432
10027 2 15.4385 36.4832 32.308
10029 2 17.259 36.437 29.7359
10026 2 18.1667 34.8996 32.3268
3667 1 19.0762 36.46 31.0242
10011 2 20.8947 36.4832 32.308
10041 2 19.9868 34.8556 29.7553
685 1 21.8042 34.8776 31.0432
3715 1 11.8033 20.6442 33.7468
10046 2 13.6234 20.6576 35.0285
3732 1 14.5318 19.0567 33.7577
3684 1 17.2596 20.6442 33.7468
10045 2 16.3519 19.0692 35.0393
3683 1 19.988 19.0567 33.7577
10017 2 19.0796 20.6576 35.0285
6830 2 21.8081 19.0692 35.0393
3714 1 11.8027 23.8187 33.7227
10032 2 13.6226 23.8339 35.0044
3713 1 14.5311 22.2315 33.7352
3676 1 17.2589 23.8187 33.7227
10047 2 16.3511 22.2458 35.0169
3685 1 19.9874 22.2315 33.7352
10016 2 19.0789 23.8339 35.0044
6814 2 21.8074 22.2458 35.0169
3716 1 14.5305 25.4057 33.7094
3701 1 11.802 26.9924 33.6953
10031 2 13.6218 27.0095 34.9772
10030 2 16.3503 25.4218 34.9912
3675 1 17.2582 26.9924 33.6953
10013 2 19.078 27.0095 34.9772
3674 1 19.9867 25.4057 33.7094
6815 2 21.8066 25.4218 34.9912
3699 1 14.5297 28.579 33.6805
10024 2 13.6208 30.1844 34.947
3700 1 11.8012 30.1653 33.6649
10033 2 16.3494 28.597 34.9625
3665 1 17.2574 30.1653 33.6649
10012 2 19.0771 30.1844 34.947
3677 1 19.9859 28.579 33.6805
6806 2 21.8057 28.597 34.9625
3702 1 14.5289 31.7513 33.6486
10023 2 13.6199 33.3582 34.9138
3695 1 11.8004 33.3369 33.6316
10022 2 16.3485 31.7714 34.9308
3664 1 17.2567 33.3369 33.6316
10010 2 19.0761 33.3582 34.9138
3663 1 19.9852 31.7513 33.6486
6807 2 21.8047 31.7714 34.9308
3693 1 14.5282 34.9222 33.6138
10021 2 13.6189 36.5308 34.8779
3694 1 11.7998 36.5071 33.5954
10025 2 16.3475 34.9447 34.8962
3658 1 17.256 36.5071 33.5954
10009 2 19.0751 36.5308 34.8779
3666 1 19.9844 34.9222 33.6138
6805 2 21.8037 34.9447 34.8962
10222 2 11.807 20.6848 37.5942
16037 1 13.6268 20.6986 38.8782
3711 1 12.7151 19.0821 36.3239
10224 2 14.5356 19.0947 37.6049
10211 2 17.2633 20.6848 37.5942
16036 1 16.3554 19.1076 38.8888
3672 1 15.4428 20.6713 36.3132
3682 1 18.1714 19.0821 36.3239
10210 2 19.9918 19.0947 37.6049
16002 1 19.0831 20.6986 38.8782
3654 1 20.8991 20.6713 36.3132
13224 1 21.8117 19.1076 38.8888
10221 2 11.806 23.8647 37.5703
16033 1 13.6257 23.8804 38.8545
3712 1 12.7143 22.2604 36.3016
10220 2 14.5347 22.2748 37.5826
10208 2 17.2623 23.8647 37.5703
16038 1 16.3544 22.2895 38.8667
3671 1 15.4419 23.8494 36.2893
3670 1 18.1705 22.2604 36.3016
10212 2 19.9909 22.2748 37.5826
16001 1 19.0819 23.8804 38.8545
3653 1 20.8981 23.8494 36.2893
13222 1 21.8106 22.2895 38.8667
10218 2 11.8049 27.0442 37.5434
16032 1 13.6243 27.0619 38.8277
3697 1 12.7133 25.4383 36.2762
10223 2 14.5336 25.4545 37.5572
10207 2 17.2611 27.0442 37.5434
16031 1 16.3531 25.4712 38.8415
3661 1 15.4408 27.027 36.2623
3673 1 18.1695 25.4383 36.2762
10206 2 19.9898 25.4545 37.5572
15996 1 19.0806 27.0619 38.8277
3652 1 20.8971 27.027 36.2623
13223 1 21.8094 25.4712 38.8415
10217 2 11.8035 30.2232 37.5135
16022 1 13.6228 30.243 38.7979
3698 1 12.7121 28.6155 36.2477
10216 2 14.5323 28.6338 37.5288
10204 2 17.2598 30.2232 37.5135
16034 1 16.3517 28.6525 38.8132
3660 1 15.4396 30.2039 36.2324
3659 1 18.1684 28.6155 36.2477
10209 2 19.9886 28.6338 37.5288
15995 1 19.079 30.243 38.7979
3651 1 20.8959 30.2039 36.2324
13220 1 21.808 28.6525 38.8132
10215 2 11.8021 33.4017 37.4807
16021 1 13.6211 33.4239 38.7654
3691 1 12.7109 31.7921 36.2163
10219 2 14.531 31.8125 37.4974
10203 2 17.2584 33.4017 37.4807
16020 1 16.3501 31.8335 38.782
3657 1 15.4383 33.3801 36.1996
3662 1 18.1671 31.7921 36.2163
10202 2 19.9872 31.8125 37.4974
15982 1 19.0773 33.4239 38.7654
3650 1 20.8945 33.3801 36.1996
13221 1 21.8063 31.8335 38.782
10214 2 11.8006 36.5794 37.4452
16011 1 13.6192 36.6044 38.7302
3692 1 12.7095 34.9678 36.1822
10213 2 14.5295 34.9906 37.4633
10201 2 17.2568 36.5794 37.4452
16023 1 16.3483 35.0142 38.7481
3656 1 15.4369 36.5553 36.1641
3655 1 18.1657 34.9678 36.1822
10205 2 19.9857 34.9906 37.4633
15981 1 19.0754 36.6044 38.7302
3649 1 20.8932 36.5553 36.1641
13219 1 21.8045 35.0142 38.7481
21659 2 12.7201 19.1204 40.1692
16029 1 11.8116 20.7261 41.4419
16035 1 14.5403 19.1334 41.4526
21646 2 15.4476 20.7122 40.1585
15999 1 17.2678 20.7261 41.4419
21648 2 18.1763 19.1204 40.1692
15998 1 19.9965 19.1334 41.4526
21600 2 20.9039 20.7122 40.1585
21660 2 12.719 22.3041 40.1471
16028 1 11.8103 23.9116 41.4182
16027 1 14.5391 22.3189 41.4305
21645 2 15.4465 23.8958 40.1348
15993 1 17.2665 23.9116 41.4182
21644 2 18.1752 22.3041 40.1471
16000 1 19.9953 22.3189 41.4305
21599 2 20.9027 23.8958 40.1348
21656 2 12.7177 25.4875 40.1217
16018 1 11.8088 27.097 41.3913
16030 1 14.5377 25.5043 41.4052
21638 2 15.4451 27.0792 40.1079
15992 1 17.265 27.097 41.3913
21647 2 18.1739 25.4875 40.1217
15991 1 19.9939 25.5043 41.4052
21598 2 20.9013 27.0792 40.1079
21657 2 12.7162 28.6709 40.0933
16017 1 11.8071 30.2824 41.3615
16016 1 14.5361 28.6897 41.3768
21637 2 15.4435 30.2625 40.078
15979 1 17.2633 30.2824 41.3615
21636 2 18.1725 28.6709 40.0933
15994 1 19.9923 28.6897 41.3768
21591 2 20.8998 30.2625 40.078
21652 2 12.7146 31.854 40.062
16010 1 11.8051 33.468 41.3288
16019 1 14.5343 31.8752 41.3455
15978 1 17.2614 33.468 41.3288
21624 2 15.4418 33.4456 40.0453
21639 2 18.1708 31.854 40.062
15977 1 19.9905 31.8752 41.3455
21590 2 20.898 33.4456 40.0453
21653 2 12.7127 35.0371 40.0279
16009 1 11.8029 36.6538 41.2934
21609 2 13.6244 36.678 42.5716
16008 1 14.5322 35.0608 41.3114
15961 1 17.2592 36.6538 41.2934
21621 2 16.3536 35.0838 42.5899
21623 2 15.4399 36.6286 40.0098
21622 2 18.169 35.0371 40.0279
15980 1 19.9884 35.0608 41.3114
21573 2 19.0806 36.678 42.5716
21575 2 20.8961 36.6286 40.0098
18829 2 21.8098 35.0838 42.5899
21642 2 13.6328 20.7399 42.7216
16025 1 12.7258 19.1593 44.0151
21630 2 11.8187 20.7676 45.2834
21640 2 14.5474 19.1722 45.2942
21641 2 16.3615 19.1462 42.7323
15989 1 15.4533 20.7538 44.0043
21594 2 17.275 20.7676 45.2834
15997 1 18.182 19.1593 44.0151
21597 2 19.089 20.7399 42.7216
15936 1 20.9096 20.7538 44.0043
21593 2 20.0037 19.1722 45.2942
18838 2 21.8177 19.1462 42.7323
21634 2 13.6315 23.9271 42.6978
16026 1 12.7246 22.3484 43.9928
21629 2 11.8174 23.9585 45.2593
21628 2 14.5462 22.363 45.2718
21643 2 16.3603 22.3335 42.7101
15988 1 15.452 23.943 43.9805
21586 2 17.2737 23.9585 45.2593
15987 1 18.1808 22.3484 43.9928
21596 2 19.0878 23.9271 42.6978
15935 1 20.9082 23.943 43.9805
21595 2 20.0024 22.363 45.2718
18834 2 21.8165 22.3335 42.7101
21633 2 13.63 27.1144 42.6707
16014 1 12.7231 25.5376 43.9673
21616 2 11.8159 27.1498 45.2319
21631 2 14.5448 25.5541 45.246
21632 2 16.3589 25.5208 42.6846
15975 1 15.4504 27.1323 43.9533
21585 2 17.2722 27.1498 45.2319
15990 1 18.1794 25.5376 43.9673
21589 2 19.0863 27.1144 42.6707
15934 1 20.9067 27.1323 43.9533
21584 2 20.0011 25.5541 45.246
18835 2 21.8152 25.5208 42.6846
21620 2 13.6284 30.3019 42.6406
16015 1 12.7215 28.7271 43.9386
21615 2 11.8142 30.3414 45.2013
21614 2 14.5432 28.7455 45.217
21635 2 16.3573 28.7081 42.6561
15974 1 15.4487 30.3219 43.9231
21571 2 17.2705 30.3414 45.2013
15973 1 18.1777 28.7271 43.9386
21588 2 19.0846 30.3019 42.6406
15927 1 20.9049 30.3219 43.9231
21587 2 19.9995 28.7455 45.217
18830 2 21.8136 28.7081 42.6561
21619 2 13.6265 33.4897 42.6076
16006 1 12.7196 31.917 43.9069
21608 2 11.8123 33.5338 45.1676
21617 2 14.5414 31.9375 45.1848
21618 2 16.3556 31.8958 42.6245
15960 1 15.4467 33.5122 43.8899
21570 2 17.2686 33.5338 45.1676
15976 1 18.1758 31.917 43.9069
21574 2 19.0827 33.4897 42.6076
15926 1 20.9029 33.5122 43.8899
21569 2 19.9977 31.9375 45.1848
18831 2 21.8118 31.8958 42.6245
16007 1 12.7174 35.1076 43.8722
21607 2 11.8103 36.7271 45.1307
21606 2 14.5394 35.1303 45.1495
15959 1 15.4444 36.7033 43.8538
21554 2 17.2665 36.7271 45.1307
15958 1 18.1737 35.1076 43.8722
15911 1 20.9006 36.7033 43.8538
21572 2 19.9957 35.1303 45.1495
15967 1 11.8267 20.8095 49.1254
15985 1 13.6396 20.7816 46.5655
21626 2 12.7341 19.1982 47.8548
15930 1 17.2829 20.8095 49.1254
15983 1 14.5554 19.2114 49.1364
15984 1 16.3683 19.1853 46.5763
21582 2 15.4616 20.7954 47.8439
15929 1 20.0116 19.2114 49.1364
15933 1 19.0959 20.7816 46.5655
21534 2 20.9179 20.7954 47.8439
21592 2 18.1903 19.1982 47.8548
13204 1 21.8246 19.1853 46.5763
15966 1 11.8254 24.006 49.1007
15971 1 13.6383 23.9744 46.5413
21627 2 12.7329 22.3927 47.8321
15922 1 17.2817 24.006 49.1007
15965 1 14.5542 22.4077 49.1135
15986 1 16.3671 22.378 46.5538
21581 2 15.4604 23.99 47.8194
15931 1 20.0104 22.4077 49.1135
15932 1 19.0945 23.9744 46.5413
21533 2 20.9166 23.99 47.8194
21580 2 18.1891 22.3927 47.8321
13192 1 21.8233 22.378 46.5538
15952 1 11.824 27.203 49.0725
15970 1 13.6368 27.1676 46.5137
21612 2 12.7316 25.5875 47.8059
15921 1 17.2802 27.203 49.0725
15968 1 14.5528 25.6044 49.0871
15969 1 16.3657 25.571 46.5279
21567 2 15.4589 27.1851 47.7915
15920 1 20.0091 25.6044 49.0871
15925 1 19.093 27.1676 46.5137
21532 2 20.9152 27.1851 47.7915
21583 2 18.1878 25.5875 47.8059
13193 1 21.8219 25.571 46.5279
15951 1 11.8224 30.4008 49.0409
15956 1 13.6351 30.3615 46.4829
21613 2 12.73 28.7828 47.7763
15907 1 17.2787 30.4008 49.0409
15950 1 14.5513 28.8018 49.0571
15972 1 16.3641 28.7645 46.4987
21566 2 15.4573 30.3808 47.7602
21565 2 18.1863 28.7828 47.7763
15923 1 20.0076 28.8018 49.0571
15924 1 19.0913 30.3615 46.4829
21525 2 20.9136 30.3808 47.7602
13184 1 21.8203 28.7645 46.4987
15944 1 11.8207 33.5999 49.0057
15955 1 13.6331 33.5562 46.4488
21604 2 12.7284 31.979 47.7433
15953 1 14.5497 32.0002 49.0237
15906 1 17.2769 33.5999 49.0057
15954 1 16.3622 31.9587 46.4662
21553 2 15.4556 33.5776 47.7255
21568 2 18.1846 31.979 47.7433
15905 1 20.0059 32.0002 49.0237
15910 1 19.0894 33.5562 46.4488
21524 2 20.9118 33.5776 47.7255
13185 1 21.8185 31.9587 46.4662
15943 1 11.8188 36.8008 48.967
15945 1 13.631 36.7524 46.4115
21605 2 12.7265 35.1764 47.7068
15942 1 14.5479 35.2001 48.9868
15892 1 17.275 36.8008 48.967
15957 1 16.3602 35.1541 46.4306
21552 2 15.4537 36.7758 47.6873
21551 2 18.1828 35.1764 47.7068
15908 1 20.0041 35.2001 48.9868
15909 1 19.0872 36.7524 46.4115
21513 2 20.9099 36.7758 47.6873
13183 1 21.8164 35.1541 46.4306
15963 1 12.7431 19.2376 51.6953
21578 2 13.649 20.8233 50.4032
21625 2 10.9214 19.2244 50.4143
15918 1 15.4707 20.8374 51.684
21577 2 16.3777 19.2244 50.4143
15876 1 20.9269 20.8374 51.684
15928 1 18.1993 19.2376 51.6953
21531 2 19.1053 20.8233 50.4032
15964 1 12.742 22.4374 51.6719
21563 2 13.6478 24.0215 50.3782
21610 2 10.9203 22.4224 50.3911
15917 1 15.4695 24.0375 51.6589
21579 2 16.3766 22.4224 50.3911
15875 1 20.9257 24.0375 51.6589
15916 1 18.1982 22.4374 51.6719
21530 2 19.1041 24.0215 50.3782
15948 1 12.7408 25.6377 51.6449
21562 2 13.6465 27.2203 50.3496
21611 2 10.9191 25.6208 50.3644
15903 1 15.4682 27.2382 51.63
21561 2 16.3753 25.6208 50.3644
15874 1 20.9245 27.2382 51.63
15919 1 18.197 25.6377 51.6449
21523 2 19.1028 27.2203 50.3496
15949 1 12.7394 28.8389 51.6141
21549 2 13.6451 30.42 50.3174
21602 2 10.9177 28.82 50.334
15902 1 15.4668 30.4399 51.5973
21564 2 16.3739 28.82 50.334
15868 1 20.9231 30.4399 51.5973
15901 1 18.1957 28.8389 51.6141
21522 2 19.1013 30.42 50.3174
15940 1 12.738 32.0413 51.5796
21548 2 13.6435 33.6209 50.2816
21603 2 10.9162 32.0203 50.3
15891 1 15.4654 33.643 51.5609
21547 2 16.3724 32.0203 50.3
15867 1 20.9216 33.643 51.5609
15904 1 18.1942 32.0413 51.5796
21512 2 19.0998 33.6209 50.2816
15941 1 12.7365 35.2453 51.5412
21540 2 13.6419 36.8236 50.2419
21601 2 10.9146 35.222 50.2622
15890 1 15.4638 36.8482 51.5206
21550 2 16.3708 35.222 50.2622
15860 1 20.9201 36.8482 51.5206
15889 1 18.1927 35.2453 51.5412
21511 2 19.0981 36.8236 50.2419
15914 1 13.6591 20.8654 54.2416
15962 1 10.9314 19.2638 54.253
21555 2 12.7544 19.2767 55.5298
21559 2 11.8371 20.8512 52.9613
15913 1 16.3876 19.2638 54.253
21516 2 15.482 20.8791 55.5183
21528 2 17.2933 20.8512 52.9613
21576 2 14.5657 19.2505 52.9726
15873 1 19.1153 20.8654 54.2416
21498 2 20.9383 20.8791 55.5183
21526 2 18.2106 19.2767 55.5298
21527 2 20.0219 19.2505 52.9726
15899 1 13.658 24.0689 54.2158
15946 1 10.9304 22.4671 54.2292
21556 2 12.7534 22.4817 55.5057
21558 2 11.836 24.053 52.9358
15915 1 16.3867 22.4671 54.2292
21515 2 15.4811 24.0844 55.4922
21520 2 17.2923 24.053 52.9358
21557 2 14.5647 22.452 52.949
15872 1 19.1143 24.0689 54.2158
21497 2 20.9373 24.0844 55.4922
21514 2 18.2097 22.4817 55.5057
21529 2 20.0209 22.452 52.949
15898 1 13.6569 27.2733 54.1862
15947 1 10.9294 25.671 54.2015
21541 2 12.7525 25.6872 55.4777
21545 2 11.8349 27.2554 52.9065
15897 1 16.3856 25.671 54.2015
21505 2 15.4801 27.2903 55.4621
21519 2 17.2911 27.2554 52.9065
21560 2 14.5636 25.6541 52.9216
15866 1 19.1132 27.2733 54.1862
21496 2 20.9363 27.2903 55.4621
21517 2 18.2087 25.6872 55.4777
21518 2 20.0198 25.6541 52.9216
15887 1 13.6558 30.4786 54.1525
15938 1 10.9282 28.8758 54.1698
21542 2 12.7514 28.8937 55.4456
21544 2 11.8336 30.4589 52.8733
15900 1 16.3845 28.8758 54.1698
21504 2 15.479 30.4973 55.4279
21509 2 17.2898 30.4589 52.8733
21543 2 14.5624 28.857 52.8904
15865 1 19.112 30.4786 54.1525
21495 2 20.9352 30.4973 55.4279
21503 2 18.2076 28.8937 55.4456
21521 2 20.0186 28.857 52.8904
15886 1 13.6546 33.6855 54.1148
15939 1 10.927 32.0819 54.1342
21535 2 12.7503 32.1013 55.4093
21539 2 11.8323 33.6637 52.8361
21546 2 14.5611 32.0611 52.8552
21508 2 17.2885 33.6637 52.8361
15885 1 16.3833 32.0819 54.1342
21501 2 15.4779 33.7057 55.3895
21507 2 20.0173 32.0611 52.8552
21506 2 18.2066 32.1013 55.4093
21494 2 20.9342 33.7057 55.3895
15859 1 19.1108 33.6855 54.1148
21538 2 11.8309 36.8703 52.7949
21536 2 12.7493 35.3105 55.3687
15937 1 10.9258 35.2897 54.0943
15880 1 13.6534 36.8944 54.0727
21537 2 14.5597 35.2667 52.816
21502 2 17.2872 36.8703 52.7949
21500 2 15.4768 36.9159 55.3467
15888 1 16.3821 35.2897 54.0943
21510 2 20.016 35.2667 52.816
21499 2 18.2055 35.3105 55.3687
21493 2 20.9331 36.9159 55.3467
15858 1 19.1096 36.8944 54.0727
21845 2 13.6713 20.9069 58.0743
21852 2 10.9436 19.3028 58.0861
15895 1 11.8481 20.8932 56.7981
21844 2 16.3998 19.3028 58.0861
15870 1 17.3043 20.8932 56.7981
15912 1 14.5766 19.2899 56.8098
21810 2 19.1276 20.9069 58.0743
15869 1 20.0328 19.2899 56.8098
21841 2 13.6704 24.1156 58.0476
21850 2 10.9428 22.5112 58.0615
15894 1 11.8471 24.1003 56.7717
21846 2 16.399 22.5112 58.0615
15863 1 17.3034 24.1003 56.7717
15893 1 14.5757 22.4967 56.7854
21809 2 19.1267 24.1156 58.0476
15871 1 20.032 22.4967 56.7854
21840 2 13.6696 27.325 58.0168
21851 2 10.9419 25.7202 58.0327
15883 1 11.8462 27.3081 56.7413
21839 2 16.3981 25.7202 58.0327
15862 1 17.3024 27.3081 56.7413
15896 1 14.5748 25.704 56.757
21804 2 19.1258 27.325 58.0168
15861 1 20.031 25.704 56.757
21830 2 13.6687 30.5353 57.9817
21848 2 10.941 28.93 57.9998
15882 1 11.8452 30.5169 56.7066
16189 1 15.4914 30.5547 59.2599
21842 2 16.3972 28.93 57.9998
15856 1 17.3015 30.5169 56.7066
15881 1 14.5738 28.9123 56.7245
16143 1 20.9476 30.5547 59.2599
21803 2 19.1249 30.5353 57.9817
15864 1 20.0301 28.9123 56.7245
16204 1 12.7629 32.1612 59.2404
21829 2 13.6678 33.747 57.9421
21849 2 10.9401 32.141 57.9624
15879 1 11.8443 33.7272 56.6676
16176 1 15.4906 33.768 59.2198
21828 2 16.3963 32.141 57.9624
15855 1 17.3005 33.7272 56.6676
15884 1 14.5729 32.1218 56.6877
16142 1 20.9469 33.768 59.2198
16191 1 18.2191 32.1612 59.2404
21790 2 19.124 33.747 57.9421
15854 1 20.0291 32.1218 56.6877
16205 1 12.7622 35.3753 59.1979
21819 2 13.6669 36.9603 57.8979
21847 2 10.9392 35.3534 57.9206
15878 1 11.8434 36.9393 56.624
16175 1 15.4899 36.983 59.1748
21831 2 16.3955 35.3534 57.9206
15853 1 17.2996 36.9393 56.624
15877 1 14.5719 35.333 56.6464
16127 1 20.9462 36.983 59.1748
16174 1 18.2184 35.3753 59.1979
21789 2 19.1232 36.9603 57.8979
15857 1 20.0282 35.333 56.6464
16211 1 12.7661 19.316 59.3656
16194 1 13.6839 20.9487 61.9084
16210 1 10.9561 19.3421 61.9205
21837 2 11.8611 20.9346 60.6293
16198 1 15.4938 20.921 59.3537
16193 1 16.4124 19.3421 61.9205
21807 2 17.3174 20.9346 60.6293
21843 2 14.5896 19.3288 60.6413
16152 1 20.9501 20.921 59.3537
16200 1 18.2224 19.316 59.3656
16149 1 19.1401 20.9487 61.9084
21806 2 20.0459 19.3288 60.6413
16212 1 12.7653 22.5262 59.3407
16186 1 13.6831 24.1625 61.881
16206 1 10.9554 22.5555 61.8953
21836 2 11.8603 24.1466 60.6021
16197 1 15.493 24.1314 59.3267
16195 1 16.4116 22.5555 61.8953
21801 2 17.3166 24.1466 60.6021
21835 2 14.5888 22.5405 60.6162
16151 1 20.9493 24.1314 59.3267
16196 1 18.2216 22.5262 59.3407
16148 1 19.1394 24.1625 61.881
21808 2 20.0451 22.5405 60.6162
16208 1 12.7645 25.7369 59.3117
16185 1 13.6824 27.3768 61.8492
16207 1 10.9546 25.7695 61.8657
21826 2 11.8595 27.3593 60.5706
16190 1 15.4922 27.3426 59.2956
16184 1 16.4109 25.7695 61.8657
21800 2 17.3158 27.3593 60.5706
21838 2 14.588 25.7529 60.5869
16150 1 20.9484 27.3426 59.2956
16199 1 18.2207 25.7369 59.3117
16141 1 19.1386 27.3768 61.8492
21799 2 20.0443 25.7529 60.5869
16209 1 12.7637 28.9485 59.2783
16172 1 13.6817 30.592 61.8128
16202 1 10.9539 28.9843 61.8316
21825 2 11.8587 30.5729 60.5347
16187 1 16.4101 28.9843 61.8316
21787 2 17.315 30.5729 60.5347
21824 2 14.5872 28.966 60.5532
16188 1 18.2199 28.9485 59.2783
16140 1 19.1379 30.592 61.8128
21802 2 20.0435 28.966 60.5532
16171 1 13.681 33.8081 61.7716
16203 1 10.9532 32.1999 61.7928
21818 2 11.858 33.7875 60.4941
16170 1 16.4094 32.1999 61.7928
21786 2 17.3142 33.7875 60.4941
21827 2 14.5865 32.18 60.5149
16126 1 19.1372 33.8081 61.7716
21785 2 20.0427 32.18 60.5149
16161 1 13.6804 37.0255 61.7256
16201 1 10.9525 35.4167 61.7492
21817 2 11.8572 37.0035 60.4487
16173 1 16.4088 35.4167 61.7492
21769 2 17.3135 37.0035 60.4487
21816 2 14.5857 35.3953 60.472
16125 1 19.1366 37.0255 61.7256
21788 2 20.042 35.3953 60.472
16182 1 11.8744 20.9764 64.4627
21793 2 13.6984 20.9893 65.7363
21832 2 10.9706 19.3801 65.7487
21833 2 12.7799 19.3546 63.1956
16146 1 17.3306 20.9764 64.4627
16192 1 14.6029 19.3681 64.475
21792 2 16.4269 19.3801 65.7487
21797 2 15.5076 20.9621 63.1834
16145 1 20.0591 19.3681 64.475
21741 2 19.1546 20.9893 65.7363
21744 2 20.9639 20.9621 63.1834
21805 2 18.2361 19.3546 63.1956
16181 1 11.8736 24.1934 64.4349
21779 2 13.6975 24.2079 65.7083
21820 2 10.9698 22.5985 65.7229
21834 2 12.7791 22.5697 63.1701
16138 1 17.3298 24.1934 64.4349
16180 1 14.6021 22.5849 64.4494
21794 2 16.4261 22.5985 65.7229
21796 2 15.5069 24.1774 63.1557
16147 1 20.0583 22.5849 64.4494
21740 2 19.1538 24.2079 65.7083
21743 2 20.9631 24.1774 63.1557
21795 2 18.2354 22.5697 63.1701
16168 1 11.8728 27.4109 64.4026
21778 2 13.6967 27.4269 65.6758
21821 2 10.969 25.8173 65.6926
21822 2 12.7784 25.7853 63.1403
16137 1 17.3291 27.4109 64.4026
16183 1 14.6013 25.8021 64.4193
21777 2 16.4253 25.8173 65.6926
21783 2 15.5061 27.3933 63.1237
16136 1 20.0575 25.8021 64.4193
21733 2 19.153 27.4269 65.6758
21742 2 20.9623 27.3933 63.1237
21798 2 18.2346 25.7853 63.1403
16167 1 11.8721 30.629 64.3656
21764 2 13.6959 30.6465 65.6387
21812 2 10.9682 29.0367 65.6578
21823 2 12.7776 29.0015 63.1059
16123 1 17.3283 30.629 64.3656
16166 1 14.6006 29.0199 64.3846
21780 2 16.4244 29.0367 65.6578
21782 2 15.5053 30.6099 63.087
16139 1 20.0568 29.0199 64.3846
21732 2 19.1522 30.6465 65.6387
21735 2 20.9616 30.6099 63.087
21781 2 18.2338 29.0015 63.1059
16160 1 11.8714 33.8477 64.3237
21763 2 13.6951 33.8666 65.5967
21813 2 10.9674 32.2565 65.6183
21814 2 12.7768 32.2185 63.0669
16122 1 17.3277 33.8477 64.3237
16169 1 14.5999 32.2383 64.3453
21762 2 16.4236 32.2565 65.6183
21768 2 15.5046 33.8273 63.0456
16121 1 20.0561 32.2383 64.3453
21718 2 19.1514 33.8666 65.5967
21734 2 20.9608 33.8273 63.0456
21784 2 18.2331 32.2185 63.0669
16159 1 11.8708 37.0673 64.277
21753 2 13.6944 37.0872 65.55
21811 2 10.9666 35.4768 65.5739
21815 2 12.7761 35.4364 63.0231
16106 1 17.327 37.0673 64.277
16158 1 14.5992 35.4574 64.3009
21765 2 16.4229 35.4768 65.5739
21767 2 15.5039 37.0458 62.9994
16124 1 20.0554 35.4574 64.3009
21717 2 19.1506 37.0872 65.55
21719 2 20.9601 37.0458 62.9994
21766 2 18.2324 35.4364 63.0231
16178 1 12.7936 19.3948 67.0299
21775 2 11.8894 21.0159 68.2873
16134 1 15.5213 21.0047 67.0175
21738 2 17.3456 21.0159 68.2873
21791 2 14.618 19.4051 68.2998
16086 1 20.9775 21.0047 67.0175
16144 1 18.2498 19.3948 67.0299
21737 2 20.0742 19.4051 68.2998
16179 1 12.7927 22.6148 67.004
21774 2 11.8885 24.2377 68.2591
16133 1 15.5204 24.2249 66.9893
21730 2 17.3447 24.2377 68.2591
21773 2 14.6171 22.6267 68.2737
16085 1 20.9767 24.2249 66.9893
16132 1 18.249 22.6148 67.004
21739 2 20.0733 22.6267 68.2737
16164 1 12.7919 25.8352 66.9736
21760 2 11.8876 27.4599 68.2263
16119 1 15.5196 27.4455 66.9567
21729 2 17.3438 27.4599 68.2263
21776 2 14.6161 25.8488 68.2432
16084 1 20.9758 27.4455 66.9567
16135 1 18.2481 25.8352 66.9736
21728 2 20.0724 25.8488 68.2432
16165 1 12.791 29.0559 66.9386
21759 2 11.8866 30.6825 68.1888
16118 1 15.5187 30.6664 66.9193
21715 2 17.3429 30.6825 68.1888
21758 2 14.6152 29.0712 68.2082
16077 1 20.975 30.6664 66.9193
16117 1 18.2473 29.0559 66.9386
21731 2 20.0714 29.0712 68.2082
16156 1 12.7902 32.277 66.8988
21752 2 11.8857 33.9053 68.1466
16105 1 15.5179 33.8876 66.8771
21714 2 17.3419 33.9053 68.1466
21761 2 14.6143 32.2938 68.1683
16076 1 20.9742 33.8876 66.8771
16120 1 18.2464 32.277 66.8988
21713 2 20.0705 32.2938 68.1683
16157 1 12.7894 35.4983 66.8542
21751 2 11.8847 37.1282 68.0996
16104 1 15.5172 37.1086 66.83
21700 2 17.341 37.1282 68.0996
21750 2 14.6133 35.5167 68.1237
16065 1 20.9734 37.1086 66.83
16103 1 18.2456 35.4983 66.8542
21716 2 20.0696 35.5167 68.1237
16111 1 11.8968 21.059 72.1521
16130 1 13.7115 21.0316 69.5765
16177 1 10.9838 19.4201 69.589
21771 2 12.809 19.4283 70.8462
16080 1 17.3531 21.059 72.1521
16128 1 14.6255 19.4458 72.1647
16129 1 16.44 19.4201 69.589
21726 2 15.5366 21.0408 70.8337
16079 1 20.0818 19.4458 72.1647
16083 1 19.1677 21.0316 69.5765
21684 2 20.9929 21.0408 70.8337
21736 2 18.2653 19.4283 70.8462
16110 1 11.8957 24.2855 72.1236
16115 1 13.7105 24.255 69.5481
16162 1 10.9829 22.6433 69.5629
21772 2 12.808 22.6533 70.82
16072 1 17.3519 24.2855 72.1236
16109 1 14.6244 22.6722 72.1384
16131 1 16.4391 22.6433 69.5629
21725 2 15.5356 24.2659 70.8053
16081 1 20.0806 22.6722 72.1384
16082 1 19.1667 24.255 69.5481
21683 2 20.9919 24.2659 70.8053
21724 2 18.2643 22.6533 70.82
16097 1 11.8945 27.5121 72.0906
16114 1 13.7095 27.4786 69.5152
16163 1 10.9819 25.8668 69.5322
21756 2 12.807 25.8785 70.7894
16071 1 17.3507 27.5121 72.0906
16112 1 14.6232 25.8988 72.1077
16113 1 16.4381 25.8668 69.5322
21711 2 15.5345 27.4913 70.7723
16070 1 20.0794 25.8988 72.1077
16075 1 19.1657 27.4786 69.5152
21682 2 20.9908 27.4913 70.7723
21727 2 18.2632 25.8785 70.7894
16096 1 11.8932 30.7386 72.0528
16101 1 13.7085 30.7024 69.4776
16154 1 10.9809 29.0905 69.497
21757 2 12.8059 29.1041 70.7541
16061 1 17.3495 30.7386 72.0528
16095 1 14.622 29.1254 72.0723
16116 1 16.4371 29.0905 69.497
21710 2 15.5335 30.717 70.7347
16073 1 20.0782 29.1254 72.0723
16074 1 19.1647 30.7024 69.4776
21676 2 20.9897 30.717 70.7347
21709 2 18.2621 29.1041 70.7541
16091 1 11.8921 33.9648 72.0103
16100 1 13.7075 33.9261 69.4351
16155 1 10.9799 32.3143 69.457
21748 2 12.8048 32.3298 70.7141
16060 1 17.3483 33.9648 72.0103
16098 1 14.6208 32.3518 72.0322
16099 1 16.4361 32.3143 69.457
21699 2 15.5324 33.9426 70.6924
16059 1 20.077 32.3518 72.0322
16064 1 19.1638 33.9261 69.4351
21675 2 20.9886 33.9426 70.6924
21712 2 18.261 32.3298 70.7141
16090 1 11.8909 37.1904 71.9631
16092 1 13.7065 37.1497 69.3879
16153 1 10.9789 35.5379 69.4121
21749 2 12.8037 35.5554 70.6694
16054 1 17.3472 37.1904 71.9631
16089 1 14.6196 35.5777 71.9873
16102 1 16.4352 35.5379 69.4121
21698 2 15.5313 37.1681 70.6453
16062 1 20.0759 35.5777 71.9873
16063 1 19.1628 37.1497 69.3879
21668 2 20.9875 37.1681 70.6453
21697 2 18.2599 35.5554 70.6694
16107 1 12.7519 19.4841 74.8159
21703 2 11.8878 21.0966 75.8398
21722 2 13.7259 21.0644 73.3655
21770 2 10.9984 19.4503 73.3781
16068 1 15.4793 21.0988 74.8033
21678 2 17.344 21.0966 75.8398
21720 2 14.6166 19.4811 75.8524
21721 2 16.4546 19.4503 73.3781
16050 1 20.9356 21.0988 74.8033
16078 1 18.2082 19.4841 74.8159
21677 2 20.0728 19.4811 75.8524
21681 2 19.1822 21.0644 73.3655
16108 1 12.7505 22.7135 74.7896
21702 2 11.8863 24.3277 75.8113
21707 2 13.7247 24.2928 73.337
21754 2 10.9972 22.6785 73.3518
16067 1 15.4778 24.328 74.7748
21671 2 17.3425 24.3277 75.8113
21701 2 14.6152 22.7122 75.8261
21723 2 16.4535 22.6785 73.3518
16049 1 20.9341 24.328 74.7748
16066 1 18.2067 22.7135 74.7896
21679 2 20.0714 22.7122 75.8261
21680 2 19.181 24.2928 73.337
16093 1 12.749 25.9424 74.7589
21691 2 11.8848 27.5587 75.7784
21706 2 13.7235 27.5215 73.304
21755 2 10.996 25.9071 73.3211
16057 1 15.4763 27.5566 74.7418
21670 2 17.341 27.5587 75.7784
21704 2 14.6137 25.9432 75.7954
21705 2 16.4522 25.9071 73.3211
16048 1 20.9326 27.5566 74.7418
16069 1 18.2052 25.9424 74.7589
21669 2 20.0699 25.9432 75.7954
21674 2 19.1797 27.5215 73.304
16094 1 12.7475 29.1707 74.7236
21690 2 11.8833 30.7895 75.7409
21695 2 13.7222 30.7503 73.2663
21746 2 10.9947 29.1359 73.2857
16056 1 15.475 30.7845 74.7042
21664 2 17.3395 30.7895 75.7409
21689 2 14.6121 29.1742 75.7602
21708 2 16.451 29.1359 73.2857
16047 1 20.9312 30.7845 74.7042
16055 1 18.2038 29.1707 74.7236
21672 2 20.0684 29.1742 75.7602
21673 2 19.1784 30.7503 73.2663
16087 1 12.7463 32.398 74.6836
21687 2 11.8819 34.0196 75.6989
21694 2 13.7209 33.9791 73.224
21747 2 10.9934 32.3647 73.2458
16053 1 15.4739 34.0113 74.6619
21663 2 17.3382 34.0196 75.6989
21692 2 14.6107 32.4046 75.7204
21693 2 16.4497 32.3647 73.2458
16046 1 20.9301 34.0113 74.6619
16058 1 18.2025 32.398 74.6836
21662 2 20.0669 32.4046 75.7204
21667 2 19.1772 33.9791 73.224
16088 1 12.7454 35.6242 74.639
21686 2 11.8807 37.2487 75.6524
21688 2 13.7196 37.2072 73.1771
21745 2 10.9922 35.5932 73.2011
16052 1 15.4732 37.2368 74.615
21661 2 17.3369 37.2487 75.6524
21685 2 14.6094 35.6343 75.6761
21696 2 16.4484 35.5932 73.2011
16045 1 20.9294 37.2368 74.615
16051 1 18.2016 35.6242 74.639
21665 2 20.0656 35.6343 75.6761
21666 2 19.1759 37.2072 73.1771
10401 2 11.8266 39.1359 -1.17868
10409 2 13.643 39.1019 -3.68226
4032 1 12.7331 40.6957 -2.64538
10414 2 10.9167 40.6744 -3.70564
4018 1 15.458 39.1224 -2.62156
10371 2 17.2828 39.1359 -1.17868
10399 2 14.5558 40.7086 -1.20255
10410 2 16.3729 40.6744 -3.70564
3972 1 20.9142 39.1224 -2.62156
10374 2 19.0992 39.1019 -3.68226
4016 1 18.1893 40.6957 -2.64538
10372 2 20.012 40.7086 -1.20255
10400 2 11.8288 42.282 -1.22678
10405 2 13.6466 42.2479 -3.72935
4028 1 12.7397 43.8447 -2.694
10415 2 10.9204 43.8223 -3.75329
4017 1 15.4645 42.2697 -2.66957
10365 2 17.285 42.282 -1.22678
10402 2 14.558 43.8562 -1.25126
10403 2 16.3766 43.8223 -3.75329
3971 1 20.9207 42.2697 -2.66957
10373 2 19.1029 42.2479 -3.72935
4019 1 18.196 43.8447 -2.694
10363 2 20.0142 43.8562 -1.25126
10390 2 11.831 45.4312 -1.27587
10404 2 13.6504 45.3978 -3.77732
4029 1 12.7467 46.9973 -2.7431
10412 2 10.9242 46.9743 -3.80133
4010 1 15.4713 45.4205 -2.71856
10364 2 17.2872 45.4312 -1.27587
10388 2 14.5602 47.0071 -1.30046
10406 2 16.3804 46.9743 -3.80133
3970 1 20.9276 45.4205 -2.71856
10368 2 19.1066 45.3978 -3.77732
4008 1 18.2029 46.9973 -2.7431
10366 2 20.0164 47.0071 -1.30046
10389 2 11.8331 48.584 -1.32491
10394 2 13.6542 48.5519 -3.82517
4024 1 12.7538 50.1537 -2.79162
10413 2 10.928 50.1306 -3.84872
4009 1 15.4784 48.575 -2.76751
10351 2 17.2894 48.584 -1.32491
10391 2 14.5623 50.1618 -1.34907
10392 2 16.3843 50.1306 -3.84872
3963 1 20.9346 48.575 -2.76751
10367 2 19.1105 48.5519 -3.82517
4011 1 18.21 50.1537 -2.79162
10349 2 20.0186 50.1618 -1.34907
10382 2 11.8353 51.7406 -1.37279
10393 2 13.6581 51.7105 -3.87182
4025 1 12.7608 53.314 -2.83834
10411 2 10.9318 53.2915 -3.89433
3996 1 15.4854 51.7334 -2.81528
10350 2 17.2915 51.7406 -1.37279
10380 2 14.5645 53.3203 -1.39591
10395 2 16.3881 53.2915 -3.89433
3962 1 20.9417 51.7334 -2.81528
10354 2 19.1143 51.7105 -3.87182
3994 1 18.217 53.314 -2.83834
10352 2 20.0207 53.3203 -1.39591
10381 2 11.8375 54.9011 -1.41827
10383 2 13.6619 54.8737 -3.91609
4415 1 12.7675 56.478 -2.88205
10824 2 10.9356 56.4569 -3.93697
3995 1 15.4923 54.8956 -2.86065
10333 2 17.2937 54.9011 -1.41827
10815 2 14.5666 56.4829 -1.43974
10816 2 16.3918 56.4569 -3.93697
3947 1 20.9485 54.8956 -2.86065
10353 2 19.1181 54.8737 -3.91609
4404 1 18.2237 56.478 -2.88205
10778 2 20.0229 56.4829 -1.43974
4014 1 13.6445 39.1549 0.0430212
4026 1 10.9178 40.728 0.0189779
10398 2 12.7371 40.745 1.34987
10361 2 15.4639 39.172 1.37405
4015 1 16.3741 40.728 0.0189779
3969 1 19.1007 39.1549 0.0430212
10308 2 20.9201 39.172 1.37405
10359 2 18.1933 40.745 1.34987
4006 1 13.6474 42.3017 -0.00543419
4027 1 10.9208 43.8761 -0.0301001
10386 2 12.7397 43.8926 1.30048
10360 2 15.4665 42.3185 1.32531
4003 1 14.5587 43.911 2.56498
4004 1 16.377 43.8761 -0.0301001
3968 1 19.1037 42.3017 -0.00543419
10307 2 20.9227 42.3185 1.32531
3956 1 20.0149 43.911 2.56498
10362 2 18.1959 43.8926 1.30048
3988 1 11.832 45.4858 2.53975
4005 1 13.6504 45.4513 -0.054895
4022 1 10.9237 47.0272 -0.0796853
10387 2 12.7423 47.043 1.25052
3957 1 17.2883 45.4858 2.53975
10347 2 15.4691 45.4675 1.27551
3986 1 14.5616 47.0612 2.51449
4007 1 16.38 47.0272 -0.0796853
3961 1 19.1066 45.4513 -0.054895
10306 2 20.9253 45.4675 1.27551
3959 1 20.0179 47.0612 2.51449
10345 2 18.1985 47.043 1.25052
3987 1 11.835 48.6372 2.48936
3992 1 13.6533 48.604 -0.104329
4023 1 10.9267 50.1816 -0.128679
10378 2 12.7448 50.1963 1.2011
3943 1 17.2912 48.6372 2.48936
10346 2 15.4717 48.6192 1.22567
3989 1 14.5645 50.214 2.46451
3990 1 16.3829 50.1816 -0.128679
3960 1 19.1096 48.604 -0.104329
10299 2 20.9279 48.6192 1.22567
3941 1 20.0208 50.214 2.46451
10348 2 18.2011 50.1963 1.2011
3980 1 11.8378 51.7914 2.4401
3991 1 13.6562 51.76 -0.15258
4021 1 10.9295 53.3393 -0.175878
10379 2 12.7473 53.3528 1.15342
3942 1 17.2941 51.7914 2.4401
10332 2 15.4742 51.7741 1.17697
3978 1 14.5673 53.3696 2.41627
3993 1 16.3858 53.3393 -0.175878
3946 1 19.1125 51.76 -0.15258
10298 2 20.9305 51.7741 1.17697
3944 1 20.0236 53.3696 2.41627
10330 2 18.2036 53.3528 1.15342
3979 1 11.8406 54.9484 2.39321
3981 1 13.6591 54.9195 -0.198414
4414 1 10.9323 56.5005 -0.220032
10805 2 12.7498 56.5126 1.10876
3925 1 17.2968 54.9484 2.39321
10331 2 15.4767 54.9323 1.13064
4396 1 14.5701 56.5279 2.37108
4397 1 16.3886 56.5005 -0.220032
3945 1 19.1153 54.9195 -0.198414
10283 2 20.9329 54.9323 1.13064
4349 1 20.0263 56.5279 2.37108
10777 2 18.206 56.5126 1.10876
4002 1 11.8261 39.1901 2.63925
10357 2 13.6448 39.2074 3.94033
3999 1 12.7369 40.7985 5.19525
10384 2 10.9181 40.7805 3.9159
3966 1 17.2824 39.1901 2.63925
4000 1 14.5557 40.7632 2.61485
3954 1 15.4634 39.2253 5.21998
10358 2 16.3744 40.7805 3.9159
3967 1 20.0119 40.7632 2.61485
3900 1 20.9196 39.2253 5.21998
10305 2 19.101 39.2074 3.94033
3952 1 18.1931 40.7985 5.19525
4001 1 11.8291 42.3369 2.59006
10343 2 13.6478 42.354 3.89106
3984 1 12.7402 43.9458 5.14459
10385 2 10.9212 43.928 3.86592
3958 1 17.2853 42.3369 2.59006
3953 1 15.4667 42.3719 5.17008
10341 2 16.3774 43.928 3.86592
3899 1 20.9229 42.3719 5.17008
10304 2 19.104 42.354 3.89106
3955 1 18.1964 43.9458 5.14459
10342 2 13.6508 45.5024 3.84061
3985 1 12.7434 47.0949 5.09314
10376 2 10.9242 47.0774 3.81526
3939 1 15.4699 45.5201 5.11889
10344 2 16.3805 47.0774 3.81526
3898 1 20.9262 45.5201 5.11889
10297 2 19.1071 45.5024 3.84061
3937 1 18.1997 47.0949 5.09314
10328 2 13.6538 48.653 3.79002
3976 1 12.7466 50.2459 5.04206
10377 2 10.9272 50.2292 3.76504
3938 1 15.4732 48.6702 5.06748
10326 2 16.3834 50.2292 3.76504
3891 1 20.9294 48.6702 5.06748
10296 2 19.1101 48.653 3.79002
3940 1 18.2029 50.2459 5.04206
10327 2 13.6568 51.8061 3.74048
3977 1 12.7498 53.3988 4.99352
10375 2 10.9301 53.3837 3.7165
3924 1 15.4763 51.8223 5.01705
10329 2 16.3863 53.3837 3.7165
3890 1 20.9326 51.8223 5.01705
10282 2 19.113 51.8061 3.74048
3922 1 18.206 53.3988 4.99352
10317 2 13.6596 54.9618 3.69327
4382 1 12.7527 56.5544 4.94722
10804 2 10.9329 56.5407 3.67095
3923 1 15.4794 54.9763 4.9699
10764 2 16.3891 56.5407 3.67095
3876 1 20.9356 54.9763 4.9699
10281 2 19.1159 54.9618 3.69327
4348 1 18.209 56.5544 4.94722
3950 1 13.6441 39.2595 7.79631
10339 2 11.8256 39.2423 6.51134
3982 1 10.9178 40.8326 7.77132
10336 2 12.7361 40.8495 9.05972
10290 2 15.4624 39.2765 9.08465
10302 2 17.2818 39.2423 6.51134
3951 1 16.374 40.8326 7.77132
10337 2 14.5554 40.8154 6.48663
3897 1 19.1004 39.2595 7.79631
10248 2 20.9186 39.2765 9.08465
10288 2 18.1923 40.8495 9.05972
10303 2 20.0117 40.8154 6.48663
3935 1 13.6477 42.4058 7.74584
10338 2 11.829 42.3888 6.46146
3983 1 10.9214 43.9793 7.71997
10320 2 12.7399 43.996 9.00844
10289 2 15.4661 42.4227 9.03428
10294 2 17.2852 42.3888 6.46146
3933 1 16.3777 43.9793 7.71997
10340 2 14.5588 43.9624 6.43595
3896 1 19.104 42.4058 7.74584
10247 2 20.9223 42.4227 9.03428
10291 2 18.1961 43.996 9.00844
10292 2 20.0151 43.9624 6.43595
3934 1 13.6514 45.5531 7.69385
10324 2 11.8324 45.5364 6.41022
3974 1 10.925 47.1272 7.66761
10321 2 12.7436 47.1432 8.95603
10275 2 15.4699 45.5695 8.9823
10293 2 17.2887 45.5364 6.41022
3936 1 16.3813 47.1272 7.66761
10322 2 14.5622 47.1109 6.3844
3889 1 19.1076 45.5531 7.69385
10246 2 20.9261 45.5695 8.9823
10273 2 18.1999 47.1432 8.95603
10295 2 20.0185 47.1109 6.3844
3920 1 13.6549 48.7016 7.64142
10323 2 11.8358 48.6857 6.35867
3975 1 10.9285 50.2764 7.61545
10312 2 12.7473 50.2916 8.90367
10274 2 15.4736 48.7172 8.92976
10279 2 17.292 48.6857 6.35867
3918 1 16.3848 50.2764 7.61545
10325 2 14.5655 50.261 6.33315
3888 1 19.1112 48.7016 7.64142
10240 2 20.9298 48.7172 8.92976
10276 2 18.2035 50.2916 8.90367
10277 2 20.0218 50.261 6.33315
3919 1 13.6584 51.8517 7.58997
10316 2 11.839 51.8368 6.30809
3973 1 10.9319 53.4275 7.56502
10313 2 12.7508 53.4415 8.85268
10263 2 15.4772 51.8663 8.87793
10278 2 17.2952 51.8368 6.30809
3921 1 16.3881 53.4275 7.56502
10314 2 14.5687 53.4132 6.28358
3875 1 19.1146 51.8517 7.58997
10239 2 20.9334 51.8663 8.87793
10261 2 18.2071 53.4415 8.85268
10280 2 20.025 53.4132 6.28358
3909 1 13.6617 55.0039 7.54076
10315 2 11.8422 54.9901 6.25975
4381 1 10.9351 56.5808 7.51734
10743 2 12.7542 56.5934 8.8045
10262 2 15.4807 55.0172 8.82815
10264 2 17.2984 54.9901 6.25975
4333 1 16.3913 56.5808 7.51734
10763 2 14.5718 56.5677 6.23682
3874 1 19.1179 55.0039 7.54076
10232 2 20.9369 55.0172 8.82815
10708 2 18.2104 56.5934 8.8045
10709 2 20.028 56.5677 6.23682
3931 1 11.8245 39.2934 10.3717
10286 2 13.6425 39.3107 11.6593
10318 2 10.9163 40.8836 11.6342
3894 1 17.2807 39.2934 10.3717
3929 1 14.5545 40.8664 10.3466
10287 2 16.3726 40.8836 11.6342
10245 2 19.0987 39.3107 11.6593
3895 1 20.0108 40.8664 10.3466
3930 1 11.8284 42.4394 10.3208
10271 2 13.6465 42.4566 11.6086
10319 2 10.9204 44.0295 11.5824
3886 1 17.2846 42.4394 10.3208
3932 1 14.5585 44.0124 10.2947
10269 2 16.3766 44.0295 11.5824
10244 2 19.1027 42.4566 11.6086
3884 1 20.0147 44.0124 10.2947
3916 1 11.8324 45.5856 10.2681
10270 2 13.6506 45.6024 11.5559
10310 2 10.9246 47.1755 11.5292
3885 1 17.2886 45.5856 10.2681
3914 1 14.5625 47.159 10.2414
10272 2 16.3808 47.1755 11.5292
10238 2 19.1068 45.6024 11.5559
3887 1 20.0187 47.159 10.2414
3915 1 11.8363 48.7326 10.2147
10259 2 13.6547 48.7486 11.5024
10311 2 10.9287 50.322 11.4756
3872 1 17.2925 48.7326 10.2147
3917 1 14.5664 50.3064 10.1881
10257 2 16.3849 50.322 11.4756
10237 2 19.111 48.7486 11.5024
3870 1 20.0226 50.3064 10.1881
3908 1 11.8401 51.8806 10.1618
10258 2 13.6588 51.8956 11.4491
10309 2 10.9326 53.4695 11.4231
3871 1 17.2964 51.8806 10.1618
3906 1 14.5701 53.4552 10.1359
10260 2 16.3889 53.4695 11.4231
10231 2 19.115 51.8956 11.4491
3873 1 20.0263 53.4552 10.1359
3907 1 11.8438 55.0302 10.1108
10252 2 13.6627 55.0439 11.3977
10742 2 10.9364 56.6186 11.3731
3861 1 17.3 55.0302 10.1108
4332 1 14.5736 56.6057 10.0866
10693 2 16.3926 56.6186 11.3731
10230 2 19.1189 55.0439 11.3977
4277 1 20.0298 56.6057 10.0866
3878 1 13.6399 39.3629 15.5237
10267 2 11.8221 39.3455 14.2348
3928 1 12.7345 40.9006 12.9222
3910 1 10.9139 40.9359 15.4985
3882 1 15.4606 39.3277 12.9474
10242 2 17.2783 39.3455 14.2348
10265 2 14.5523 40.9185 14.2098
3879 1 16.3702 40.9359 15.4985
3849 1 19.0961 39.3629 15.5237
3852 1 20.9168 39.3277 12.9474
3880 1 18.1907 40.9006 12.9222
10243 2 20.0085 40.9185 14.2098
3864 1 13.6443 42.5085 15.4726
10266 2 11.8263 42.4912 14.184
3912 1 12.7388 44.046 12.8699
3911 1 10.9184 44.0808 15.446
3881 1 15.4647 42.4733 12.8963
10235 2 17.2826 42.4912 14.184
10268 2 14.5567 44.0638 14.1577
3862 1 16.3747 44.0808 15.446
3848 1 19.1005 42.5085 15.4726
3851 1 20.921 42.4733 12.8963
3883 1 18.195 44.046 12.8699
10233 2 20.0129 44.0638 14.1577
3863 1 13.6489 45.6529 15.4189
10255 2 11.8308 45.6362 14.1309
3913 1 12.7431 47.1912 12.8158
3902 1 10.9232 47.2248 15.3913
3868 1 15.4691 45.6186 12.843
10234 2 17.287 45.6362 14.1309
10253 2 14.5612 47.2085 14.1037
3865 1 16.3795 47.2248 15.3913
3845 1 19.1052 45.6529 15.4189
3850 1 20.9253 45.6186 12.843
10236 2 20.0174 47.2085 14.1037
3866 1 18.1994 47.1912 12.8158
3904 1 12.7475 50.3367 12.7611
3856 1 13.6538 48.7965 15.3633
10254 2 11.8354 48.7808 14.0763
3903 1 10.9281 50.3682 15.3353
3867 1 15.4735 48.7638 12.7885
10228 2 17.2916 48.7808 14.0763
10256 2 14.5658 50.3531 14.0488
3854 1 16.3843 50.3682 15.3353
3869 1 18.2037 50.3367 12.7611
3844 1 19.11 48.7965 15.3633
3847 1 20.9297 48.7638 12.7885
10226 2 20.022 50.3531 14.0488
3905 1 12.7517 53.483 12.7073
10251 2 11.8399 51.9255 14.0215
3855 1 13.6586 51.9399 15.3073
3901 1 10.9329 53.5118 15.2795
10227 2 17.2962 51.9255 14.0215
3860 1 15.4778 51.9097 12.734
10249 2 14.5703 53.4981 13.9945
3857 1 16.3891 53.5118 15.2795
10229 2 20.0265 53.4981 13.9945
3846 1 20.934 51.9097 12.734
3842 1 19.1149 51.9399 15.3073
3858 1 18.208 53.483 12.7073
10250 2 11.8444 55.071 13.9681
3853 1 13.6633 55.0839 15.2523
4311 1 12.7557 56.6306 12.6559
4310 1 10.9375 56.6563 15.2259
10225 2 17.3006 55.071 13.9681
3859 1 15.4819 55.0566 12.6812
4261 1 16.3937 56.6563 15.2259
10692 2 14.5746 56.6442 13.9426
4276 1 18.2119 56.6306 12.6559
3843 1 20.9381 55.0566 12.6812
3841 1 19.1196 55.0839 15.2523
10649 2 20.0308 56.6442 13.9426
10607 2 12.7273 37.808 16.8353
4222 1 11.8187 39.3999 18.1006
4224 1 14.5448 37.8262 18.1247
10594 2 15.4575 39.3816 16.8112
4199 1 17.2749 39.3999 18.1006
10596 2 18.1836 37.808 16.8353
4198 1 20.0011 37.8262 18.1247
10548 2 20.9137 39.3816 16.8112
10608 2 12.7315 40.9547 16.7862
4221 1 11.8231 42.5457 18.0499
4220 1 14.549 40.9731 18.0757
10604 2 12.736 44.0998 16.7341
10593 2 15.4618 42.5275 16.7605
4195 1 17.2794 42.5457 18.0499
10592 2 18.1877 40.9547 16.7862
4200 1 20.0052 40.9731 18.0757
10547 2 20.918 42.5275 16.7605
10595 2 18.1923 44.0998 16.7341
4215 1 11.828 45.6895 17.996
10605 2 12.7409 47.2434 16.6795
10586 2 15.4666 45.6718 16.707
4194 1 17.2843 45.6895 17.996
4223 1 14.5536 44.1179 18.0233
4193 1 20.0099 44.1179 18.0233
10546 2 20.9228 45.6718 16.707
10584 2 18.1972 47.2434 16.6795
4214 1 11.8334 48.8316 17.9396
10568 2 13.6508 48.8518 19.2283
10600 2 12.7461 50.3861 16.6234
10598 2 10.9199 47.2812 19.2567
10585 2 15.4716 48.8148 16.6515
4183 1 17.2896 48.8316 17.9396
4213 1 14.5588 47.2607 17.9681
4216 1 14.5642 50.4021 17.9109
10583 2 16.3761 47.2812 19.2567
4196 1 20.015 47.2607 17.9681
10536 2 19.107 48.8518 19.2283
10539 2 20.9278 48.8148 16.6515
10587 2 18.2023 50.3861 16.6234
4181 1 20.0205 50.4021 17.9109
10599 2 10.9255 50.422 19.1995
4208 1 11.8388 51.9726 17.8819
10567 2 13.6566 51.992 19.1704
10601 2 12.7512 53.5284 16.5672
4182 1 17.2951 51.9726 17.8819
10566 2 16.3818 50.422 19.1995
10572 2 15.4768 51.9572 16.5952
4206 1 14.5697 53.5429 17.8531
10522 2 19.1128 51.992 19.1704
10538 2 20.933 51.9572 16.5952
10570 2 18.2074 53.5284 16.5672
4184 1 20.0259 53.5429 17.8531
10597 2 10.9314 53.5617 19.1413
4207 1 11.8443 55.1134 17.8245
10557 2 13.6625 55.1313 19.1124
11014 2 10.9373 56.701 19.0841
11015 2 12.7562 56.6713 16.5128
4165 1 17.3005 55.1134 17.8245
10569 2 16.3876 53.5617 19.1413
10571 2 15.4818 55.0998 16.5396
10997 2 16.3935 56.701 19.0841
4608 1 14.5751 56.6841 17.7967
10521 2 19.1187 55.1313 19.1124
10523 2 20.9381 55.0998 16.5396
4582 1 20.0313 56.6841 17.7967
11004 2 18.2124 56.6713 16.5128
10590 2 13.636 39.4196 19.3881
4218 1 12.7232 37.8647 20.7016
10578 2 11.8142 39.4599 21.9654
10588 2 14.5405 37.885 21.9887
10589 2 16.3622 37.8455 19.4119
4191 1 15.4532 39.439 20.678
10542 2 17.2704 39.4599 21.9654
4197 1 18.1795 37.8647 20.7016
10545 2 19.0923 39.4196 19.3881
4140 1 20.9095 39.439 20.678
10541 2 19.9968 37.885 21.9887
7342 2 21.8185 37.8455 19.4119
10582 2 13.6404 42.566 19.3379
4219 1 12.7272 41.0127 20.6535
10577 2 11.8183 42.6076 21.9161
10576 2 14.5442 41.0341 21.9412
10591 2 16.3662 40.9931 19.3635
4190 1 15.4575 42.5857 20.628
10534 2 17.2745 42.6076 21.9161
4189 1 18.1834 41.0127 20.6535
10544 2 19.0966 42.566 19.3379
4139 1 20.9137 42.5857 20.628
10543 2 20.0005 41.0341 21.9412
7338 2 21.8225 40.9931 19.3635
10603 2 10.9146 44.1383 19.3116
10581 2 13.6453 45.71 19.2845
4211 1 12.7318 44.1579 20.6016
10564 2 11.8232 45.752 21.8631
10579 2 14.5487 44.1802 21.89
10580 2 16.3709 44.1383 19.3116
4179 1 15.4626 45.7294 20.5744
10533 2 17.2794 45.752 21.8631
10537 2 19.1015 45.71 19.2845
4138 1 20.9188 45.7294 20.5744
4192 1 18.1881 44.1579 20.6016
10532 2 20.005 44.1802 21.89
4212 1 12.7372 47.3002 20.5463
10563 2 11.8289 48.893 21.8066
4178 1 15.4683 48.8703 20.5176
10519 2 17.2852 48.893 21.8066
10562 2 14.5541 47.3229 21.8352
4131 1 20.9245 48.8703 20.5176
4177 1 18.1934 47.3002 20.5463
10535 2 20.0103 47.3229 21.8352
4204 1 12.7432 50.4398 20.4882
10556 2 11.8354 52.0312 21.7473
4164 1 15.4744 52.0089 20.4583
10518 2 17.2916 52.0312 21.7473
10565 2 14.5602 50.4624 21.7773
4130 1 20.9307 52.0089 20.4583
4180 1 18.1994 50.4398 20.4882
10517 2 20.0165 50.4624 21.7773
4205 1 12.7495 53.5777 20.4283
10555 2 11.8422 55.1673 21.6868
4163 1 15.4808 55.1464 20.3983
10501 2 17.2985 55.1673 21.6868
10554 2 14.5669 53.5994 21.7171
4115 1 20.937 55.1464 20.3983
4162 1 18.2057 53.5777 20.4283
10520 2 20.0231 53.5994 21.7171
4171 1 11.8086 39.5254 25.8328
4187 1 13.6311 39.4808 23.2556
10574 2 12.7186 37.9268 24.5652
4185 1 14.5355 37.9485 25.855
4134 1 17.2649 39.5254 25.8328
4186 1 16.3575 37.9054 23.2786
10530 2 15.4482 39.503 24.5426
10540 2 18.1749 37.9268 24.5652
4133 1 19.9917 37.9485 25.855
4137 1 19.0873 39.4808 23.2556
10476 2 20.9044 39.503 24.5426
1145 1 21.8138 37.9054 23.2786
4170 1 11.8119 42.6762 25.7855
4175 1 13.635 42.629 23.2067
10575 2 12.7218 41.0783 24.5191
4169 1 14.5383 41.1013 25.8096
4126 1 17.2682 42.6762 25.7855
4188 1 16.361 41.0554 23.2316
10529 2 15.4518 42.6527 24.4945
10528 2 18.178 41.0783 24.5191
4135 1 19.9945 41.1013 25.8096
4136 1 19.0912 42.629 23.2067
10475 2 20.908 42.6527 24.4945
1137 1 21.8173 41.0554 23.2316
4156 1 11.8163 45.8227 25.7341
4174 1 13.6399 45.7735 23.1539
10560 2 12.7258 44.2261 24.469
4172 1 14.5421 44.2501 25.7603
4125 1 17.2726 45.8227 25.7341
4173 1 16.3654 44.2018 23.1808
10515 2 15.4564 45.7984 24.4425
10531 2 18.1821 44.2261 24.469
4124 1 19.9983 44.2501 25.7603
4129 1 19.0961 45.7735 23.1539
10474 2 20.9127 45.7984 24.4425
1138 1 21.8217 44.2018 23.1808
4155 1 11.8221 48.964 25.6782
4160 1 13.6458 48.914 23.0971
4202 1 10.9146 47.3443 23.126
10561 2 12.731 47.3696 24.4149
4154 1 14.5472 47.394 25.7067
4111 1 17.2783 48.964 25.6782
4176 1 16.3708 47.3443 23.126
10514 2 15.4622 48.9397 24.3864
10513 2 18.1873 47.3696 24.4149
4127 1 20.0034 47.394 25.7067
4128 1 19.102 48.914 23.0971
10467 2 20.9184 48.9397 24.3864
4148 1 11.8293 52.0997 25.6176
4159 1 13.6526 52.0507 23.0368
4203 1 10.921 50.4828 23.0674
10552 2 12.7374 50.5087 24.3568
4110 1 17.2855 52.0997 25.6176
4157 1 14.5536 50.5326 25.6485
4158 1 16.3772 50.4828 23.0674
10500 2 15.4691 52.0765 24.3263
4109 1 20.0099 50.5326 25.6485
4114 1 19.1088 52.0507 23.0368
10466 2 20.9254 52.0765 24.3263
10516 2 18.1937 50.5087 24.3568
4147 1 11.8376 55.2304 25.5526
4149 1 13.6599 55.1846 22.9741
4201 1 10.9281 53.6179 23.0056
10553 2 12.7448 53.6434 24.295
4094 1 17.2939 55.2304 25.5526
4146 1 14.5614 53.6656 25.5856
4161 1 16.3843 53.6179 23.0056
10499 2 15.477 55.2095 24.2633
4112 1 20.0177 53.6656 25.5856
4113 1 19.1162 55.1846 22.9741
10498 2 18.2011 53.6434 24.295
10452 2 20.9332 55.2095 24.2633
4167 1 12.7135 37.9941 28.4305
10526 2 13.6259 39.5489 27.1192
4122 1 15.4425 39.5728 28.4092
10525 2 16.3529 37.9711 27.1411
4132 1 18.1697 37.9941 28.4305
4074 1 20.8987 39.5728 28.4092
10473 2 19.0821 39.5489 27.1192
7309 2 21.8092 37.9711 27.1411
4168 1 12.7154 41.1506 28.3869
10511 2 13.6287 42.7017 27.0727
4121 1 15.4448 42.7274 28.3637
10527 2 16.3553 41.1258 27.0965
4120 1 18.1716 41.1506 28.3869
4073 1 20.9011 42.7274 28.3637
10472 2 19.0849 42.7017 27.0727
7294 2 21.8115 41.1258 27.0965
4152 1 12.7183 44.3031 28.3395
10510 2 13.6326 45.85 27.0222
4107 1 15.4483 45.8774 28.3142
10509 2 16.3586 44.2765 27.048
4123 1 18.1745 44.3031 28.3395
4072 1 20.9046 45.8774 28.3142
10465 2 19.0889 45.85 27.0222
7295 2 21.8149 44.2765 27.048
4153 1 12.7225 47.4502 28.2878
10496 2 13.638 48.993 26.9672
4106 1 15.4534 49.0214 28.2601
10512 2 16.3632 47.4222 26.9953
4105 1 18.1787 47.4502 28.2878
4065 1 20.9096 49.0214 28.2601
10464 2 19.0942 48.993 26.9672
7286 2 21.8195 47.4222 26.9953
4144 1 12.7285 50.5907 28.231
10495 2 13.645 52.1299 26.9072
10551 2 10.9132 50.5622 26.9378
4093 1 15.4604 52.1581 28.2005
10494 2 16.3694 50.5622 26.9378
4108 1 18.1848 50.5907 28.231
4064 1 20.9166 52.1581 28.2005
10451 2 19.1013 52.1299 26.9072
4145 1 12.7366 53.7235 28.1684
10485 2 13.6537 55.2606 26.8423
10549 2 10.9211 53.696 26.8753
4092 1 15.4695 55.2869 28.1347
10497 2 16.3773 53.696 26.8753
4053 1 20.9257 55.2869 28.1347
4091 1 18.1928 53.7235 28.1684
10450 2 19.11 55.2606 26.8423
4118 1 13.6205 39.6229 30.9839
10503 2 12.7103 38.0662 32.2884
10507 2 11.8038 39.5975 29.6946
10524 2 14.5313 38.0176 29.7157
4117 1 16.3483 38.0418 31.0045
10458 2 15.4385 39.6486 32.2681
10470 2 17.26 39.5975 29.6946
10468 2 18.1666 38.0662 32.2884
4071 1 19.0767 39.6229 30.9839
10428 2 20.8948 39.6486 32.2681
10469 2 19.9875 38.0176 29.7157
1094 1 21.8045 38.0418 31.0045
4103 1 13.6216 42.7825 30.9404
10504 2 12.7106 41.2303 32.2471
10506 2 11.8056 42.7546 29.6499
10505 2 14.5327 41.1765 29.6727
4119 1 16.3491 41.2032 30.9626
10457 2 15.4391 42.8111 32.2252
10462 2 17.2618 42.7546 29.6499
10456 2 18.1669 41.2303 32.2471
4070 1 19.0779 42.7825 30.9404
10427 2 20.8954 42.8111 32.2252
10471 2 19.9889 41.1765 29.6727
1078 1 21.8053 41.2032 30.9626
4102 1 13.6238 45.9376 30.8932
10488 2 12.7116 44.3908 32.2024
10492 2 11.8084 45.9071 29.6013
10508 2 14.535 44.3315 29.6261
4101 1 16.3507 44.3607 30.9173
10444 2 15.4406 45.9694 32.1787
10461 2 17.2647 45.9071 29.6013
10459 2 18.1678 44.3908 32.2024
4063 1 19.08 45.9376 30.8932
10426 2 20.8968 45.9694 32.1787
10460 2 19.9912 44.3315 29.6261
1079 1 21.8069 44.3607 30.9173
4089 1 13.6275 49.0867 30.8417
10489 2 12.7136 47.5466 32.1539
10491 2 11.8128 49.0537 29.5481
10490 2 14.5385 47.4812 29.5754
4104 1 16.3535 47.513 30.868
10443 2 15.4434 49.1221 32.1279
10448 2 17.269 49.0537 29.5481
10442 2 18.1699 47.5466 32.1539
4062 1 19.0838 49.0867 30.8417
10423 2 20.8996 49.1221 32.1279
10463 2 19.9947 47.4812 29.5754
1070 1 21.8098 47.513 30.868
4088 1 13.6335 52.2277 30.7847
10480 2 12.7173 50.6957 32.1005
10484 2 11.8192 52.1929 29.4894
10493 2 14.5438 50.6244 29.5196
4087 1 16.3583 50.6583 30.8139
10436 2 15.4482 52.2669 32.0716
10447 2 17.2754 52.1929 29.4894
10445 2 18.1736 50.6957 32.1005
4052 1 19.0897 52.2277 30.7847
10422 2 20.9044 52.2669 32.0716
10446 2 20.0001 50.6244 29.5196
1071 1 21.8145 50.6583 30.8139
4080 1 13.6424 55.358 30.7204
10481 2 12.7236 53.8355 32.0407
10483 2 11.8281 55.3234 29.4241
4090 1 16.3657 53.7943 30.7536
10435 2 15.4561 55.401 32.0076
10437 2 17.2844 55.3234 29.4241
10482 2 14.5515 53.7593 29.4576
10434 2 18.1798 53.8355 32.0407
4051 1 19.0987 55.358 30.7204
10419 2 20.9123 55.401 32.0076
10449 2 20.0077 53.7593 29.4576
1069 1 21.8219 53.7943 30.7536
4099 1 11.7993 39.6753 33.5564
10454 2 13.6181 39.7018 34.8391
4116 1 14.5276 38.0915 33.5763
4068 1 17.2555 39.6753 33.5564
10453 2 16.3466 38.1165 34.8589
4067 1 19.9838 38.0915 33.5763
10425 2 19.0743 39.7018 34.8391
7238 2 21.8028 38.1165 34.8589
4098 1 11.7992 42.8408 33.5146
10440 2 13.6175 42.8706 34.7976
4097 1 14.5273 41.2584 33.5359
4060 1 17.2554 42.8408 33.5146
10455 2 16.3459 41.2865 34.8187
4069 1 19.9835 41.2584 33.5359
10424 2 19.0737 42.8706 34.7976
7222 2 21.8021 41.2865 34.8187
4085 1 11.7997 46.0028 33.4697
10439 2 13.6174 46.0362 34.7529
4100 1 14.5275 44.4224 33.4926
4059 1 17.256 46.0028 33.4697
10438 2 16.3455 44.4539 34.7756
4058 1 19.9837 44.4224 33.4926
10421 2 19.0737 46.0362 34.7529
7223 2 21.8017 44.4539 34.7756
4083 1 14.5285 47.582 33.4459
4084 1 11.8015 49.1597 33.4212
10432 2 13.6182 49.1974 34.7045
10441 2 16.3458 47.6175 34.7292
4049 1 17.2577 49.1597 33.4212
10420 2 19.0745 49.1974 34.7045
4061 1 19.9848 47.582 33.4459
7214 2 21.802 47.6175 34.7292
4086 1 14.5312 50.7356 33.3953
10431 2 13.6207 52.3518 34.6511
4079 1 11.8053 52.3091 33.368
10430 2 16.3473 50.7757 34.6785
4048 1 17.2616 52.3091 33.368
10418 2 19.0769 52.3518 34.6511
4047 1 19.9875 50.7356 33.3953
7215 2 21.8036 50.7757 34.6785
4077 1 14.5365 53.8799 33.3391
10429 2 13.626 55.4952 34.59
4078 1 11.8125 55.4473 33.3084
4076 1 12.7065 53.9808 35.9213
10433 2 16.351 53.9252 34.6217
4042 1 17.2688 55.4473 33.3084
4040 1 15.4364 55.5571 35.8942
4039 1 18.1627 53.9808 35.9213
10417 2 19.0822 55.4952 34.59
4050 1 19.9928 53.8799 33.3391
7213 2 21.8072 53.9252 34.6217
4033 1 20.8927 55.5571 35.8942
10630 2 11.799 39.7563 37.4071
16397 1 13.6171 39.7846 38.6925
4095 1 12.7081 38.1425 36.1454
10632 2 14.5279 38.168 37.4265
10619 2 17.2552 39.7563 37.4071
16396 1 16.3463 38.1945 38.7116
4056 1 15.4355 39.7294 36.1261
4066 1 18.1644 38.1425 36.1454
10618 2 19.9841 38.168 37.4265
16362 1 19.0734 39.7846 38.6925
4038 1 20.8918 39.7294 36.1261
13584 1 21.8026 38.1945 38.7116
10629 2 11.7974 42.9321 37.3663
16393 1 13.6149 42.9644 38.6524
4096 1 12.7068 41.3158 36.1061
10628 2 14.5263 41.3444 37.387
10616 2 17.2537 42.9321 37.3663
16398 1 16.3442 41.3745 38.6727
4055 1 15.4342 42.9018 36.0855
4054 1 18.163 41.3158 36.1061
10620 2 19.9825 41.3444 37.387
16361 1 19.0712 42.9644 38.6524
4037 1 20.8905 42.9018 36.0855
13582 1 21.8004 41.3745 38.6727
10626 2 11.796 46.1063 37.3227
16392 1 13.6126 46.144 38.61
4081 1 12.7056 44.4873 36.0643
10631 2 14.5248 44.5194 37.3449
10615 2 17.2522 46.1063 37.3227
16391 1 16.3419 44.5542 38.6315
4045 1 15.4332 46.0721 36.0424
4057 1 18.1618 44.4873 36.0643
10614 2 19.981 44.5194 37.3449
16356 1 19.0689 46.144 38.61
4036 1 20.8894 46.0721 36.0424
13583 1 21.7981 44.5542 38.6315
10625 2 11.795 49.278 37.2758
16382 1 13.6102 49.3235 38.5652
4082 1 12.7048 47.6562 36.0198
10624 2 14.5236 47.6925 37.2997
10612 2 17.2512 49.278 37.2758
16394 1 16.3395 47.7337 38.5879
4044 1 15.4328 49.2393 35.9964
4043 1 18.161 47.6562 36.0198
10617 2 19.9798 47.6925 37.2997
16355 1 19.0664 49.3235 38.5652
4035 1 20.889 49.2393 35.9964
13580 1 21.7958 47.7337 38.5879
10623 2 11.7949 52.4456 37.2245
16381 1 13.6074 52.5037 38.5182
4075 1 12.7048 50.8214 35.9723
10627 2 14.5229 50.8625 37.2508
10611 2 17.2511 52.4456 37.2245
16380 1 16.337 50.9134 38.542
4041 1 15.4335 52.402 35.9473
4046 1 18.161 50.8214 35.9723
10610 2 19.9791 50.8625 37.2508
16342 1 19.0636 52.5037 38.5182
4034 1 20.8897 52.402 35.9473
13581 1 21.7932 50.9134 38.542
10622 2 11.7966 55.6056 37.1661
16371 1 13.6031 55.6869 38.4696
10621 2 14.5235 54.0269 37.1964
10609 2 17.2528 55.6056 37.1661
16383 1 16.3338 54.0946 38.494
10613 2 19.9798 54.0269 37.1964
16341 1 19.0594 55.6869 38.4696
13579 1 21.79 54.0946 38.494
22019 2 12.7107 38.2201 39.9911
22002 2 13.6221 39.8671 42.5328
16389 1 11.8005 39.8402 41.2554
16395 1 14.5299 38.2469 41.2747
22006 2 15.4378 39.8116 39.9717
22001 2 16.3514 38.2724 42.5526
16359 1 17.2567 39.8402 41.2554
22008 2 18.167 38.2201 39.9911
16358 1 19.9861 38.2469 41.2747
21957 2 19.0783 39.8671 42.5328
21960 2 20.894 39.8116 39.9717
19198 2 21.8076 38.2724 42.5526
22020 2 12.7086 41.4032 39.9516
16388 1 11.7978 43.0276 41.2148
21994 2 13.6196 43.0574 42.4911
16387 1 14.5273 41.4338 41.2354
22005 2 15.4356 42.9947 39.9309
22003 2 16.349 41.462 42.5123
16353 1 17.254 43.0276 41.2148
22004 2 18.1648 41.4032 39.9516
16360 1 19.9835 41.4338 41.2354
21956 2 19.0758 43.0574 42.4911
21959 2 20.8918 42.9947 39.9309
19194 2 21.8052 41.462 42.5123
22016 2 12.7063 44.5863 39.9094
16378 1 11.7947 46.2167 41.1718
21993 2 13.6169 46.2494 42.4462
16390 1 14.5244 44.6219 41.1936
21998 2 15.4333 46.1779 39.8872
16352 1 17.251 46.2167 41.1718
21992 2 16.3464 44.6531 42.4691
22007 2 18.1625 44.5863 39.9094
16351 1 19.9807 44.6219 41.1936
21949 2 19.0732 46.2494 42.4462
21958 2 20.8895 46.1779 39.8872
19195 2 21.8026 44.6531 42.4691
22017 2 12.704 47.7696 39.8642
16377 1 11.7912 49.4089 41.1262
21980 2 13.6142 49.4441 42.3975
16376 1 14.5212 47.8123 41.1493
21997 2 15.431 49.3612 39.8403
16339 1 17.2474 49.4089 41.1262
21995 2 16.3437 47.8464 42.4224
21996 2 18.1602 47.7696 39.8642
16354 1 19.9774 47.8123 41.1493
21948 2 19.0705 49.4441 42.3975
21951 2 20.8873 49.3612 39.8403
19190 2 21.7999 47.8464 42.4224
22012 2 12.7019 50.9529 39.8152
16370 1 11.7864 52.607 41.0777
21979 2 13.6114 52.6428 42.3432
16379 1 14.5171 51.0069 41.1023
16338 1 17.2426 52.607 41.0777
21978 2 16.341 51.0429 42.3712
21984 2 15.4291 52.5446 39.7888
21999 2 18.1581 50.9529 39.8152
16337 1 19.9733 51.0069 41.1023
21934 2 19.0677 52.6428 42.3432
21950 2 20.8853 52.5446 39.7888
19191 2 21.7972 51.0429 42.3712
22013 2 12.7002 54.1363 39.7605
16369 1 11.7785 55.8171 41.026
21969 2 13.6083 55.8484 42.2806
16368 1 14.5112 54.2099 41.0523
16321 1 17.2348 55.8171 41.026
21981 2 16.3381 54.2445 42.3132
21983 2 15.4277 55.728 39.73
21982 2 18.1564 54.1363 39.7605
16340 1 19.9674 54.2099 41.0523
21933 2 19.0646 55.8484 42.2806
21935 2 20.8839 55.728 39.73
19189 2 21.7944 54.2445 42.3132
16385 1 12.7151 38.2993 43.8346
21990 2 11.808 39.922 45.0907
22000 2 14.5373 38.3244 45.1111
16349 1 15.4419 39.8958 43.8148
21954 2 17.2642 39.922 45.0907
16357 1 18.1713 38.2993 43.8346
16296 1 20.8981 39.8958 43.8148
21953 2 19.9935 38.3244 45.1111
16386 1 12.7124 41.4928 43.7942
21989 2 11.8056 43.1191 45.0473
21988 2 14.5349 41.5203 45.0694
16348 1 15.4391 43.0904 43.7729
21946 2 17.2618 43.1191 45.0473
16347 1 18.1686 41.4928 43.7942
16295 1 20.8953 43.0904 43.7729
21955 2 19.9912 41.5203 45.0694
16374 1 12.7094 44.6889 43.7509
21976 2 11.803 46.3194 45.0002
21991 2 14.5324 44.7188 45.0243
16335 1 15.4359 46.2885 43.728
21945 2 17.2593 46.3194 45.0002
16350 1 18.1657 44.6889 43.7509
16294 1 20.8921 46.2885 43.728
21944 2 19.9887 44.7188 45.0243
16375 1 12.706 47.8894 43.7042
21975 2 11.8003 49.5241 44.9484
21974 2 14.5298 47.9211 44.975
16334 1 15.4322 49.492 43.6795
21931 2 17.2566 49.5241 44.9484
16333 1 18.1622 47.8894 43.7042
16287 1 20.8884 49.492 43.6795
21947 2 19.9861 47.9211 44.975
16366 1 12.7018 51.0968 43.6536
21968 2 11.7974 52.7356 44.8901
21977 2 14.5271 51.1289 44.9202
16320 1 15.4273 52.7046 43.6264
21930 2 17.2537 52.7356 44.8901
16336 1 18.158 51.0968 43.6536
16286 1 20.8835 52.7046 43.6264
21929 2 19.9833 51.1289 44.9202
16367 1 12.6959 54.316 43.5975
21967 2 11.7935 55.9579 44.8221
21966 2 14.5238 54.3451 44.8576
16319 1 15.42 55.9323 43.5664
21914 2 17.2498 55.9579 44.8221
16318 1 18.1521 54.316 43.5975
16271 1 20.8762 55.9323 43.5664
21932 2 19.98 54.3451 44.8576
16327 1 11.8168 40.0042 48.9246
16345 1 13.6287 39.9506 46.371
21986 2 12.7245 38.3756 47.6669
16343 1 14.5459 38.4021 48.9463
16290 1 17.273 40.0042 48.9246
16344 1 16.358 38.3512 46.3917
21942 2 15.4516 39.976 47.6456
21952 2 18.1808 38.3756 47.6669
16289 1 20.0022 38.4021 48.9463
16293 1 19.0849 39.9506 46.371
21894 2 20.9079 39.976 47.6456
13564 1 21.8142 38.3512 46.3917
16326 1 11.8147 43.2111 48.8782
16331 1 13.6261 43.1519 46.3271
21987 2 12.7224 41.5772 47.6234
16325 1 14.5439 41.6071 48.9019
16282 1 17.2709 43.2111 48.8782
16346 1 16.3555 41.5508 46.3495
21941 2 15.4495 43.1792 47.6001
21940 2 18.1787 41.5772 47.6234
16291 1 20.0001 41.6071 48.9019
16292 1 19.0823 43.1519 46.3271
21893 2 20.9057 43.1792 47.6001
13552 1 21.8118 41.5508 46.3495
16312 1 11.8124 46.4232 48.8272
16330 1 13.6233 46.3577 46.2793
21972 2 12.7203 44.7822 47.5758
16328 1 14.5417 44.8164 48.8533
16281 1 17.2686 46.4232 48.8272
16329 1 16.3528 44.7541 46.3037
21927 2 15.4472 46.3864 47.5502
21943 2 18.1765 44.7822 47.5758
16280 1 19.9979 44.8164 48.8533
16285 1 19.0795 46.3577 46.2793
21892 2 20.9035 46.3864 47.5502
13553 1 21.8091 44.7541 46.3037
16311 1 11.8099 49.6421 48.7706
16316 1 13.62 49.5702 46.2269
21973 2 12.718 47.992 47.5233
16310 1 14.5393 48.0316 48.7996
16267 1 17.2661 49.6421 48.7706
16332 1 16.3498 47.9629 46.2538
21926 2 15.4449 49.5993 47.4949
21925 2 18.1742 47.992 47.5233
16283 1 19.9955 48.0316 48.7996
16284 1 19.0763 49.5702 46.2269
21885 2 20.9011 49.5993 47.4949
13544 1 21.8061 47.9629 46.2538
16304 1 11.807 52.8703 48.7066
16315 1 13.6161 52.7927 46.168
21964 2 12.7154 51.2085 47.4647
16313 1 14.5366 51.2549 48.7396
16266 1 17.2632 52.8703 48.7066
16314 1 16.3463 51.18 46.1984
21913 2 15.442 52.8201 47.4324
21928 2 18.1716 51.2085 47.4647
16265 1 19.9929 51.2549 48.7396
16270 1 19.0723 52.7927 46.168
21884 2 20.8983 52.8201 47.4324
13545 1 21.8025 51.18 46.1984
16303 1 11.8031 56.1098 48.6328
16305 1 13.6108 56.0293 46.0996
21965 2 12.7121 54.4344 47.3977
16302 1 14.5333 54.4886 48.6711
16252 1 17.2593 56.1098 48.6328
16317 1 16.3418 54.409 46.1352
21912 2 15.4379 56.0521 47.3604
21911 2 18.1683 54.4344 47.3977
16268 1 19.9895 54.4886 48.6711
16269 1 19.0671 56.0293 46.0996
21873 2 20.8941 56.0521 47.3604
13543 1 21.798 54.409 46.1352
16323 1 12.7349 38.4517 51.4988
21938 2 13.6402 40.0286 50.1983
21985 2 10.9129 38.4257 50.2206
16278 1 15.4622 40.056 51.4761
21937 2 16.3692 38.4257 50.2206
16236 1 20.9185 40.056 51.4761
16288 1 18.1912 38.4517 51.4988
21891 2 19.0964 40.0286 50.1983
16324 1 12.7333 41.6613 51.4522
21923 2 13.6384 43.237 50.1504
16277 1 15.4606 43.2677 51.4271
21939 2 16.3674 41.6323 50.1749
16235 1 20.9168 43.2677 51.4271
16276 1 18.1895 41.6613 51.4522
21890 2 19.0946 43.237 50.1504
19150 2 21.8236 41.6323 50.1749
16308 1 12.7316 44.8753 51.4007
21922 2 13.6365 46.4498 50.0976
16263 1 15.4589 46.4843 51.373
21921 2 16.3656 44.8428 50.1247
16279 1 18.1879 44.8753 51.4007
19151 2 21.8218 44.8428 50.1247
16234 1 20.9151 46.4843 51.373
21883 2 19.0928 46.4498 50.0976
16309 1 12.7298 48.0949 51.3437
21909 2 13.6344 49.6685 50.039
21904 2 11.8247 49.7313 52.5825
16262 1 15.457 49.7073 51.3129
21924 2 16.3637 48.0583 50.0691
16261 1 18.1861 48.0949 51.3437
21869 2 17.281 49.7313 52.5825
19142 2 21.8199 48.0583 50.0691
16228 1 20.9132 49.7073 51.3129
21882 2 19.0907 49.6685 50.039
21899 2 11.822 52.9599 52.5151
16300 1 12.7277 51.3216 51.2802
21908 2 13.6317 52.8948 49.9733
21906 2 14.5516 51.3448 52.5496
21868 2 17.2782 52.9599 52.5151
16251 1 15.4546 52.9378 51.2456
21907 2 16.3613 51.2806 50.0071
16264 1 18.184 51.3216 51.2802
19143 2 21.8176 51.2806 50.0071
21867 2 20.0079 51.3448 52.5496
16227 1 20.9108 52.9378 51.2456
21872 2 19.088 52.8948 49.9733
21897 2 14.5482 54.5768 52.479
21898 2 11.8176 56.1953 52.4416
16301 1 12.7248 54.5561 51.2089
21900 2 13.6274 56.1306 49.8995
21862 2 17.2738 56.1953 52.4416
16250 1 15.4508 56.1762 51.1703
21910 2 16.358 54.5114 49.9375
16249 1 18.1811 54.5561 51.2089
21870 2 20.0044 54.5768 52.479
19141 2 21.8142 54.5114 49.9375
16220 1 20.9071 56.1762 51.1703
21871 2 19.0836 56.1306 49.8995
16274 1 13.6521 40.106 54.0262
16322 1 10.9246 38.4998 54.05
21915 2 12.7482 38.5219 55.3236
21919 2 11.8296 40.0795 52.7493
16273 1 16.3809 38.4998 54.05
21876 2 15.4758 40.1286 55.2993
21888 2 17.2858 40.0795 52.7493
21936 2 14.5584 38.4746 52.7727
16233 1 19.1084 40.106 54.0262
21858 2 20.932 40.1286 55.2993
21886 2 18.2044 38.5219 55.3236
21887 2 20.0146 38.4746 52.7727
16259 1 13.6509 43.3212 53.9748
16306 1 10.9234 41.7131 54.0011
21916 2 12.7471 41.736 55.2738
21918 2 11.8281 43.2921 52.6991
16275 1 16.3797 41.7131 54.0011
21875 2 15.4746 43.3443 55.247
21880 2 17.2844 43.2921 52.6991
21917 2 14.557 41.6853 52.7248
16232 1 19.1072 43.3212 53.9748
21857 2 20.9308 43.3443 55.247
21874 2 18.2033 41.736 55.2738
21889 2 20.0132 41.6853 52.7248
16258 1 13.6496 46.5409 53.9181
16307 1 10.9222 44.9304 53.9471
21901 2 12.7459 44.9536 55.219
21905 2 11.8266 46.509 52.6437
16257 1 16.3784 44.9304 53.9471
21865 2 15.4733 46.5639 55.1896
21879 2 17.2828 46.509 52.6437
21920 2 14.5555 44.8999 52.6721
16226 1 19.1058 46.5409 53.9181
21856 2 20.9295 46.5639 55.1896
21877 2 18.2021 44.9536 55.219
21878 2 20.0118 44.8999 52.6721
16247 1 13.648 49.7658 53.8555
16298 1 10.9207 48.1526 53.8876
21902 2 12.7443 48.1753 55.1588
16260 1 16.377 48.1526 53.8876
21864 2 15.4715 49.7879 55.1268
21903 2 14.5538 48.1194 52.6139
16225 1 19.1043 49.7658 53.8555
21855 2 20.9277 49.7879 55.1268
21863 2 18.2006 48.1753 55.1588
21881 2 20.0101 48.1194 52.6139
21895 2 12.7421 51.4017 55.0934
16299 1 10.9189 51.3803 53.8219
16246 1 13.6457 52.9963 53.7868
21861 2 15.4687 53.0166 55.0588
16245 1 16.3751 51.3803 53.8219
21866 2 18.1983 51.4017 55.0934
21854 2 20.9249 53.0166 55.0588
16219 1 19.1019 52.9963 53.7868
21896 2 12.7386 54.6326 55.0233
16297 1 10.9159 54.6135 53.7503
16240 1 13.6418 56.2317 53.7127
21860 2 15.4643 56.2494 54.9871
16248 1 16.3721 54.6135 53.7503
21859 2 18.1949 54.6326 55.0233
21853 2 20.9206 56.2494 54.9871
16218 1 19.098 56.2317 53.7127
16571 1 12.7614 38.5912 59.1505
22205 2 13.666 40.1757 57.8489
22212 2 10.9384 38.5677 57.874
16255 1 11.8425 40.154 56.5756
16558 1 15.4892 40.2 59.125
22204 2 16.3946 38.5677 57.874
16230 1 17.2987 40.154 56.5756
16272 1 14.571 38.5463 56.6004
16512 1 20.9454 40.2 59.125
16560 1 18.2177 38.5912 59.1505
22170 2 19.1223 40.1757 57.8489
16229 1 20.0273 38.5463 56.6004
16572 1 12.7607 41.8094 59.0982
22201 2 13.665 43.3938 57.795
22210 2 10.9374 41.7844 57.8225
16254 1 11.8415 43.3717 56.5222
16557 1 15.4884 43.4194 59.0701
22206 2 16.3937 41.7844 57.8225
16223 1 17.2978 43.3717 56.5222
16253 1 14.5701 41.7624 56.5496
16511 1 20.9446 43.4194 59.0701
16556 1 18.2169 41.8094 59.0982
22169 2 19.1213 43.3938 57.795
16231 1 20.0264 41.7624 56.5496
16568 1 12.7598 45.0301 59.0408
22200 2 13.6638 46.6149 57.7361
22211 2 10.9363 45.0039 57.7661
16243 1 11.8404 46.5931 56.4636
16550 1 15.4873 46.6415 59.0103
22199 2 16.3926 45.0039 57.7661
16222 1 17.2967 46.5931 56.4636
16256 1 14.5691 44.9819 56.4936
16510 1 20.9436 46.6415 59.0103
16559 1 18.216 45.0301 59.0408
22164 2 19.12 46.6149 57.7361
16221 1 20.0254 44.9819 56.4936
16569 1 12.7585 48.2535 58.9786
22190 2 13.6619 49.8392 57.6725
22208 2 10.9348 48.2266 57.7048
16242 1 11.8389 49.8184 56.3997
16549 1 15.4857 49.8662 58.9459
22202 2 16.3911 48.2266 57.7048
16216 1 17.2951 49.8184 56.3997
16241 1 14.5679 48.2052 56.4323
16503 1 20.942 49.8662 58.9459
16548 1 18.2148 48.2535 58.9786
22163 2 19.1182 49.8392 57.6725
16224 1 20.0241 48.2052 56.4323
16564 1 12.7565 51.4793 58.9123
22189 2 13.6591 53.0665 57.605
22209 2 10.9326 51.4525 57.6392
16239 1 11.8365 53.0474 56.331
16536 1 15.4831 53.0929 58.8781
22188 2 16.3888 51.4525 57.6392
16215 1 17.2927 53.0474 56.331
16244 1 14.566 51.4325 56.3659
16502 1 20.9394 53.0929 58.8781
16551 1 18.2127 51.4793 58.9123
22150 2 19.1154 53.0665 57.605
16214 1 20.0222 51.4325 56.3659
16565 1 12.7532 54.7068 58.8434
22179 2 13.6549 56.296 57.5355
22207 2 10.9291 54.681 57.5703
16238 1 11.8324 56.2791 56.2592
16535 1 15.4792 56.3209 58.8088
22191 2 16.3853 54.681 57.5703
16213 1 17.2887 56.2791 56.2592
16237 1 14.5628 54.663 56.2953
16487 1 20.9354 56.3209 58.8088
16534 1 18.2095 54.7068 58.8434
22149 2 19.1112 56.296 57.5355
16217 1 20.019 54.663 56.2953
16554 1 13.6797 40.2444 61.6747
16570 1 10.9519 38.6348 61.7008
22197 2 11.8564 40.2212 60.3985
16553 1 16.4082 38.6348 61.7008
22167 2 17.3127 40.2212 60.3985
22203 2 14.585 38.6121 60.4242
16509 1 19.1359 40.2444 61.6747
22166 2 20.0412 38.6121 60.4242
16546 1 13.6789 43.4649 61.6189
16566 1 10.9512 41.8545 61.6474
22196 2 11.8555 43.4408 60.3434
16555 1 16.4075 41.8545 61.6474
22161 2 17.3117 43.4408 60.3434
22195 2 14.5841 41.8308 60.3715
16508 1 19.1351 43.4649 61.6189
22168 2 20.0403 41.8308 60.3715
16545 1 13.6778 46.687 61.5585
16567 1 10.9503 45.0758 61.5892
22186 2 11.8542 46.6626 60.2837
16544 1 16.4065 45.0758 61.5892
22160 2 17.3104 46.6626 60.2837
22198 2 14.583 45.0514 60.3141
16501 1 19.134 46.687 61.5585
22159 2 20.0393 45.0514 60.3141
16532 1 13.676 49.9105 61.4943
16562 1 10.9489 48.2986 61.5268
22185 2 11.8523 49.8862 60.22
16547 1 16.4051 48.2986 61.5268
22147 2 17.3085 49.8862 60.22
22184 2 14.5814 48.2742 60.2523
16500 1 19.1322 49.9105 61.4943
22162 2 20.0377 48.2742 60.2523
16531 1 13.6733 53.1347 61.4277
16563 1 10.9467 51.5225 61.4612
22178 2 11.8494 53.1114 60.1535
16530 1 16.4029 51.5225 61.4612
22146 2 17.3057 53.1114 60.1535
22187 2 14.5791 51.4987 60.187
16486 1 19.1295 53.1347 61.4277
22145 2 20.0353 51.4987 60.187
16521 1 13.6694 56.3589 61.3609
16561 1 10.9434 54.7468 61.3942
22177 2 11.8454 56.3373 60.0863
16533 1 16.3996 54.7468 61.3942
22129 2 17.3017 56.3373 60.0863
22176 2 14.5757 54.7244 60.1198
16485 1 19.1257 56.3589 61.3609
22148 2 20.0319 54.7244 60.1198
16542 1 11.8701 40.2876 64.2254
22153 2 13.6934 40.3084 65.4985
22192 2 10.9658 38.6978 65.5248
22193 2 12.7754 38.6554 62.9745
16506 1 17.3263 40.2876 64.2254
16552 1 14.5986 38.6773 64.2518
22152 2 16.422 38.6978 65.5248
22157 2 15.5031 40.2653 62.9484
16505 1 20.0548 38.6773 64.2518
22101 2 19.1497 40.3084 65.4985
22104 2 20.9593 40.2653 62.9484
22165 2 18.2316 38.6554 62.9745
16541 1 11.8692 43.5087 64.1691
22139 2 13.6923 43.5299 65.4425
22180 2 10.9648 41.9191 65.471
22194 2 12.7745 41.8755 62.9211
16498 1 17.3254 43.5087 64.1691
16540 1 14.5978 41.8981 64.1978
22154 2 16.421 41.9191 65.471
22156 2 15.5021 43.486 62.8926
16507 1 20.054 41.8981 64.1978
22100 2 19.1485 43.5299 65.4425
22103 2 20.9583 43.486 62.8926
22155 2 18.2307 41.8755 62.9211
16528 1 11.8679 46.7305 64.1087
22138 2 13.6907 46.7516 65.3827
22181 2 10.9635 45.1408 65.413
22182 2 12.7733 45.0968 62.8631
16497 1 17.3241 46.7305 64.1087
16543 1 14.5967 45.1196 64.1393
22137 2 16.4197 45.1408 65.413
22143 2 15.5007 46.7078 62.8327
16496 1 20.0529 45.1196 64.1393
22093 2 19.147 46.7516 65.3827
22102 2 20.9569 46.7078 62.8327
22158 2 18.2296 45.0968 62.8631
16527 1 11.8659 49.9525 64.0451
22124 2 13.6885 49.9729 65.32
22172 2 10.9616 48.3623 65.3516
22183 2 12.7716 48.319 62.8013
16483 1 17.3222 49.9525 64.0451
16526 1 14.5951 48.3415 64.0772
22140 2 16.4178 48.3623 65.3516
22142 2 15.4986 49.9304 62.7693
16499 1 20.0513 48.3415 64.0772
22092 2 19.1448 49.9729 65.32
22095 2 20.9549 49.9304 62.7693
22141 2 18.2279 48.319 62.8013
16520 1 11.8631 53.1741 63.9799
22123 2 13.6856 53.1934 65.2562
22173 2 10.9591 51.5833 65.2881
22174 2 12.7692 51.5418 62.7368
16482 1 17.3194 53.1741 63.9799
16529 1 14.5928 51.5634 64.0126
22122 2 16.4153 51.5833 65.2881
22128 2 15.4958 53.1532 62.7041
16481 1 20.049 51.5634 64.0126
22078 2 19.1419 53.1934 65.2562
22094 2 20.952 53.1532 62.7041
22144 2 18.2254 51.5418 62.7368
16519 1 11.8594 56.3948 63.9152
22113 2 13.6819 56.4123 65.1931
22171 2 10.9557 54.8031 65.2244
22175 2 12.7659 54.7645 62.6714
16466 1 17.3156 56.3948 63.9152
16518 1 14.5895 54.7846 63.9473
22125 2 16.412 54.8031 65.2244
22127 2 15.4919 56.3756 62.639
16484 1 20.0457 54.7846 63.9473
22077 2 19.1381 56.4123 65.1931
22079 2 20.9482 56.3756 62.639
22126 2 18.2221 54.7645 62.6714
16538 1 12.7887 38.7194 66.8046
22135 2 11.8836 40.351 68.048
16494 1 15.5164 40.3301 66.7781
22098 2 17.3399 40.351 68.048
22151 2 14.6123 38.7396 68.0744
16446 1 20.9726 40.3301 66.7781
16504 1 18.2449 38.7194 66.8046
22097 2 20.0686 38.7396 68.0744
16539 1 12.7877 41.9409 66.7504
22134 2 11.8823 43.5734 67.9922
16493 1 15.5153 43.5517 66.7217
22090 2 17.3385 43.5734 67.9922
22133 2 14.6111 41.9623 68.0206
16445 1 20.9715 43.5517 66.7217
16492 1 18.244 41.9409 66.7504
22099 2 20.0674 41.9623 68.0206
16524 1 12.7865 45.1624 66.6921
22120 2 11.8805 46.795 67.9328
16474 1 13.7025 46.8158 69.2203
16523 1 10.9753 45.2055 69.2505
16479 1 15.5137 46.773 66.6616
22089 2 17.3368 46.795 67.9328
22136 2 14.6096 45.1843 67.9629
16473 1 16.4315 45.2055 69.2505
16444 1 20.97 46.773 66.6616
16495 1 18.2427 45.1624 66.6921
22088 2 20.0658 45.1843 67.9629
16435 1 19.1587 46.8158 69.2203
16525 1 12.7846 48.3834 66.6304
22119 2 11.8781 50.0152 67.8711
16461 1 13.7002 50.0349 69.1583
16514 1 10.9733 48.4255 69.1895
16478 1 15.5116 49.9936 66.5988
22075 2 17.3344 50.0152 67.8711
22118 2 14.6075 48.4053 67.9021
16476 1 16.4295 48.4255 69.1895
16437 1 20.9679 49.9936 66.5988
16477 1 18.2409 48.3834 66.6304
22091 2 20.0638 48.4053 67.9021
16434 1 19.1565 50.0349 69.1583
16516 1 12.7822 51.6034 66.5669
22112 2 11.8751 53.2334 67.8086
16460 1 13.6974 53.2518 69.0959
16515 1 10.9707 51.6437 69.127
16465 1 15.5088 53.2128 66.535
22074 2 17.3314 53.2334 67.8086
22121 2 14.6048 51.6246 67.8398
16459 1 16.427 51.6437 69.127
16436 1 20.965 53.2128 66.535
16480 1 18.2384 51.6034 66.5669
22073 2 20.0611 51.6246 67.8398
16424 1 19.1536 53.2518 69.0959
16517 1 12.7789 54.8216 66.5034
22111 2 11.8715 56.4492 67.7474
16452 1 13.6939 56.4659 69.0349
16513 1 10.9676 54.8592 69.0652
16464 1 15.5051 56.43 66.4723
22060 2 17.3277 56.4492 67.7474
22110 2 14.6015 54.8416 67.7777
16462 1 16.4239 54.8592 69.0652
16425 1 20.9614 56.43 66.4723
16463 1 18.2352 54.8216 66.5034
22076 2 20.0577 54.8416 67.7777
16423 1 19.1502 56.4659 69.0349
16471 1 11.8898 40.4149 71.9113
16490 1 13.7055 40.3727 69.3361
16537 1 10.9779 38.7613 69.3625
22131 2 12.8025 38.7806 70.62
16440 1 17.346 40.4149 71.9113
16488 1 14.6185 38.8028 71.9378
16489 1 16.4342 38.7613 69.3625
22086 2 15.53 40.3928 70.5937
16439 1 20.0747 38.8028 71.9378
16443 1 19.1617 40.3727 69.3361
22044 2 20.9863 40.3928 70.5937
22096 2 18.2588 38.7806 70.62
16470 1 11.8884 43.6378 71.8555
16475 1 13.7042 43.5949 69.28
16522 1 10.9768 41.9839 69.3085
22132 2 12.8012 42.0048 70.5663
16432 1 17.3447 43.6378 71.8555
16469 1 14.6172 42.0266 71.8839
16491 1 16.433 41.9839 69.3085
22085 2 15.5285 43.6165 70.538
16441 1 20.0735 42.0266 71.8839
16442 1 19.1604 43.5949 69.28
22043 2 20.9848 43.6165 70.538
22084 2 18.2574 42.0048 70.5663
16457 1 11.8868 46.8586 71.7962
22116 2 12.7995 45.2276 70.5088
16431 1 17.343 46.8586 71.7962
16472 1 14.6158 45.2485 71.8262
22071 2 15.5266 46.8383 70.479
16430 1 20.072 45.2485 71.8262
22042 2 20.9829 46.8383 70.479
22087 2 18.2558 45.2276 70.5088
16456 1 11.8848 50.0764 71.7339
22117 2 12.7974 48.4483 70.4486
16421 1 17.341 50.0764 71.7339
16455 1 14.614 48.4679 71.7654
22070 2 15.5241 50.0576 70.4179
16433 1 20.0702 48.4679 71.7654
22036 2 20.9804 50.0576 70.4179
22069 2 18.2536 48.4483 70.4486
16451 1 11.8821 53.291 71.673
22108 2 12.7946 51.6663 70.387
16420 1 17.3384 53.291 71.673
16458 1 14.6116 51.6841 71.7035
22059 2 15.5212 53.274 70.3564
16419 1 20.0679 51.6841 71.7035
22035 2 20.9774 53.274 70.3564
22072 2 18.2508 51.6663 70.387
16450 1 11.879 56.502 71.6133
22109 2 12.7914 54.8809 70.326
16414 1 17.3352 56.502 71.6133
16449 1 14.6087 54.897 71.6429
22058 2 15.5176 56.4868 70.2962
16422 1 20.065 54.897 71.6429
22028 2 20.9739 56.4868 70.2962
22057 2 18.2476 54.8809 70.326
16467 1 12.7449 38.849 74.5898
22063 2 11.8797 40.4762 75.6017
22082 2 13.7183 40.4343 73.1257
22130 2 10.9909 38.8209 73.1519
16428 1 15.473 40.4607 74.5637
22038 2 17.3359 40.4762 75.6017
22080 2 14.6083 38.8627 75.6275
22081 2 16.4471 38.8209 73.1519
16410 1 20.9292 40.4607 74.5637
16438 1 18.2011 38.849 74.5898
22037 2 20.0645 38.8627 75.6275
22041 2 19.1745 40.4343 73.1257
16468 1 12.7449 42.0719 74.5365
22062 2 11.8786 43.7013 75.5475
22067 2 13.7167 43.6595 73.0706
22114 2 10.9894 42.0471 73.0986
16427 1 15.4731 43.6825 74.5085
22031 2 17.3349 43.7013 75.5475
22061 2 14.6073 42.0891 75.575
22083 2 16.4457 42.0471 73.0986
16409 1 20.9293 43.6825 74.5085
16426 1 18.2011 42.0719 74.5365
22039 2 20.0635 42.0891 75.575
22040 2 19.173 43.6595 73.0706
16453 1 12.7452 45.2926 74.4797
22051 2 11.8774 46.9232 75.4909
22066 2 13.7148 46.882 73.0124
22115 2 10.9877 45.2711 73.0418
16417 1 15.4735 46.9018 74.4504
22030 2 17.3337 46.9232 75.4909
22064 2 14.6062 45.3127 75.5195
22065 2 16.4439 45.2711 73.0418
16408 1 20.9297 46.9018 74.4504
16429 1 18.2014 45.2926 74.4797
22029 2 20.0624 45.3127 75.5195
22034 2 19.171 46.882 73.0124
16454 1 12.7457 48.5104 74.4206
22050 2 11.876 50.141 75.4335
22055 2 13.7121 50.101 72.9524
22106 2 10.9855 48.4921 72.9825
16416 1 15.4743 50.1175 74.3904
22024 2 17.3322 50.141 75.4335
22049 2 14.6049 48.5326 75.4622
22068 2 16.4417 48.4921 72.9825
16407 1 20.9306 50.1175 74.3904
16415 1 18.202 48.5104 74.4206
22032 2 20.0611 48.5326 75.4622
22033 2 19.1684 50.101 72.9524
16447 1 12.7463 51.7237 74.3602
22047 2 11.8743 53.354 75.3741
22054 2 13.7093 53.3157 72.8918
22107 2 10.9827 51.7088 72.9221
16413 1 15.4747 53.3292 74.3298
22023 2 17.3305 53.354 75.3741
22052 2 14.6033 51.7481 75.4037
22053 2 16.4389 51.7088 72.9221
16406 1 20.9309 53.3292 74.3298
16418 1 18.2026 51.7237 74.3602
22022 2 20.0595 51.7481 75.4037
22027 2 19.1656 53.3157 72.8918
16448 1 12.7468 54.9337 74.2997
22046 2 11.8723 56.5617 75.3163
22048 2 13.7059 56.5259 72.8326
22105 2 10.9795 54.9214 72.8619
16412 1 15.4751 56.5374 74.2703
22021 2 17.3285 56.5617 75.3163
22045 2 14.6014 54.9586 75.3449
22056 2 16.4358 54.9214 72.8619
16405 1 20.9313 56.5374 74.2703
16411 1 18.203 54.9337 74.2997
22025 2 20.0577 54.9586 75.3449
22026 2 19.1621 56.5259 72.8326
10809 2 11.8396 58.0657 -1.46014
10817 2 13.6655 58.0413 -3.95682
4416 1 12.7736 59.6455 -2.92152
10822 2 10.9391 59.6266 -3.97549
4402 1 15.4987 58.0614 -2.90239
10779 2 17.2958 58.0657 -1.46014
10807 2 14.5687 59.6494 -1.47934
10818 2 16.3954 59.6266 -3.97549
4356 1 20.955 58.0614 -2.90239
10782 2 19.1217 58.0413 -3.95682
4400 1 18.2299 59.6455 -2.92152
10780 2 20.025 59.6494 -1.47934
10808 2 11.8416 61.234 -1.49718
10813 2 13.6689 61.213 -3.99285
4412 1 12.7791 62.8161 -2.95558
10823 2 10.9424 62.8003 -4.00876
4401 1 15.5046 61.2305 -2.93929
10773 2 17.2979 61.234 -1.49718
10810 2 14.5707 62.8195 -1.51355
10811 2 16.3986 62.8003 -4.00876
4355 1 20.9608 61.2305 -2.93929
10781 2 19.1252 61.213 -3.99285
4403 1 18.2354 62.8161 -2.95558
10771 2 20.027 62.8195 -1.51355
10798 2 11.8435 64.4058 -1.5283
10812 2 13.672 64.3884 -4.02312
4413 1 12.7837 65.9891 -2.98322
10820 2 10.9452 65.9772 -4.0358
4394 1 15.5097 64.4023 -2.97026
10772 2 17.2998 64.4058 -1.5283
10796 2 14.5725 65.9928 -1.54134
10814 2 16.4014 65.9772 -4.0358
4354 1 20.9659 64.4023 -2.97026
10776 2 19.1282 64.3884 -4.02312
4392 1 18.24 65.9891 -2.98322
10774 2 20.0287 65.9928 -1.54134
10797 2 11.8451 67.5805 -1.55254
10802 2 13.6745 67.5667 -4.0467
4408 1 12.7872 69.1641 -3.0036
10821 2 10.9473 69.1568 -4.05575
4393 1 15.5137 67.5764 -2.99436
10759 2 17.3014 67.5805 -1.55254
10799 2 14.5739 69.1687 -1.56184
10800 2 16.4036 69.1568 -4.05575
4347 1 20.97 67.5764 -2.99436
10775 2 19.1307 67.5667 -4.0467
4395 1 18.2434 69.1641 -3.0036
10757 2 20.0301 69.1687 -1.56184
10790 2 11.8463 70.7574 -1.56915
10801 2 13.6762 70.7473 -4.06287
4409 1 12.7894 72.3403 -3.01609
10819 2 10.9487 72.3382 -4.06799
4380 1 15.5166 70.7521 -3.01086
10758 2 17.3025 70.7574 -1.56915
10788 2 14.5748 72.3464 -1.57441
10803 2 16.4049 72.3382 -4.06799
4346 1 20.9728 70.7521 -3.01086
10762 2 19.1325 70.7473 -4.06287
4378 1 18.2456 72.3403 -3.01609
10760 2 20.031 72.3464 -1.57441
10789 2 11.8469 73.9356 -1.57758
10791 2 13.6772 73.9293 -4.07108
4799 1 12.7901 75.5173 -3.02029
11232 2 10.9492 75.5205 -4.07212
4379 1 15.518 73.9287 -3.01924
10741 2 17.3031 73.9356 -1.57758
11223 2 14.5751 75.5249 -1.57864
11224 2 16.4054 75.5205 -4.07212
4331 1 20.9743 73.9287 -3.01924
10761 2 19.1334 73.9293 -4.07108
4788 1 18.2463 75.5173 -3.02029
11186 2 20.0313 75.5249 -1.57864
4386 1 11.8433 58.1082 2.35003
4398 1 13.6618 58.0824 -0.240577
4410 1 10.935 59.6651 -0.259899
10806 2 12.7521 59.6756 1.06838
4350 1 17.2995 58.1082 2.35003
10769 2 15.4791 58.0937 1.08796
4384 1 14.5726 59.6892 2.33022
4399 1 16.3912 59.6651 -0.259899
4353 1 19.118 58.0824 -0.240577
10716 2 20.9353 58.0937 1.08796
4351 1 20.0289 59.6892 2.33022
10767 2 18.2083 59.6756 1.06838
4385 1 11.8457 61.2709 2.3118
4390 1 13.6644 61.2485 -0.277857
4411 1 10.9374 62.8327 -0.294315
10794 2 12.7543 62.8418 1.03347
4342 1 17.302 61.2709 2.3118
10768 2 15.4813 61.2584 1.05017
4387 1 14.575 62.8533 2.29491
4388 1 16.3937 62.8327 -0.294315
4352 1 19.1206 61.2485 -0.277857
10715 2 20.9376 61.2584 1.05017
4340 1 20.0312 62.8533 2.29491
10770 2 18.2105 62.8418 1.03347
4372 1 11.8479 64.4362 2.27968
4389 1 13.6666 64.4175 -0.309148
4406 1 10.9395 66.003 -0.322244
10795 2 12.7561 66.0107 1.0051
4341 1 17.3042 64.4362 2.27968
10755 2 15.4834 64.426 1.01841
4370 1 14.577 66.0197 2.26623
4391 1 16.3958 66.003 -0.322244
4345 1 19.1229 64.4175 -0.309148
10714 2 20.9396 64.426 1.01841
4343 1 20.0333 66.0197 2.26623
10753 2 18.2124 66.0107 1.0051
4371 1 11.8498 67.6036 2.25467
4376 1 13.6685 67.5889 -0.333501
4407 1 10.9412 69.1754 -0.342833
10786 2 12.7576 69.1818 0.984173
4327 1 17.306 67.6036 2.25467
10754 2 15.4851 67.596 0.993662
4373 1 14.5786 69.188 2.24508
4374 1 16.3974 69.1754 -0.342833
4344 1 19.1248 67.5889 -0.333501
10707 2 20.9413 67.596 0.993662
4325 1 20.0349 69.188 2.24508
10756 2 18.2139 69.1818 0.984173
4364 1 11.8511 70.7726 2.23755
4375 1 13.6699 70.7621 -0.350168
4405 1 10.9422 72.3492 -0.355448
10787 2 12.7586 72.3543 0.971339
4326 1 17.3074 70.7726 2.23755
10740 2 15.4863 70.7679 0.976712
4362 1 14.5797 72.3575 2.23212
4377 1 16.3985 72.3492 -0.355448
4330 1 19.1261 70.7621 -0.350168
10706 2 20.9425 70.7679 0.976712
4328 1 20.0359 72.3575 2.23212
10738 2 18.2148 72.3543 0.971339
4363 1 11.8518 73.9426 2.22885
4365 1 13.6706 73.9364 -0.358632
4798 1 10.9426 75.5238 -0.359697
11213 2 12.7589 75.5276 0.967015
4309 1 17.3081 73.9426 2.22885
10739 2 15.4869 73.9409 0.968099
4780 1 14.58 75.5277 2.22775
4781 1 16.3988 75.5238 -0.359697
4329 1 19.1268 73.9364 -0.358632
10691 2 20.9432 73.9409 0.968099
4733 1 20.0363 75.5277 2.22775
11185 2 18.2151 75.5276 0.967015
10765 2 13.6623 58.1203 3.64971
4383 1 12.7556 59.7128 4.90528
10792 2 10.9355 59.7006 3.62971
4338 1 15.4823 58.1333 4.92562
10766 2 16.3918 59.7006 3.62971
4284 1 20.9385 58.1333 4.92562
10713 2 19.1186 58.1203 3.64971
4336 1 18.2118 59.7128 4.90528
10751 2 13.6649 61.2815 3.6111
4368 1 12.7582 62.8735 4.86898
10793 2 10.938 62.8631 3.59402
4337 1 15.485 61.2928 4.88635
10749 2 16.3942 62.8631 3.59402
4283 1 20.9413 61.2928 4.88635
10712 2 19.1211 61.2815 3.6111
4339 1 18.2144 62.8735 4.86898
10750 2 13.6672 64.4453 3.57862
4369 1 12.7605 66.0364 4.83948
10784 2 10.9401 66.028 3.56501
4323 1 15.4875 64.4547 4.85332
10752 2 16.3963 66.028 3.56501
4282 1 20.9437 64.4547 4.85332
10705 2 19.1234 64.4453 3.57862
4321 1 18.2167 66.0364 4.83948
10736 2 13.6691 67.6112 3.5533
4360 1 12.7622 69.2009 4.81771
10785 2 10.9418 69.1947 3.54359
4322 1 15.4895 67.6185 4.82758
10734 2 16.398 69.1947 3.54359
4275 1 20.9458 67.6185 4.82758
10704 2 19.1253 67.6112 3.5533
4324 1 18.2185 69.2009 4.81771
10783 2 10.9428 72.3627 3.53046
4361 1 12.7634 72.3666 4.80436
10735 2 13.6705 70.7786 3.53596
10737 2 16.3991 72.3627 3.53046
4308 1 15.491 70.7836 4.80995
4306 1 18.2196 72.3666 4.80436
10690 2 19.1267 70.7786 3.53596
4274 1 20.9473 70.7836 4.80995
10725 2 13.6712 73.947 3.52714
11212 2 10.9432 75.5313 3.52603
4766 1 12.7638 75.5327 4.79986
4307 1 15.4918 73.9496 4.80099
11172 2 16.3994 75.5313 3.52603
10689 2 19.1275 73.947 3.52714
4260 1 20.9481 73.9496 4.80099
4732 1 18.2201 75.5327 4.79986
4334 1 13.6647 58.1582 7.495
10747 2 11.8451 58.1458 6.21497
4366 1 10.938 59.7362 7.47395
10744 2 12.7573 59.7473 8.76064
10698 2 15.4839 58.1701 8.78193
10710 2 17.3013 58.1458 6.21497
4335 1 16.3943 59.7362 7.47395
10745 2 14.5746 59.7245 6.19439
4281 1 19.1209 58.1582 7.495
10656 2 20.9401 58.1701 8.78193
10696 2 18.2135 59.7473 8.76064
10711 2 20.0308 59.7245 6.19439
4319 1 13.6675 61.3147 7.45435
10746 2 11.8478 61.3038 6.17524
4367 1 10.9407 62.8938 7.43638
10728 2 12.7601 62.9032 8.72263
10697 2 15.4869 61.325 8.74082
10702 2 17.3041 61.3038 6.17524
4317 1 16.3969 62.8938 7.43638
10748 2 14.5772 62.8837 6.15767
4280 1 19.1238 61.3147 7.45435
10655 2 20.9431 61.325 8.74082
10699 2 18.2163 62.9032 8.72263
10700 2 20.0334 62.8837 6.15767
4318 1 13.67 64.4733 7.42019
10732 2 11.8502 64.4641 6.14183
4358 1 10.943 66.0533 7.40591
10729 2 12.7625 66.061 8.6918
10683 2 15.4895 64.4819 8.70625
10701 2 17.3065 64.4641 6.14183
4320 1 16.3992 66.0533 7.40591
10730 2 14.5794 66.045 6.12785
4273 1 19.1262 64.4733 7.42019
10654 2 20.9457 64.4819 8.70625
10681 2 18.2187 66.061 8.6918
10703 2 20.0356 66.045 6.12785
4304 1 13.672 67.6336 7.39366
10731 2 11.8522 67.6262 6.11586
4359 1 10.9447 69.2143 7.38355
10720 2 12.7643 69.2203 8.66924
10682 2 15.4916 67.6405 8.67943
10687 2 17.3084 67.6262 6.11586
4302 1 16.4009 69.2143 7.38355
10733 2 14.5811 69.2078 6.10594
4272 1 19.1283 67.6336 7.39366
10648 2 20.9478 67.6405 8.67943
10684 2 18.2205 69.2203 8.66924
10685 2 20.0373 69.2078 6.10594
4303 1 13.6734 70.7952 7.37566
10724 2 11.8536 70.7897 6.09818
4357 1 10.9457 72.3763 7.37006
10721 2 12.7653 72.3805 8.65575
10671 2 15.493 70.8003 8.66133
10686 2 17.3098 70.7897 6.09818
4305 1 16.402 72.3763 7.37006
10722 2 14.5821 72.3718 6.09265
4259 1 19.1297 70.7952 7.37566
10647 2 20.9493 70.8003 8.66133
10669 2 18.2216 72.3805 8.65575
10688 2 20.0384 72.3718 6.09265
4293 1 13.6741 73.9575 7.3668
10723 2 11.8542 73.954 6.0894
4765 1 10.946 75.5387 7.3659
11151 2 12.7655 75.5411 8.65179
10670 2 15.4937 73.9608 8.65256
10672 2 17.3105 73.954 6.0894
4717 1 16.4022 75.5387 7.3659
11171 2 14.5824 75.5363 6.08844
4258 1 19.1303 73.9575 7.3668
10640 2 20.9499 73.9608 8.65256
11116 2 18.2218 75.5411 8.65179
11117 2 20.0386 75.5363 6.08844
4315 1 11.8471 58.1817 10.0634
10694 2 13.6663 58.1938 11.3497
10726 2 10.9399 59.7694 11.3275
4278 1 17.3034 58.1817 10.0634
4313 1 14.5768 59.7582 10.0415
10695 2 16.3961 59.7694 11.3275
10653 2 19.1225 58.1938 11.3497
4279 1 20.0331 59.7582 10.0415
4314 1 11.8502 61.3352 10.0211
10679 2 13.6697 61.3455 11.3069
10727 2 10.9431 62.9221 11.2879
4296 1 12.7628 62.931 12.568
4270 1 17.3065 61.3352 10.0211
4316 1 14.5798 62.9126 10.0025
10677 2 16.3993 62.9221 11.2879
4265 1 15.4893 61.3553 12.5876
10652 2 19.1259 61.3455 11.3069
4268 1 20.036 62.9126 10.0025
4267 1 18.219 62.931 12.568
4235 1 20.9455 61.3553 12.5876
4300 1 11.853 64.4905 9.98563
10678 2 13.6727 64.499 11.2709
10718 2 10.9458 66.0764 11.2559
4297 1 12.7658 66.0838 12.5349
4269 1 17.3092 64.4905 9.98563
4298 1 14.5823 66.0687 9.9708
10680 2 16.4021 66.0764 11.2559
4252 1 15.4925 64.5072 12.5504
4250 1 18.222 66.0838 12.5349
10646 2 19.1289 64.499 11.2709
4271 1 20.0385 66.0687 9.9708
4234 1 20.9487 64.5072 12.5504
4288 1 12.7681 69.2378 12.5108
4299 1 11.8552 67.6474 9.95812
10667 2 13.6751 67.6541 11.243
10719 2 10.9479 69.2321 11.2325
4256 1 17.3114 67.6474 9.95812
4301 1 14.5842 69.2263 9.94769
10665 2 16.4042 69.2321 11.2325
4251 1 15.4952 67.6606 12.5216
4253 1 18.2243 69.2378 12.5108
10645 2 19.1313 67.6541 11.243
4254 1 20.0404 69.2263 9.94769
4231 1 20.9514 67.6606 12.5216
4292 1 11.8567 70.8054 9.93961
10666 2 13.6768 70.8103 11.2243
4289 1 12.7693 72.3926 12.4967
10717 2 10.9491 72.3887 11.2187
4244 1 15.497 70.8151 12.5025
4255 1 17.313 70.8054 9.93961
4290 1 14.5853 72.3847 9.93396
10668 2 16.4053 72.3887 11.2187
4230 1 20.9532 70.8151 12.5025
10639 2 19.133 70.8103 11.2243
4257 1 20.0415 72.3847 9.93396
4242 1 18.2256 72.3926 12.4967
4291 1 11.8574 73.9641 9.93078
10660 2 13.6774 73.9671 11.2155
11150 2 10.9492 75.5456 11.215
4695 1 12.7694 75.5478 12.4931
4243 1 15.4976 73.9702 12.4936
4245 1 17.3136 73.9641 9.93078
4716 1 14.5854 75.5435 9.93009
11101 2 16.4054 75.5456 11.215
4227 1 20.9539 73.9702 12.4936
10638 2 19.1336 73.9671 11.2155
4661 1 20.0417 75.5435 9.93009
4660 1 18.2256 75.5478 12.4931
4262 1 13.6678 58.2291 15.2005
10675 2 11.8485 58.2178 13.918
4312 1 12.7594 59.7799 12.6089
4294 1 10.9418 59.8023 15.1764
4266 1 15.4857 58.2051 12.6317
10650 2 17.3048 58.2178 13.918
4263 1 16.3981 59.8023 15.1764
10673 2 14.5787 59.7918 13.8948
4233 1 19.124 58.2291 15.2005
4236 1 20.9419 58.2051 12.6317
4264 1 18.2156 59.7799 12.6089
10651 2 20.0349 59.7918 13.8948
4248 1 13.6721 61.3759 15.1539
10674 2 11.8525 61.3662 13.8732
4295 1 10.946 62.9499 15.1333
10643 2 17.3087 61.3662 13.8732
4246 1 16.4022 62.9499 15.1333
10676 2 14.5825 62.941 13.8533
4232 1 19.1283 61.3759 15.1539
10641 2 20.0387 62.941 13.8533
4247 1 13.676 64.5243 15.1147
10663 2 11.8561 64.5162 13.8354
4286 1 10.9497 66.099 15.0983
10642 2 17.3123 64.5162 13.8354
4249 1 16.4059 66.099 15.0983
10661 2 14.5858 66.0917 13.8196
4229 1 19.1323 64.5243 15.1147
10644 2 20.0421 66.0917 13.8196
4240 1 13.6794 67.674 15.0844
10662 2 11.8591 67.6676 13.8062
4287 1 10.9527 69.2493 15.0731
10636 2 17.3154 67.6676 13.8062
10664 2 14.5884 69.2437 13.7952
4238 1 16.4089 69.2493 15.0731
4228 1 19.1357 67.674 15.0844
10634 2 20.0447 69.2437 13.7952
4239 1 13.6818 70.8247 15.0644
10659 2 11.8612 70.82 13.7868
4285 1 10.9543 72.4003 15.0585
4241 1 16.4105 72.4003 15.0585
10657 2 14.5899 72.3965 13.781
10635 2 17.3174 70.82 13.7868
10637 2 20.0461 72.3965 13.781
4226 1 19.138 70.8247 15.0644
4237 1 13.6826 73.9759 15.0554
10658 2 11.8619 73.973 13.7779
4694 1 10.9542 75.5515 15.0552
10633 2 17.3182 73.973 13.7779
11100 2 14.5899 75.5495 13.7776
4645 1 16.4105 75.5515 15.0552
4225 1 19.1389 73.9759 15.0554
11057 2 20.0461 75.5495 13.7776
10998 2 13.6683 58.271 19.0568
4606 1 11.8496 58.255 17.7698
11016 2 12.761 59.8153 16.4625
11010 2 10.9431 59.8412 19.0307
11002 2 15.4868 58.2431 16.487
4583 1 17.3058 58.255 17.7698
4604 1 14.5803 59.8263 17.7442
10999 2 16.3994 59.8412 19.0307
10953 2 19.1246 58.271 19.0568
10956 2 20.943 58.2431 16.487
11000 2 18.2173 59.8153 16.4625
4584 1 20.0365 59.8263 17.7442
4605 1 11.8548 61.398 17.7203
10990 2 13.6742 61.4117 19.0063
11012 2 12.7657 62.9608 16.4186
11011 2 10.949 62.9825 18.9838
11001 2 15.4915 61.3879 16.4396
4579 1 17.311 61.398 17.7203
4607 1 14.5854 62.9701 17.6983
10988 2 16.4052 62.9825 18.9838
10952 2 19.1304 61.4117 19.0063
10955 2 20.9478 61.3879 16.4396
11003 2 18.2219 62.9608 16.4186
4577 1 20.0417 62.9701 17.6983
4599 1 11.8598 64.5425 17.6786
10989 2 13.68 64.5537 18.9637
11013 2 12.77 66.1077 16.383
11006 2 10.9546 66.1251 18.946
10994 2 15.496 64.5341 16.3996
4578 1 17.3161 64.5425 17.6786
4597 1 14.5903 66.1152 17.6612
10991 2 16.4109 66.1251 18.946
10945 2 19.1362 64.5537 18.9637
10954 2 20.9523 64.5341 16.3996
4580 1 20.0466 66.1152 17.6612
10992 2 18.2262 66.1077 16.383
4598 1 11.8644 67.6882 17.6465
10976 2 13.6853 67.6967 18.9311
11008 2 12.7734 69.2556 16.3574
11007 2 10.9593 69.2684 18.919
10993 2 15.5 67.6816 16.3689
4567 1 17.3206 67.6882 17.6465
4600 1 14.5943 69.2613 17.6346
10974 2 16.4156 69.2684 18.919
10944 2 19.1415 67.6967 18.9311
10947 2 20.9562 67.6816 16.3689
10995 2 18.2297 69.2556 16.3574
4565 1 20.0506 69.2613 17.6346
4592 1 11.8676 70.8345 17.6255
10975 2 13.6891 70.8401 18.9098
11009 2 12.7753 72.4041 16.3427
11005 2 10.9621 72.4119 18.9037
4566 1 17.3239 70.8345 17.6255
10980 2 15.5027 70.8298 16.3486
4590 1 14.5966 72.4078 17.6194
10977 2 16.4183 72.4119 18.9037
10930 2 19.1454 70.8401 18.9098
10946 2 20.959 70.8298 16.3486
4568 1 20.0529 72.4078 17.6194
10978 2 18.2316 72.4041 16.3427
4591 1 11.8688 73.9812 17.6164
10965 2 13.6905 73.9837 18.9007
11423 2 12.7753 75.5528 16.3395
11422 2 10.9619 75.5554 18.9008
4549 1 17.325 73.9812 17.6164
10979 2 15.5037 73.9785 16.3396
11405 2 16.4181 75.5554 18.9008
4992 1 14.5965 75.5545 17.6163
10929 2 19.1467 73.9837 18.9007
10931 2 20.9599 73.9785 16.3396
11412 2 18.2315 75.5528 16.3395
4966 1 20.0527 75.5545 17.6163
4602 1 12.7558 56.7151 20.3687
10986 2 11.8492 58.3027 21.6276
10996 2 14.5738 56.735 21.6568
4575 1 15.4871 58.2839 20.3401
10950 2 17.3055 58.3027 21.6276
4524 1 20.9433 58.2839 20.3401
4581 1 18.212 56.7151 20.3687
10949 2 20.0301 56.735 21.6568
4603 1 12.7621 59.8532 20.3126
10985 2 11.8564 61.4389 21.5733
4595 1 12.7686 62.9926 20.2633
4574 1 15.4935 61.4227 20.2869
10942 2 17.3127 61.4389 21.5733
10984 2 14.5809 59.8707 21.5996
4523 1 20.9497 61.4227 20.2869
4573 1 18.2184 59.8532 20.3126
10951 2 20.0372 59.8707 21.5996
4576 1 18.2248 62.9926 20.2633
10972 2 11.864 64.5761 21.5275
4596 1 12.7751 66.1333 20.2237
4563 1 15.5 64.5629 20.2421
10941 2 17.3202 64.5761 21.5275
10987 2 14.5883 63.0074 21.5491
10970 2 14.5958 66.145 21.5087
4522 1 20.9562 64.5629 20.2421
10940 2 20.0445 63.0074 21.5491
4561 1 18.2313 66.1333 20.2237
10943 2 20.0521 66.145 21.5087
10971 2 11.8713 67.714 21.4929
4588 1 12.7808 69.2745 20.1955
4562 1 15.5062 67.7039 20.2081
10927 2 17.3275 67.714 21.4929
10973 2 14.6025 69.2828 21.4803
4515 1 20.9625 67.7039 20.2081
4564 1 18.237 69.2745 20.1955
10925 2 20.0588 69.2828 21.4803
10964 2 11.8769 70.8515 21.4709
4589 1 12.7841 72.4157 20.1798
4548 1 15.511 70.8451 20.1861
10926 2 17.3331 70.8515 21.4709
10962 2 14.6065 72.4201 21.4647
4514 1 20.9672 70.8451 20.1861
4546 1 18.2404 72.4157 20.1798
10928 2 20.0627 72.4201 21.4647
10963 2 11.8788 73.9885 21.4617
4986 1 12.7839 75.5567 20.177
4547 1 15.5126 73.9862 20.1768
10909 2 17.3351 73.9885 21.4617
11404 2 14.6062 75.557 21.462
4499 1 20.9689 73.9862 20.1768
4965 1 18.2401 75.5567 20.177
11357 2 20.0625 75.557 21.462
4555 1 11.8467 58.358 25.4856
4571 1 13.6675 58.3175 22.9117
4601 1 10.9356 56.7511 22.9426
10982 2 12.753 56.7751 24.2314
4518 1 17.3029 58.358 25.4856
4569 1 14.5702 56.7944 25.5191
4570 1 16.3918 56.7511 22.9426
10938 2 15.4853 58.3403 24.1999
4517 1 20.0264 56.7944 25.5191
4521 1 19.1238 58.3175 22.9117
10884 2 20.9416 58.3403 24.1999
10948 2 18.2092 56.7751 24.2314
4554 1 11.8564 61.4858 25.4219
4559 1 13.6754 61.4514 22.854
4593 1 10.9433 59.8843 22.882
10983 2 12.7616 59.9056 24.1695
4510 1 17.3126 61.4858 25.4219
4553 1 14.5795 59.9217 25.4529
4572 1 16.3995 59.8843 22.882
10937 2 15.4942 61.471 24.1408
4519 1 20.0357 59.9217 25.4529
4520 1 19.1316 61.4514 22.854
10883 2 20.9505 61.471 24.1408
10936 2 18.2178 59.9056 24.1695
4540 1 11.8674 64.6152 25.3685
4558 1 13.6839 64.5866 22.8054
4594 1 10.9514 63.0189 22.8283
10968 2 12.7709 63.0368 24.1145
4509 1 17.3236 64.6152 25.3685
4556 1 14.5898 63.0503 25.3935
4557 1 16.4077 63.0189 22.8283
10923 2 15.504 64.6027 24.0912
4508 1 20.046 63.0503 25.3935
4513 1 19.1401 64.5866 22.8054
10882 2 20.9602 64.6027 24.0912
10939 2 18.2271 63.0368 24.1145
4539 1 11.8796 67.7448 25.3305
4544 1 13.6926 67.7223 22.7693
4586 1 10.9602 66.1545 22.7857
10969 2 12.781 66.1687 24.0711
4587 1 10.9684 69.2899 22.7563
10960 2 12.7906 69.2998 24.0418
4495 1 17.3358 67.7448 25.3305
4538 1 14.6015 66.1801 25.3474
4560 1 16.4164 66.1545 22.7857
10922 2 15.5141 67.7345 24.0547
4542 1 16.4246 69.2899 22.7563
4511 1 20.0578 66.1801 25.3474
4512 1 19.1488 67.7223 22.7693
10875 2 20.9704 67.7345 24.0547
10921 2 18.2372 66.1687 24.0711
10924 2 18.2468 69.2998 24.0418
4532 1 11.8901 70.8717 25.3086
4543 1 13.6996 70.8572 22.7467
10961 2 12.7966 72.4291 24.0264
4585 1 10.9734 72.4241 22.7405
4545 1 16.4297 72.4241 22.7405
4530 1 14.6213 72.4338 25.3029
4494 1 17.3464 70.8717 25.3086
4541 1 14.6135 69.3087 25.3177
10908 2 15.5224 70.8647 24.0324
4496 1 20.0775 72.4338 25.3029
10906 2 18.2529 72.4291 24.0264
4493 1 20.0697 69.3087 25.3177
4498 1 19.1558 70.8572 22.7467
10874 2 20.9786 70.8647 24.0324
4531 1 11.8941 73.9953 25.3002
4533 1 13.7021 73.9909 22.7375
11390 2 12.7962 75.5572 24.0238
4985 1 10.9731 75.5577 22.7378
10907 2 15.5254 73.9931 24.0235
4478 1 17.3503 73.9953 25.3002
4954 1 16.4293 75.5577 22.7378
4953 1 14.6208 75.5568 25.3004
10860 2 20.9817 73.9931 24.0235
4497 1 19.1584 73.9909 22.7375
11356 2 18.2525 75.5572 24.0238
4901 1 20.077 75.5568 25.3004
4551 1 12.7465 56.8485 28.0995
10934 2 13.6636 58.3865 26.7745
10981 2 10.9304 56.824 26.8086
4506 1 15.4801 58.4088 28.0633
10933 2 16.3867 56.824 26.8086
4458 1 20.9363 58.4088 28.0633
4516 1 18.2028 56.8485 28.0995
10881 2 19.1199 58.3865 26.7745
4552 1 12.7576 59.9686 28.0269
10919 2 13.6745 61.5105 26.7091
10966 2 10.9408 59.9485 26.741
4505 1 15.4918 61.5285 27.9917
10935 2 16.397 59.9485 26.741
4457 1 20.9481 61.5285 27.9917
4504 1 18.2139 59.9686 28.0269
10880 2 19.1307 61.5105 26.7091
4536 1 12.7704 63.0892 27.9595
10918 2 13.6871 64.6352 26.6544
10967 2 10.9524 63.0727 26.6799
10900 2 11.8687 64.6759 29.2164
4491 1 15.5061 64.6505 27.9315
10917 2 16.4087 63.0727 26.6799
10869 2 17.3249 64.6759 29.2164
10916 2 14.5883 63.1183 29.2452
4456 1 20.9623 64.6505 27.9315
4507 1 18.2267 63.0892 27.9595
10873 2 19.1433 64.6352 26.6544
10868 2 20.0445 63.1183 29.2452
4537 1 12.7864 66.212 27.909
10904 2 13.7013 67.7596 26.6162
10958 2 10.966 66.1976 26.633
10899 2 11.8885 67.7906 29.1772
4490 1 15.5235 67.7728 27.8921
10920 2 16.4222 66.1976 26.633
10856 2 17.3448 67.7906 29.1772
10898 2 14.6064 66.2336 29.1935
4449 1 20.9797 67.7728 27.8921
4489 1 18.2426 66.212 27.909
10872 2 19.1575 67.7596 26.6162
10871 2 20.0627 66.2336 29.1935
4528 1 12.8039 69.3323 27.8809
10903 2 13.7136 70.8805 26.5955
10959 2 10.9799 69.3206 26.6039
10892 2 11.907 70.8992 29.1616
4529 1 12.8161 72.4453 27.8702
10957 2 10.9891 72.4393 26.5904
4477 1 15.5393 70.8899 27.8737
10902 2 16.4361 69.3206 26.6039
10855 2 17.3632 70.8992 29.1616
10901 2 14.6268 69.3459 29.1668
10905 2 16.4453 72.4393 26.5904
10890 2 14.6407 72.4506 29.1596
4448 1 20.9956 70.8899 27.8737
4492 1 18.2602 69.3323 27.8809
10859 2 19.1698 70.8805 26.5955
10854 2 20.083 69.3459 29.1668
4475 1 18.2724 72.4453 27.8702
10857 2 20.097 72.4506 29.1596
10893 2 13.7183 73.9973 26.5881
10891 2 11.9143 74.0012 29.1583
4935 1 12.8154 75.5534 27.8677
11389 2 10.9885 75.5554 26.588
4476 1 15.5459 73.9993 27.8686
10845 2 17.3705 74.0012 29.1583
11341 2 16.4448 75.5554 26.588
11340 2 14.64 75.552 29.157
4437 1 21.0021 73.9993 27.8686
10858 2 19.1746 73.9973 26.5881
4900 1 18.2717 75.5534 27.8677
11285 2 20.0962 75.552 29.157
4502 1 13.6543 58.4759 30.6472
4550 1 10.92 56.9185 30.685
10911 2 12.7333 56.9631 31.972
10915 2 11.8394 58.4451 29.3522
4501 1 16.3762 56.9185 30.685
10866 2 15.4678 58.5215 31.9336
10878 2 17.2957 58.4451 29.3522
10932 2 14.5616 56.8853 29.3888
4455 1 19.1106 58.4759 30.6472
10836 2 20.9241 58.5215 31.9336
10876 2 18.1896 56.9631 31.972
10877 2 20.0179 56.8853 29.3888
4487 1 13.6682 61.5845 30.5667
4534 1 10.9329 60.0308 30.6074
10912 2 12.747 60.0764 31.8927
10914 2 11.8526 61.5608 29.2786
4503 1 16.3892 60.0308 30.6074
10865 2 15.4833 61.6282 31.8503
10870 2 17.3088 61.5608 29.2786
10913 2 14.5739 60.0033 29.315
4454 1 19.1244 61.5845 30.5667
10835 2 20.9395 61.6282 31.8503
10864 2 18.2032 60.0764 31.8927
10879 2 20.0302 60.0033 29.315
4486 1 13.6865 64.6955 30.4961
4535 1 10.9481 63.1393 30.5286
10896 2 12.7642 63.1782 31.8095
4485 1 16.4043 63.1393 30.5286
10852 2 15.5035 64.7287 31.7757
4447 1 19.1427 64.6955 30.4961
10834 2 20.9597 64.7287 31.7757
10867 2 18.2205 63.1782 31.8095
4473 1 13.7119 67.8082 30.4555
4526 1 10.9698 66.2522 30.4711
10897 2 12.7883 66.2787 31.75
4488 1 16.4261 66.2522 30.4711
10851 2 15.5317 67.8279 31.7359
4446 1 19.1681 67.8082 30.4555
10831 2 20.988 67.8279 31.7359
10850 2 18.2445 66.2787 31.75
4472 1 13.7363 70.9118 30.4465
4527 1 10.9959 69.3623 30.4477
10888 2 12.8189 69.3746 31.7305
4471 1 16.4521 69.3623 30.4477
10844 2 15.5601 70.9179 31.7345
4436 1 19.1925 70.9118 30.4465
10830 2 21.0164 70.9179 31.7345
10853 2 18.2751 69.3746 31.7305
4464 1 13.746 74.003 30.4469
4525 1 11.016 72.4574 30.4477
10889 2 12.8401 72.4613 31.7373
4934 1 11.015 75.5488 30.4448
11319 2 12.8391 75.5485 31.7343
4474 1 16.4722 72.4574 30.4477
10843 2 15.5706 74.0049 31.7371
4885 1 16.4712 75.5488 30.4448
4435 1 19.2023 74.003 30.4469
10827 2 21.0269 74.0049 31.7371
10842 2 18.2963 72.4613 31.7373
11284 2 18.2953 75.5485 31.7343
4483 1 11.8242 58.5683 33.239
10862 2 13.6358 58.6217 34.5169
4500 1 14.5459 57.0104 33.2752
4479 1 12.7112 57.13 35.8658
4452 1 17.2805 58.5683 33.239
10861 2 16.3583 57.0611 34.5553
4440 1 15.4434 58.6977 35.8356
4450 1 18.1675 57.13 35.8658
4451 1 20.0021 57.0104 33.2752
10833 2 19.092 58.6217 34.5169
7646 2 21.8146 57.0611 34.5553
4422 1 20.8997 58.6977 35.8356
4482 1 11.84 61.6666 33.1554
10848 2 13.6515 61.7236 34.4255
10894 2 10.9146 60.1764 34.4738
4480 1 12.7204 60.2585 35.8024
4444 1 17.2962 61.6666 33.1554
4481 1 14.5598 60.1202 33.199
10863 2 16.3709 60.1764 34.4738
4439 1 15.4547 61.8077 35.7647
4438 1 18.1767 60.2585 35.8024
4453 1 20.0161 60.1202 33.199
10832 2 19.1077 61.7236 34.4255
4421 1 20.9109 61.8077 35.7647
4469 1 11.8601 64.7562 33.0673
10847 2 13.6737 64.7996 34.3258
10895 2 10.9341 63.264 34.3735
4465 1 12.7346 63.3455 35.7226
4443 1 17.3163 64.7562 33.0673
4484 1 14.5762 63.2099 33.1087
10846 2 16.3903 63.264 34.3735
4429 1 15.4705 64.8631 35.668
4442 1 20.0324 63.2099 33.1087
10829 2 19.1299 64.7996 34.3258
4441 1 18.1908 63.3455 35.7226
4420 1 20.9267 64.8631 35.668
4468 1 11.8974 67.8552 33.0221
10840 2 13.7143 67.8687 34.2867
10886 2 10.9667 66.336 34.2976
4466 1 12.7561 66.4033 35.6291
4433 1 17.3536 67.8552 33.0221
4467 1 14.6048 66.3052 33.0403
10849 2 16.423 66.336 34.2976
4428 1 15.5522 67.8955 35.6316
4445 1 20.0611 66.3052 33.0403
10828 2 19.1705 67.8687 34.2867
4427 1 18.2124 66.4033 35.6291
4419 1 21.0085 67.8955 35.6316
4463 1 11.9408 70.9272 33.0366
10839 2 13.763 70.9296 34.3176
10887 2 11.0143 69.395 34.3037
4459 1 12.8516 69.3908 35.658
4432 1 17.3971 70.9272 33.0366
4470 1 14.6485 69.3948 33.0297
10838 2 16.4706 69.395 34.3037
4425 1 15.5976 70.9334 35.6353
4431 1 20.1048 69.3948 33.0297
10826 2 19.2193 70.9296 34.3176
4430 1 18.3079 69.3908 35.658
4418 1 21.0538 70.9334 35.6353
10885 2 11.0496 72.4686 34.3238
4460 1 12.8793 72.4699 35.6296
10837 2 13.7825 74.0086 34.3255
4462 1 11.9513 74.0067 33.0359
4863 1 12.879 75.5499 35.6281
11318 2 11.0482 75.5485 34.3204
4424 1 15.6084 74.0109 35.6324
10841 2 16.5058 72.4686 34.3238
4461 1 14.6772 72.4663 33.0364
4426 1 17.4075 74.0067 33.0359
11269 2 16.5044 75.5485 34.3204
4884 1 14.6762 75.5471 33.0336
4417 1 21.0646 74.0109 35.6324
4423 1 18.3355 72.4699 35.6296
4434 1 20.1334 72.4663 33.0364
10825 2 19.2388 74.0086 34.3255
4834 1 18.3353 75.5499 35.6281
4835 1 20.1324 75.5471 33.0336
11038 2 11.802 58.7505 37.0951
16757 1 13.5927 58.8791 38.4212
11040 2 14.5268 57.1806 37.1326
11027 2 17.2583 58.7505 37.0951
16756 1 16.3274 57.2808 38.4451
11026 2 19.983 57.1806 37.1326
16722 1 19.049 58.8791 38.4212
13944 1 21.7837 57.2808 38.4451
11037 2 11.813 61.8652 37.0001
16753 1 13.5639 62.095 38.37
11036 2 14.5353 60.3126 37.0514
11024 2 17.2692 61.8652 37.0001
16758 1 16.3113 60.4804 38.398
11028 2 19.9916 60.3126 37.0514
16721 1 19.0201 62.095 38.37
13942 1 21.7675 60.4804 38.398
11034 2 11.8356 64.9193 36.8691
16752 1 13.2948 65.5407 38.4279
11023 2 17.2918 64.9193 36.8691
11039 2 14.5533 63.3985 36.9341
16751 1 16.2466 63.7183 38.3522
11022 2 20.0096 63.3985 36.9341
16716 1 18.7511 65.5407 38.4279
13943 1 21.7028 63.7183 38.3522
11033 2 11.8773 67.8827 36.8749
16742 1 13.0917 69.1137 38.3002
11020 2 17.3335 67.8827 36.8749
11032 2 14.5552 66.4074 36.8133
16754 1 15.7818 67.2651 38.3694
11025 2 20.0115 66.4074 36.8133
16715 1 18.5479 69.1137 38.3002
13940 1 21.238 67.2651 38.3694
11031 2 12.0056 70.9216 36.8972
16741 1 13.0907 72.4245 38.2397
11019 2 17.4618 70.9216 36.8972
11035 2 14.6886 69.3827 36.876
16740 1 15.819 70.7923 38.24
11018 2 20.1448 69.3827 36.876
16702 1 18.5469 72.4245 38.2397
13941 1 21.2753 70.7923 38.24
11030 2 12.0218 74.0126 36.9062
11017 2 17.478 74.0126 36.9062
11029 2 14.7469 72.4639 36.9091
16743 1 15.8225 74.0211 38.2428
11448 2 14.7438 75.5619 36.9063
11021 2 20.2031 72.4639 36.9091
13939 1 21.2787 74.0211 38.2428
11434 2 20.2001 75.5619 36.9063
22379 2 12.6991 57.3204 39.6966
22362 2 13.6028 59.0689 42.2043
16749 1 11.7637 59.0502 40.9688
16755 1 14.5005 57.4292 40.9988
22366 2 15.4262 58.9139 39.6595
22361 2 16.3343 57.4561 42.2446
16719 1 17.2199 59.0502 40.9688
22368 2 18.1553 57.3204 39.6966
19558 2 21.7906 57.4561 42.2446
16718 1 19.9567 57.4292 40.9988
22317 2 19.0591 59.0689 42.2043
22320 2 20.8825 58.9139 39.6595
22380 2 12.6966 60.5135 39.6172
16748 1 11.7294 62.33 40.9033
22354 2 13.5875 62.3255 42.1047
16747 1 14.4779 60.6791 40.937
22365 2 15.4192 62.1176 39.5706
22363 2 16.3254 60.6902 42.1587
16713 1 17.1856 62.33 40.9033
22364 2 18.1528 60.5135 39.6172
19554 2 21.7817 60.6902 42.1587
16720 1 19.9342 60.6791 40.937
22316 2 19.0437 62.3255 42.1047
22319 2 20.8755 62.1176 39.5706
22376 2 12.6833 63.7474 39.5086
16738 1 11.7409 65.6418 40.6841
22353 2 13.5427 65.671 41.9732
16750 1 14.4426 63.987 40.8477
22358 2 15.371 65.4056 39.4333
16712 1 17.1971 65.6418 40.6841
22352 2 16.2973 63.9924 42.0427
22367 2 18.1395 63.7474 39.5086
19555 2 21.7536 63.9924 42.0427
16711 1 19.8989 63.987 40.8477
22309 2 18.999 65.671 41.9732
22318 2 20.8273 65.4056 39.4333
22377 2 12.5309 67.2889 39.3862
16737 1 11.6559 68.9634 40.6473
22340 2 13.4696 69.0136 41.9482
16736 1 14.463 67.2397 40.568
22357 2 15.2071 69.0655 39.4223
16699 1 17.1121 68.9634 40.6473
22355 2 16.2354 67.335 41.9437
22356 2 17.9871 67.2889 39.3862
19550 2 21.6917 67.335 41.9437
16714 1 19.9193 67.2397 40.568
22308 2 18.9258 69.0136 41.9482
22311 2 20.6633 69.0655 39.4223
22372 2 12.4393 70.7536 39.4618
16730 1 11.5554 72.3519 40.7673
22339 2 13.4275 72.371 41.9951
16739 1 14.3176 70.6597 40.7295
16698 1 17.0116 72.3519 40.7673
22338 2 16.1707 70.6962 41.9773
22344 2 15.1502 72.3893 39.4827
22359 2 17.8955 70.7536 39.4618
19551 2 21.6269 70.6962 41.9773
16697 1 19.7738 70.6597 40.7295
22294 2 18.8837 72.371 41.9951
22310 2 20.6064 72.3893 39.4827
22373 2 12.4142 74.0238 39.4931
16728 1 14.28 74.0326 40.7642
22341 2 16.1492 74.0338 41.9997
22342 2 17.8704 74.0238 39.4931
19549 2 21.6055 74.0338 41.9997
16700 1 19.7363 74.0326 40.7642
16745 1 12.6866 57.5543 43.5323
22350 2 11.7864 59.1984 44.74
22360 2 14.5187 57.5751 44.7832
16709 1 15.4084 59.1834 43.4945
22314 2 17.2426 59.1984 44.74
16717 1 18.1429 57.5543 43.5323
16656 1 20.8646 59.1834 43.4945
22313 2 19.975 57.5751 44.7832
16746 1 12.6743 60.8206 43.4494
22349 2 11.77 62.4707 44.6389
22348 2 14.5081 60.8302 44.6919
16691 1 13.5916 62.552 45.9105
16708 1 15.4002 62.4647 43.3857
22306 2 17.2262 62.4707 44.6389
16707 1 18.1306 60.8206 43.4494
16655 1 20.8565 62.4647 43.3857
22315 2 19.9643 60.8302 44.6919
16652 1 19.0479 62.552 45.9105
16734 1 12.6635 64.1117 43.3088
22336 2 11.7386 65.7596 44.543
22351 2 14.4831 64.1153 44.5862
16690 1 13.5645 65.8161 45.822
16695 1 15.3674 65.7512 43.259
22305 2 17.1948 65.7596 44.543
16710 1 18.1197 64.1117 43.3088
16689 1 16.3078 64.1848 45.8616
13913 1 21.764 64.1848 45.8616
16654 1 20.8237 65.7512 43.259
22304 2 19.9393 64.1153 44.5862
16645 1 19.0208 65.8161 45.822
16735 1 12.615 67.3853 43.2222
22335 2 11.6978 69.0549 44.5042
22334 2 14.4459 67.4054 44.516
16676 1 13.5372 69.0858 45.7735
16694 1 15.3238 69.0133 43.1971
22291 2 17.154 69.0549 44.5042
16693 1 18.0713 67.3853 43.2222
16692 1 16.2781 67.449 45.7921
13904 1 21.7344 67.449 45.7921
16647 1 20.78 69.0133 43.1971
22307 2 19.9021 67.4054 44.516
16644 1 18.9934 69.0858 45.7735
16726 1 12.5827 70.6755 43.2123
22328 2 11.6749 72.3726 44.5097
22337 2 14.4108 70.7097 44.5054
16675 1 13.526 72.3815 45.7583
16680 1 15.2922 72.3531 43.2409
22290 2 17.1311 72.3726 44.5097
16696 1 18.039 70.6755 43.2123
16674 1 16.2572 70.7283 45.7615
13905 1 21.7135 70.7283 45.7615
16646 1 20.7484 72.3531 43.2409
22289 2 19.867 70.7097 44.5054
16630 1 18.9822 72.3815 45.7583
16727 1 12.5568 74.0378 43.2512
22326 2 14.4007 74.0395 44.5105
16677 1 16.2534 74.0409 45.7567
16678 1 18.013 74.0378 43.2512
22292 2 19.857 74.0395 44.5105
13903 1 21.7097 74.0409 45.7567
16687 1 11.7967 59.36 48.547
16705 1 13.6043 59.2838 46.0154
22346 2 12.7066 57.6736 47.32
16703 1 14.5285 57.7338 48.5914
16650 1 17.2529 59.36 48.547
16704 1 16.3358 57.6542 46.0601
22302 2 15.4301 59.2995 47.2765
22312 2 18.1628 57.6736 47.32
13924 1 21.792 57.6542 46.0601
16649 1 19.9848 57.7338 48.5914
16653 1 19.0605 59.2838 46.0154
22254 2 20.8864 59.2995 47.2765
16686 1 11.7835 62.6148 48.4574
22347 2 12.6955 60.9293 47.2307
16685 1 14.5193 60.9874 48.5014
16642 1 17.2397 62.6148 48.4574
16706 1 16.3278 60.9171 45.9644
22301 2 15.415 62.5615 47.1849
22300 2 18.1518 60.9293 47.2307
13912 1 21.784 60.9171 45.9644
16651 1 19.9755 60.9874 48.5014
22253 2 20.8712 62.5615 47.1849
16672 1 11.7642 65.8694 48.3832
22332 2 12.6766 64.1944 47.1428
16688 1 14.5024 64.2419 48.4175
16641 1 17.2205 65.8694 48.3832
22287 2 15.393 65.8276 47.1068
22303 2 18.1328 64.1944 47.1428
16640 1 19.9587 64.2419 48.4175
22252 2 20.8493 65.8276 47.1068
16671 1 11.7478 69.1302 48.3333
22333 2 12.6528 67.4623 47.0799
16670 1 14.4833 67.4984 48.3551
16627 1 17.2041 69.1302 48.3333
22286 2 15.3699 69.1005 47.062
22285 2 18.1091 67.4623 47.0799
16643 1 19.9395 67.4984 48.3551
22245 2 20.8262 69.1005 47.062
16664 1 11.7405 72.404 48.3066
22324 2 12.6329 70.7437 47.0514
16673 1 14.4711 70.7656 48.3173
16626 1 17.1967 72.404 48.3066
22273 2 15.3559 72.3919 47.0455
22288 2 18.0891 70.7437 47.0514
16625 1 19.9274 70.7656 48.3173
22244 2 20.8122 72.3919 47.0455
22325 2 12.6262 74.0435 47.0425
16662 1 14.4679 74.0448 48.3017
22271 2 18.0824 74.0435 47.0425
16628 1 19.9241 74.0448 48.3017
16683 1 12.7199 57.7978 51.13
22298 2 13.6196 59.3761 49.8183
22279 2 11.8104 59.436 52.3648
22296 2 14.5425 57.8151 52.4033
16638 1 15.444 59.4203 51.089
22297 2 16.3522 57.7522 49.8596
16648 1 18.1761 57.7978 51.13
22248 2 17.2667 59.436 52.3648
19525 2 21.8084 57.7522 49.8596
16596 1 20.9003 59.4203 51.089
22251 2 19.0759 59.3761 49.8183
22247 2 19.9987 57.8151 52.4033
16684 1 12.7108 61.0431 51.0485
22283 2 13.6073 62.6274 49.7368
22278 2 11.8004 62.6791 52.291
22277 2 14.5338 61.0574 52.327
16637 1 15.4328 62.6661 51.01
22299 2 16.3421 61.0014 49.7768
16636 1 18.167 61.0431 51.0485
22240 2 17.2567 62.6791 52.291
19510 2 21.7984 61.0014 49.7768
16595 1 20.889 62.6661 51.01
22250 2 19.0635 62.6274 49.7368
22249 2 19.9901 61.0574 52.327
16668 1 12.6979 64.2892 50.9746
22282 2 13.5918 65.881 49.6679
22265 2 11.7891 65.9236 52.2282
22280 2 14.5229 64.3011 52.2578
16623 1 15.4192 65.9128 50.9433
22281 2 16.3278 64.2539 49.7001
16639 1 18.1541 64.2892 50.9746
22239 2 17.2454 65.9236 52.2282
19511 2 21.784 64.2539 49.7001
16594 1 20.8755 65.9128 50.9433
22243 2 19.048 65.881 49.6679
22238 2 19.9792 64.3011 52.2578
22263 2 14.512 67.547 52.2029
16669 1 12.6851 67.5374 50.9164
22269 2 13.5772 69.1402 49.621
22264 2 11.7792 69.1716 52.1824
22229 2 17.2355 69.1716 52.1824
16622 1 15.4083 69.1634 50.8944
22284 2 16.3122 67.5094 49.6415
16621 1 18.1413 67.5374 50.9164
19502 2 21.7684 67.5094 49.6415
22241 2 19.9682 67.547 52.2029
16588 1 20.8645 69.1634 50.8944
22242 2 19.0335 69.1402 49.621
22266 2 14.5038 70.7975 52.167
22259 2 11.7733 72.4245 52.1569
16660 1 12.6767 70.7909 50.8776
22268 2 13.5685 72.41 49.597
22228 2 17.2296 72.4245 52.1569
16611 1 15.4027 72.4197 50.8665
22267 2 16.3 70.7738 49.6064
16624 1 18.133 70.7909 50.8776
19503 2 21.7562 70.7738 49.6064
22227 2 19.96 70.7975 52.167
16587 1 20.859 72.4197 50.8665
22232 2 19.0247 72.41 49.597
22257 2 14.5006 74.0521 52.1522
16661 1 12.6738 74.0491 50.8614
22270 2 16.2954 74.0476 49.5926
16609 1 18.1301 74.0491 50.8614
22230 2 19.9568 74.0521 52.1522
19501 2 21.7516 74.0476 49.5926
16634 1 13.6352 59.4699 53.6367
22275 2 12.7333 57.8669 54.9507
16633 1 16.367 57.8506 53.6746
22236 2 15.4579 59.4849 54.9147
22246 2 18.1895 57.8669 54.9507
13862 1 21.8232 57.8506 53.6746
16593 1 19.0914 59.4699 53.6367
22218 2 20.9142 59.4849 54.9147
16619 1 13.626 62.7088 53.5649
22276 2 12.7259 61.103 54.8798
16635 1 16.359 61.0893 53.5998
22235 2 15.4498 62.7212 54.8467
22234 2 18.1821 61.103 54.8798
13846 1 21.8152 61.0893 53.5998
16592 1 19.0822 62.7088 53.5649
22217 2 20.906 62.7212 54.8467
16618 1 13.616 65.9481 53.5036
22261 2 12.7173 64.3396 54.8161
16617 1 16.3491 64.3283 53.5326
22225 2 15.4412 65.9581 54.7886
22237 2 18.1735 64.3396 54.8161
13847 1 21.8053 64.3283 53.5326
16586 1 19.0723 65.9481 53.5036
22216 2 20.8974 65.9581 54.7886
22262 2 12.7091 67.577 54.7649
16607 1 13.608 69.1891 53.4575
22223 2 18.1653 67.577 54.7649
22224 2 15.4339 69.1964 54.7454
16620 1 16.3397 67.5683 53.4784
13838 1 21.796 67.5683 53.4784
22215 2 20.8901 69.1964 54.7454
16585 1 19.0642 69.1891 53.4575
22255 2 12.7031 70.8162 54.7305
16606 1 13.6035 72.432 53.4309
22226 2 18.1594 70.8162 54.7305
22221 2 15.4295 72.4365 54.7206
16605 1 16.3334 70.8103 53.4415
13839 1 21.7896 70.8103 53.4415
22214 2 20.8858 72.4365 54.7206
16579 1 19.0598 72.432 53.4309
22256 2 12.7007 74.057 54.7158
22219 2 18.1569 74.057 54.7158
16608 1 16.331 74.0539 53.426
13837 1 21.7872 74.0539 53.426
16615 1 11.8264 59.512 56.1878
16931 1 12.7485 57.9349 58.7746
22572 2 10.9241 57.9111 57.5009
22565 2 13.6492 59.5264 57.467
16632 1 14.5578 57.8955 56.2232
16590 1 17.2826 59.512 56.1878
16918 1 15.4737 59.5488 58.7412
22564 2 16.3804 57.9111 57.5009
16872 1 20.9299 59.5488 58.7412
16589 1 20.014 57.8955 56.2232
16920 1 18.2047 57.9349 58.7746
22530 2 19.1054 59.5264 57.467
16614 1 11.8188 62.7448 56.1214
16932 1 12.7424 61.1625 58.7092
22570 2 10.9178 61.1416 57.4344
22561 2 13.6424 62.7567 57.4036
16613 1 14.5509 61.1284 56.1536
16917 1 15.4673 62.776 58.6791
16583 1 17.2751 62.7448 56.1214
22566 2 16.374 61.1416 57.4344
16871 1 20.9235 62.776 58.6791
16591 1 20.0071 61.1284 56.1536
16916 1 18.1987 61.1625 58.7092
22529 2 19.0986 62.7567 57.4036
16603 1 11.811 65.9773 56.0646
16928 1 12.7359 64.3892 58.6512
22560 2 13.6355 65.9868 57.3496
16616 1 14.543 64.361 56.0915
16910 1 15.4609 66.0022 58.6262
16582 1 17.2673 65.9773 56.0646
22559 2 16.367 64.3718 57.3751
16919 1 18.1921 64.3892 58.6512
16870 1 20.9171 66.0022 58.6262
16581 1 19.9992 64.361 56.0915
22524 2 19.0917 65.9868 57.3496
19751 2 21.8232 64.3718 57.3751
16602 1 11.8047 69.2098 56.0218
16929 1 12.7299 67.615 58.6044
22550 2 13.6298 69.2168 57.3091
16601 1 14.5357 67.5935 56.0412
16909 1 15.4556 69.2275 58.5864
16576 1 17.2609 69.2098 56.0218
22562 2 16.3605 67.6017 57.3274
16908 1 18.1861 67.615 58.6044
16863 1 20.9118 69.2275 58.5864
16584 1 19.9919 67.5935 56.0412
22523 2 19.086 69.2168 57.3091
19748 2 21.8168 67.6017 57.3274
16599 1 11.801 72.4426 55.9969
16924 1 12.7256 70.84 58.5725
22549 2 13.6263 72.4471 57.2855
16604 1 14.5306 70.8261 56.0069
16896 1 15.4525 72.4523 58.563
16575 1 17.2572 72.4426 55.9969
22548 2 16.3558 70.8319 57.295
16911 1 18.1819 70.84 58.5725
16862 1 20.9087 72.4523 58.563
16574 1 19.9868 70.8261 56.0069
22510 2 19.0826 72.4471 57.2855
19749 2 21.8121 70.8319 57.295
16925 1 12.7238 74.0646 58.5582
16597 1 14.5285 74.059 55.9921
22551 2 16.3538 74.0623 57.2808
16894 1 18.18 74.0646 58.5582
16577 1 19.9847 74.059 55.9921
19747 2 21.8101 74.0623 57.2808
16914 1 13.6645 59.5822 61.2965
16930 1 10.9389 57.9707 61.3282
22557 2 11.8403 59.563 60.0211
16913 1 16.3952 57.9707 61.3282
22527 2 17.2965 59.563 60.0211
22563 2 14.5711 57.9503 60.0532
22517 2 15.4872 59.5968 62.5767
16869 1 19.1207 59.5822 61.2965
22526 2 20.0273 57.9503 60.0532
22464 2 20.9435 59.5968 62.5767
16906 1 13.6589 62.8042 61.2378
16926 1 10.9336 61.1934 61.2662
22556 2 11.8344 62.7879 59.9614
22554 2 12.7565 61.2068 62.5474
16915 1 16.3898 61.1934 61.2662
22521 2 17.2906 62.7879 59.9614
22555 2 14.5655 61.1756 59.9904
22516 2 15.482 62.8164 62.52
16868 1 19.1151 62.8042 61.2378
22528 2 20.0217 61.1756 59.9904
22463 2 20.9383 62.8164 62.52
22515 2 18.2128 61.2068 62.5474
16905 1 13.6534 66.0246 61.1882
16927 1 10.9279 64.4146 61.2116
22546 2 11.8286 66.0116 59.9109
22542 2 12.7513 64.4256 62.4949
16904 1 16.3842 64.4146 61.2116
22520 2 17.2849 66.0116 59.9109
22558 2 14.5596 64.3999 59.9348
22503 2 15.477 66.0345 62.4723
16861 1 19.1096 66.0246 61.1882
22519 2 20.0158 64.3999 59.9348
22462 2 20.9332 66.0345 62.4723
22518 2 18.2076 64.4256 62.4949
16892 1 13.6489 69.2437 61.1508
16922 1 10.9228 67.6343 61.1678
22545 2 11.8239 69.2346 59.8729
22543 2 12.7467 67.6429 62.4527
22544 2 14.5542 67.6232 59.8901
16907 1 16.379 67.6343 61.1678
22507 2 17.2801 69.2346 59.8729
22502 2 15.4729 69.2511 62.4363
16860 1 19.1051 69.2437 61.1508
22522 2 20.0104 67.6232 59.8901
22455 2 20.9291 69.2511 62.4363
22501 2 18.2029 67.6429 62.4527
16923 1 10.9191 70.8528 61.1377
22534 2 12.7433 70.8591 62.4236
22547 2 14.5503 70.8458 59.8596
16890 1 16.3753 70.8528 61.1377
22505 2 20.0065 70.8458 59.8596
22504 2 18.1995 70.8591 62.4236
16891 1 13.6461 72.4618 61.1286
22538 2 11.821 72.457 59.8504
22536 2 14.5485 74.0682 59.8457
22535 2 12.7417 74.0746 62.4098
16921 1 10.9174 74.0707 61.1237
22506 2 17.2772 72.457 59.8504
22488 2 15.4703 72.4669 62.4147
16893 1 16.3737 74.0707 61.1237
16846 1 19.1023 72.4618 61.1286
22454 2 20.9266 72.4669 62.4147
22508 2 20.0048 74.0682 59.8457
22486 2 18.1979 74.0746 62.4098
16902 1 11.8548 59.6138 63.8535
22513 2 13.6775 59.6293 65.1331
22552 2 10.9517 58.0211 65.1625
22553 2 12.7615 57.9863 62.6073
16866 1 17.3111 59.6138 63.8535
16912 1 14.5853 58.0045 63.8838
22512 2 16.4079 58.0211 65.1625
16865 1 20.0415 58.0045 63.8838
22461 2 19.1337 59.6293 65.1331
22525 2 18.2178 57.9863 62.6073
16901 1 11.8498 62.8309 63.7976
22499 2 13.6728 62.8441 65.079
22540 2 10.947 61.237 65.1052
16858 1 17.306 62.8309 63.7976
16900 1 14.5804 61.2226 63.8247
22514 2 16.4033 61.237 65.1052
16867 1 20.0367 61.2226 63.8247
22460 2 19.129 62.8441 65.079
16888 1 11.845 66.046 63.7506
22498 2 13.6683 66.0567 65.0334
22541 2 10.9423 64.4506 65.055
16857 1 17.3012 66.046 63.7506
16903 1 14.5754 64.4386 63.7728
22497 2 16.3986 64.4506 65.055
16856 1 20.0317 64.4386 63.7728
22453 2 19.1245 66.0567 65.0334
16887 1 11.841 69.2593 63.7151
22484 2 13.6645 69.2675 64.9991
22532 2 10.9381 67.6623 65.0147
16843 1 17.2972 69.2593 63.7151
16886 1 14.5709 67.6528 63.7312
22500 2 16.3944 67.6623 65.0147
16859 1 20.0272 67.6528 63.7312
22452 2 19.1208 69.2675 64.9991
22533 2 10.935 70.8724 64.9867
16889 1 14.5676 70.8655 63.7025
22482 2 16.3913 70.8724 64.9867
16841 1 20.0239 70.8655 63.7025
16880 1 11.8385 72.4716 63.6936
22483 2 13.6622 72.4771 64.978
22531 2 10.9335 74.0817 64.9729
16842 1 17.2947 72.4716 63.6936
16878 1 14.5661 74.0775 63.6885
22485 2 16.3897 74.0817 64.9729
16844 1 20.0223 74.0775 63.6885
22438 2 19.1184 72.4771 64.978
16898 1 12.775 58.0378 66.442
22495 2 11.8673 59.6621 67.6895
16850 1 13.69 59.6769 68.9773
16897 1 10.9639 58.0718 69.0056
16854 1 15.5009 59.6449 66.4129
22458 2 17.3235 59.6621 67.6895
22511 2 14.5975 58.056 67.7179
16849 1 16.4201 58.0718 69.0056
16806 1 20.9571 59.6449 66.4129
16864 1 18.2312 58.0378 66.442
22457 2 20.0538 58.056 67.7179
16803 1 19.1462 59.6769 68.9773
16899 1 12.7705 61.2515 66.3852
22494 2 11.8628 62.8721 67.6374
16835 1 13.6858 62.885 68.9255
16882 1 10.9598 61.2813 68.9505
16853 1 15.4963 62.8574 66.3593
22450 2 17.3191 62.8721 67.6374
22493 2 14.5932 61.2675 67.6626
16851 1 16.416 61.2813 68.9505
16805 1 20.9525 62.8574 66.3593
16852 1 18.2267 61.2515 66.3852
22459 2 20.0494 61.2675 67.6626
16802 1 19.142 62.885 68.9255
16884 1 12.7659 64.4627 66.3355
22480 2 11.8586 66.0795 67.5936
16834 1 13.6819 66.0901 68.8819
16883 1 10.9557 64.4879 68.9026
16839 1 15.4919 66.0674 66.3142
22449 2 17.3148 66.0795 67.5936
22496 2 14.5888 64.4761 67.6143
16833 1 16.4119 64.4879 68.9026
16804 1 20.9482 66.0674 66.3142
16855 1 18.2222 64.4627 66.3355
22448 2 20.045 64.4761 67.6143
16795 1 19.1381 66.0901 68.8819
16885 1 12.7619 67.6716 66.2956
22479 2 11.8551 69.2845 67.5603
16821 1 13.6786 69.293 68.8489
16874 1 10.952 67.6918 68.864
16838 1 15.4883 69.2754 66.2801
22435 2 17.3113 69.2845 67.5603
22478 2 14.5849 67.6822 67.5755
16836 1 16.4082 67.6918 68.864
16797 1 20.9445 69.2754 66.2801
16837 1 18.2181 67.6716 66.2956
22451 2 20.0411 67.6822 67.5755
16794 1 19.1348 69.293 68.8489
16876 1 12.7588 70.8789 66.2678
16875 1 10.9492 70.8937 68.8369
22481 2 14.5819 70.8864 67.5482
16819 1 16.4055 70.8937 68.8369
16840 1 18.2151 70.8789 66.2678
22433 2 20.0381 70.8864 67.5482
22472 2 11.8528 72.4881 67.5394
16820 1 13.6764 72.4941 68.8282
16877 1 12.7573 74.0852 66.2538
16873 1 10.9477 74.0944 68.8229
16825 1 15.486 72.4821 66.259
22434 2 17.309 72.4881 67.5394
22470 2 14.5803 74.0896 67.5341
16822 1 16.404 74.0944 68.8229
16796 1 20.9422 72.4821 66.259
16784 1 19.1327 72.4941 68.8282
16823 1 18.2135 74.0852 66.2538
22436 2 20.0366 74.0896 67.5341
16831 1 11.8755 59.7094 71.5571
22491 2 12.7876 58.0918 70.2673
16800 1 17.3317 59.7094 71.5571
16848 1 14.6054 58.1062 71.5846
22446 2 15.5136 59.6959 70.2395
16799 1 20.0616 58.1062 71.5846
22404 2 20.9699 59.6959 70.2395
22456 2 18.2438 58.0918 70.2673
16830 1 11.8718 62.913 71.5066
22492 2 12.7834 61.299 70.2132
16792 1 17.3281 62.913 71.5066
16829 1 14.6018 61.3116 71.531
22445 2 15.5095 62.9012 70.1887
16801 1 20.058 61.3116 71.531
22403 2 20.9657 62.9012 70.1887
22444 2 18.2397 61.299 70.2132
16817 1 11.8684 66.113 71.4643
22476 2 12.7793 64.5025 70.1662
16791 1 17.3246 66.113 71.4643
16832 1 14.5982 64.5134 71.4843
22431 2 15.5055 66.103 70.1461
16790 1 20.0544 64.5134 71.4843
22402 2 20.9618 66.103 70.1461
22447 2 18.2356 64.5025 70.1662
22477 2 12.7757 67.7028 70.1285
16815 1 14.5949 67.7119 71.4469
22430 2 15.5023 69.302 70.1138
16793 1 20.0512 67.7119 71.4469
22396 2 20.9585 69.302 70.1138
22429 2 18.2319 67.7028 70.1285
16816 1 11.8655 69.3102 71.4323
22468 2 12.7729 70.9007 70.1021
16781 1 17.3217 69.3102 71.4323
16818 1 14.5925 70.9079 71.4207
16779 1 20.0488 70.9079 71.4207
22432 2 18.2291 70.9007 70.1021
16811 1 11.8636 72.5053 71.4122
22469 2 12.7714 74.0971 70.0884
16780 1 17.3198 72.5053 71.4122
22419 2 15.5001 72.499 70.0936
16809 1 14.5912 74.1024 71.4071
22395 2 20.9564 72.499 70.0936
16782 1 20.0475 74.1024 71.4071
22417 2 18.2277 74.0971 70.0884
16827 1 12.7471 58.1399 74.2418
22423 2 11.8699 59.7639 75.2623
22442 2 13.702 59.7312 72.777
22490 2 10.9759 58.1292 72.8043
16788 1 15.4754 59.7415 74.2144
22398 2 17.3261 59.7639 75.2623
22440 2 14.5992 58.1635 75.2887
22441 2 16.4321 58.1292 72.8043
16770 1 20.9316 59.7415 74.2144
16798 1 18.2034 58.1399 74.2418
22397 2 20.0555 58.1635 75.2887
22401 2 19.1583 59.7312 72.777
16828 1 12.7473 61.342 74.1885
22422 2 11.8673 62.9604 75.2141
22427 2 13.698 62.9317 72.7273
22474 2 10.9719 61.332 72.7513
16787 1 15.4755 62.9414 74.1644
22391 2 17.3236 62.9604 75.2141
22421 2 14.5967 61.3628 75.2373
22443 2 16.4281 61.332 72.7513
16769 1 20.9317 62.9414 74.1644
16786 1 18.2036 61.342 74.1885
22399 2 20.053 61.3628 75.2373
22400 2 19.1542 62.9317 72.7273
16813 1 12.7474 64.5397 74.1422
22411 2 11.8648 66.1516 75.1738
22426 2 13.6941 66.1276 72.6857
22475 2 10.9679 64.5302 72.7053
16777 1 15.4755 66.1371 74.1224
22390 2 17.3211 66.1516 75.1738
22424 2 14.5942 64.5566 75.1928
22425 2 16.4241 64.5302 72.7053
16768 1 20.9318 66.1371 74.1224
16789 1 18.2036 64.5397 74.1422
22389 2 20.0504 64.5566 75.1928
22394 2 19.1504 66.1276 72.6857
16814 1 12.7474 67.7336 74.1051
22466 2 10.9643 67.7242 72.6685
22409 2 14.5918 67.7454 75.1573
22428 2 16.4206 67.7242 72.6685
16775 1 18.2037 67.7336 74.1051
22392 2 20.0481 67.7454 75.1573
22415 2 13.691 69.3199 72.6542
22410 2 11.8627 69.3382 75.1435
16807 1 12.7474 70.9244 74.0791
22467 2 10.9616 70.9149 72.6428
16776 1 15.4755 69.3293 74.0906
22384 2 17.319 69.3382 75.1435
22412 2 14.59 70.9302 75.1325
22413 2 16.4179 70.9149 72.6428
22393 2 19.1472 69.3199 72.6542
16767 1 20.9318 69.3293 74.0906
16778 1 18.2037 70.9244 74.0791
22382 2 20.0463 70.9302 75.1325
22407 2 11.8613 72.5215 75.1246
22414 2 13.6889 72.5095 72.6345
22465 2 10.9602 74.1038 72.6295
16808 1 12.7474 74.1132 74.0657
16773 1 15.4756 72.519 74.0708
22383 2 17.3176 72.5215 75.1246
22416 2 16.4164 74.1038 72.6295
22405 2 14.5891 74.1125 75.1198
16766 1 20.9318 72.519 74.0708
22387 2 19.1451 72.5095 72.6345
22385 2 20.0453 74.1125 75.1198
16771 1 18.2037 74.1132 74.0657
11217 2 11.8469 77.1142 -1.57758
11225 2 13.6772 77.1117 -4.07108
4800 1 12.7894 78.6943 -3.01609
11230 2 10.9487 78.7029 -4.06799
4786 1 15.518 77.1058 -3.01924
11187 2 17.3031 77.1142 -1.57758
11215 2 14.5748 78.7034 -1.57441
11226 2 16.4049 78.7029 -4.06799
4740 1 20.9743 77.1058 -3.01924
11190 2 19.1334 77.1117 -4.07108
4784 1 18.2456 78.6943 -3.01609
11188 2 20.031 78.7034 -1.57441
11216 2 11.8463 80.2924 -1.56915
11221 2 13.6762 80.2938 -4.06287
4796 1 12.7872 81.8708 -3.0036
11231 2 10.9473 81.8843 -4.05575
4785 1 15.5166 80.2826 -3.01086
11181 2 17.3025 80.2924 -1.56915
11218 2 14.5739 81.8809 -1.56184
11219 2 16.4036 81.8843 -4.05575
4739 1 20.9728 80.2826 -3.01086
11189 2 19.1325 80.2938 -4.06287
4787 1 18.2434 81.8708 -3.0036
11179 2 20.0301 81.8809 -1.56184
11206 2 11.8451 83.4691 -1.55254
11220 2 13.6745 83.4744 -4.0467
4797 1 12.7837 85.0461 -2.98322
4778 1 15.5137 83.4586 -2.99436
11180 2 17.3014 83.4691 -1.55254
4738 1 20.97 83.4586 -2.99436
11184 2 19.1307 83.4744 -4.0467
4776 1 18.24 85.0461 -2.98322
11205 2 11.8435 86.6436 -1.5283
11210 2 13.672 86.6529 -4.02312
11228 2 10.9452 85.064 -4.0358
4777 1 15.5097 86.6331 -2.97026
11167 2 17.2998 86.6436 -1.5283
11204 2 14.5725 85.0567 -1.54134
11222 2 16.4014 85.064 -4.0358
4731 1 20.9659 86.6331 -2.97026
11182 2 20.0287 85.0567 -1.54134
11183 2 19.1282 86.6529 -4.02312
4792 1 12.7791 88.2196 -2.95558
11198 2 11.8416 89.8153 -1.49718
11209 2 13.6689 89.8285 -3.99285
11229 2 10.9424 88.2411 -4.00876
4764 1 15.5046 89.8055 -2.93929
11166 2 17.2979 89.8153 -1.49718
11207 2 14.5707 88.2298 -1.51355
11208 2 16.3986 88.2411 -4.00876
4730 1 20.9608 89.8055 -2.93929
4779 1 18.2354 88.2196 -2.95558
11165 2 20.027 88.2298 -1.51355
11170 2 19.1252 89.8285 -3.99285
4793 1 12.7736 91.3907 -2.92152
11197 2 11.8396 92.9836 -1.46014
11199 2 13.6655 93.0006 -3.95682
11227 2 10.9391 91.415 -3.97549
4763 1 15.4987 92.9752 -2.90239
11149 2 17.2958 92.9836 -1.46014
11196 2 14.5687 91.3999 -1.47934
11211 2 16.3954 91.415 -3.97549
4715 1 20.955 92.9752 -2.90239
4762 1 18.2299 91.3907 -2.92152
11168 2 20.025 91.3999 -1.47934
11169 2 19.1217 93.0006 -3.95682
4770 1 11.8518 77.1128 2.22885
4782 1 13.6706 77.1111 -0.358632
4794 1 10.9422 78.6983 -0.355448
11214 2 12.7586 78.7007 0.97134
4734 1 17.3081 77.1128 2.22885
11177 2 15.4869 77.1142 0.968099
4768 1 14.5797 78.6978 2.23212
4783 1 16.3985 78.6983 -0.355448
4737 1 19.1268 77.1111 -0.358632
11124 2 20.9432 77.1142 0.968099
4735 1 20.0359 78.6978 2.23212
11175 2 18.2148 78.7007 0.97134
4769 1 11.8511 80.2827 2.23755
4774 1 13.6699 80.2854 -0.350168
4795 1 10.9412 81.8721 -0.342833
11202 2 12.7576 81.8731 0.984173
4726 1 17.3074 80.2827 2.23755
11176 2 15.4863 80.2871 0.976712
4771 1 14.5786 81.8672 2.24508
4772 1 16.3974 81.8721 -0.342833
4736 1 19.1261 80.2854 -0.350168
11123 2 20.9425 80.2871 0.976712
4724 1 20.0349 81.8672 2.24508
11178 2 18.2139 81.8731 0.984173
4756 1 11.8498 83.4515 2.25467
4773 1 13.6685 83.4585 -0.333501
4790 1 10.9395 85.0445 -0.322244
11203 2 12.7561 85.0438 1.0051
4725 1 17.306 83.4515 2.25467
11163 2 15.4851 83.4587 0.993662
4754 1 14.577 85.0353 2.26623
4775 1 16.3958 85.0445 -0.322244
4729 1 19.1248 83.4585 -0.333501
11122 2 20.9413 83.4587 0.993662
4727 1 20.0333 85.0353 2.26623
11161 2 18.2124 85.0438 1.0051
4755 1 11.8479 86.6186 2.27968
4760 1 13.6666 86.6299 -0.309148
4711 1 17.3042 86.6186 2.27968
11162 2 15.4834 86.6284 1.01841
4757 1 14.575 88.2014 2.29491
4728 1 19.1229 86.6299 -0.309148
11115 2 20.9396 86.6284 1.01841
4709 1 20.0312 88.2014 2.29491
4748 1 11.8457 89.7836 2.3118
4759 1 13.6644 89.7989 -0.277856
4791 1 10.9374 88.2147 -0.294314
11194 2 12.7543 88.2124 1.03347
4710 1 17.302 89.7836 2.3118
4758 1 16.3937 88.2147 -0.294314
11148 2 15.4813 89.7958 1.05017
4714 1 19.1206 89.7989 -0.277856
11114 2 20.9376 89.7958 1.05017
11164 2 18.2105 88.2124 1.03347
4747 1 11.8433 92.9463 2.35003
4749 1 13.6618 92.9651 -0.240576
4789 1 10.935 91.3824 -0.259899
11195 2 12.7521 91.3784 1.06838
4693 1 17.2995 92.9463 2.35003
4746 1 14.5726 91.3653 2.33022
4761 1 16.3912 91.3824 -0.259899
11147 2 15.4791 92.9603 1.08796
4712 1 20.0289 91.3653 2.33022
4713 1 19.118 92.9651 -0.240576
11099 2 20.9353 92.9603 1.08796
11146 2 18.2083 91.3784 1.06838
11173 2 13.6712 77.1156 3.52714
4767 1 12.7634 78.6987 4.80436
11200 2 10.9428 78.6998 3.53046
4722 1 15.4918 77.1158 4.80099
11174 2 16.3991 78.6998 3.53046
4668 1 20.9481 77.1158 4.80099
11121 2 19.1275 77.1156 3.52714
4720 1 18.2196 78.6987 4.80436
11159 2 13.6705 80.2837 3.53596
4752 1 12.7622 81.864 4.81771
11201 2 10.9418 81.8674 3.54359
4721 1 15.491 80.2815 4.80995
11157 2 16.398 81.8674 3.54359
4667 1 20.9473 80.2815 4.80995
11120 2 19.1267 80.2837 3.53596
4723 1 18.2185 81.864 4.81771
11158 2 13.6691 83.4508 3.5533
4753 1 12.7605 85.0279 4.83948
11192 2 10.9401 85.0337 3.56501
4707 1 15.4895 83.4461 4.82758
11160 2 16.3963 85.0337 3.56501
4666 1 20.9458 83.4461 4.82758
11113 2 19.1253 83.4508 3.5533
4705 1 18.2167 85.0279 4.83948
11193 2 10.938 88.198 3.59402
4744 1 12.7582 88.1901 4.86898
11144 2 13.6672 86.6161 3.57862
11142 2 16.3942 88.198 3.59402
4706 1 15.4875 86.6092 4.85332
4708 1 18.2144 88.1901 4.86898
4659 1 20.9437 86.6092 4.85332
11112 2 19.1234 86.6161 3.57862
4745 1 12.7556 91.3502 4.90528
11143 2 13.6649 89.7794 3.6111
4692 1 15.485 89.7704 4.88635
4690 1 18.2118 91.3502 4.90528
4658 1 20.9413 89.7704 4.88635
11098 2 19.1211 89.7794 3.6111
11133 2 13.6623 92.9402 3.64971
11191 2 10.9355 91.3601 3.62971
4691 1 15.4823 92.9295 4.92562
11145 2 16.3918 91.3601 3.62971
4644 1 20.9385 92.9295 4.92562
11097 2 19.1186 92.9402 3.64971
4718 1 13.6739 77.1199 7.36736
11155 2 11.8541 77.1185 6.08979
4750 1 10.9454 78.7009 7.37117
11152 2 12.7648 78.7015 8.65748
11106 2 15.4934 77.1214 8.65343
11118 2 17.3104 77.1185 6.08979
4719 1 16.4016 78.7009 7.37117
11153 2 14.5819 78.7006 6.09344
4665 1 19.1301 77.1199 7.36736
11064 2 20.9496 77.1214 8.65343
11104 2 18.221 78.7015 8.65748
11119 2 20.0381 78.7006 6.09344
4703 1 13.6729 80.2817 7.3773
11154 2 11.8532 80.2824 6.09934
4751 1 10.9441 81.8623 7.38569
11136 2 12.7633 81.8612 8.67257
11105 2 15.4923 80.2815 8.66388
11110 2 17.3095 80.2824 6.09934
4701 1 16.4003 81.8623 7.38569
11156 2 14.5806 81.8641 6.10745
4664 1 19.1292 80.2817 7.3773
11063 2 20.9485 80.2815 8.66388
11107 2 18.2195 81.8612 8.67257
11108 2 20.0369 81.8641 6.10745
4702 1 13.6713 83.4426 7.39626
11140 2 11.8517 83.4453 6.1177
11137 2 12.7611 85.0195 8.6965
4742 1 10.9421 85.0225 7.40893
11091 2 15.4904 83.4405 8.68348
11109 2 17.3079 83.4453 6.1177
4704 1 16.3983 85.0225 7.40893
11138 2 14.5788 85.0262 6.12999
4657 1 19.1275 83.4426 7.39626
11062 2 20.9466 83.4405 8.68348
11089 2 18.2174 85.0195 8.6965
11111 2 20.035 85.0262 6.12999
4688 1 13.6691 86.6019 7.42358
11139 2 11.8496 86.6067 6.14423
11128 2 12.7585 88.1762 8.72838
4743 1 10.9397 88.181 7.44008
11090 2 15.488 86.5981 8.71151
11095 2 17.3058 86.6067 6.14423
4686 1 16.3959 88.181 7.44008
11141 2 14.5765 88.1866 6.16029
4656 1 19.1253 86.6019 7.42358
11056 2 20.9442 86.5981 8.71151
11092 2 18.2147 88.1762 8.72838
11093 2 20.0327 88.1866 6.16029
4687 1 13.6664 89.7595 7.45829
11132 2 11.8471 89.7661 6.17803
11129 2 12.7555 91.3311 8.76704
4741 1 10.9369 91.3375 7.47806
11079 2 15.4852 89.7539 8.74694
11094 2 17.3033 89.7661 6.17803
4689 1 16.3931 91.3375 7.47806
11130 2 14.5738 91.345 6.19731
4643 1 19.1227 89.7595 7.45829
11055 2 20.9414 89.7539 8.74694
11077 2 18.2117 91.3311 8.76704
11096 2 20.0301 91.345 6.19731
4677 1 13.6635 92.9151 7.49922
11131 2 11.8443 92.9234 6.21797
5149 1 10.9338 94.4922 7.52158
11559 2 12.7522 94.4841 8.81114
11078 2 15.482 92.9078 8.7885
11080 2 17.3005 92.9234 6.21797
5101 1 16.3901 94.4922 7.52158
11579 2 14.5709 94.5013 6.23984
4642 1 19.1197 92.9151 7.49922
11048 2 20.9383 92.9078 8.7885
11525 2 20.0272 94.5013 6.23984
11524 2 18.2085 94.4841 8.81114
4699 1 11.857 77.1229 9.93189
11102 2 13.6769 77.1239 11.217
11134 2 10.9482 78.7022 11.2215
4696 1 12.7682 78.7027 12.5001
4662 1 17.3132 77.1229 9.93189
4650 1 15.497 77.1253 12.4953
4697 1 14.5846 78.7021 9.93617
11103 2 16.4044 78.7022 11.2215
11061 2 19.1332 77.1239 11.217
4620 1 20.9533 77.1253 12.4953
4663 1 20.0408 78.7021 9.93617
4648 1 18.2244 78.7027 12.5001
4698 1 11.8557 80.2811 9.94289
11087 2 13.6754 80.2803 11.2284
11135 2 10.9462 81.8581 11.2378
4680 1 12.7659 81.8568 12.5173
4654 1 17.3119 80.2811 9.94289
4649 1 15.4953 80.2798 12.5075
4700 1 14.5829 81.8599 9.95197
11085 2 16.4024 81.8581 11.2378
11060 2 19.1316 80.2803 11.2284
4619 1 20.9515 80.2798 12.5075
4652 1 20.0391 81.8599 9.95197
4651 1 18.2222 81.8568 12.5173
4684 1 11.8537 83.4383 9.96332
11086 2 13.6731 83.4356 11.2495
11126 2 10.9436 85.0127 11.2634
4681 1 12.763 85.0097 12.5441
4653 1 17.3099 83.4383 9.96332
4636 1 15.4926 83.4334 12.5296
11088 2 16.3998 85.0127 11.2634
4682 1 14.5805 85.0164 9.97684
11054 2 19.1293 83.4356 11.2495
4618 1 20.9489 83.4334 12.5296
4634 1 18.2192 85.0097 12.5441
4655 1 20.0368 85.0164 9.97684
4683 1 11.8511 86.594 9.9924
11075 2 13.6702 86.5895 11.2794
11127 2 10.9404 88.1658 11.2972
4672 1 12.7596 88.161 12.5793
4640 1 17.3073 86.594 9.9924
4635 1 15.4894 86.5855 12.5607
11073 2 16.3967 88.1658 11.2972
4685 1 14.5777 88.1713 10.0098
11053 2 19.1264 86.5895 11.2794
4615 1 20.9457 86.5855 12.5607
4637 1 18.2158 88.161 12.5793
4638 1 20.034 88.1713 10.0098
4676 1 11.8481 89.7481 10.029
11074 2 13.6669 89.7417 11.3167
11125 2 10.937 91.3172 11.3378
4639 1 17.3043 89.7481 10.029
11076 2 16.3932 91.3172 11.3378
4674 1 14.5746 91.3244 10.0497
11047 2 19.1231 89.7417 11.3167
4641 1 20.0308 91.3244 10.0497
4675 1 11.8448 92.9003 10.0718
11068 2 13.6633 92.8923 11.3602
11558 2 10.9333 94.467 11.3838
4629 1 17.301 92.9003 10.0718
5100 1 14.5711 94.4758 10.0951
11509 2 16.3895 94.467 11.3838
11046 2 19.1195 92.8923 11.3602
5045 1 20.0274 94.4758 10.0951
4646 1 13.6817 77.127 15.0578
11083 2 11.8612 77.1259 13.7799
4678 1 10.9525 78.7025 15.0631
11058 2 17.3174 77.1259 13.7799
4647 1 16.4087 78.7025 15.0631
11081 2 14.5884 78.7023 13.785
4617 1 19.1379 77.127 15.0578
11059 2 20.0446 78.7023 13.785
4632 1 13.6792 80.2777 15.0713
11082 2 11.8591 80.2784 13.7926
4679 1 10.9494 81.8527 15.082
11051 2 17.3153 80.2784 13.7926
4630 1 16.4057 81.8527 15.082
11084 2 14.5858 81.8543 13.8028
4616 1 19.1355 80.2777 15.0713
11049 2 20.042 81.8543 13.8028
4631 1 13.6757 83.4274 15.0953
11071 2 11.856 83.4299 13.8154
4670 1 10.9456 85.0018 15.111
11050 2 17.3123 83.4299 13.8154
4633 1 16.4018 85.0018 15.111
11069 2 14.5824 85.0052 13.8304
4613 1 19.1319 83.4274 15.0953
11052 2 20.0386 85.0052 13.8304
4624 1 13.6716 86.5759 15.1289
11070 2 11.8524 86.5801 13.8474
4671 1 10.9414 88.1495 15.1487
11044 2 17.3086 86.5801 13.8474
4622 1 16.3976 88.1495 15.1487
11072 2 14.5786 88.1546 13.8664
4612 1 19.1279 86.5759 15.1289
11042 2 20.0348 88.1546 13.8664
4669 1 10.9369 91.2957 15.1935
4673 1 12.7559 91.3107 12.6214
4623 1 13.6673 89.7228 15.1703
11067 2 11.8484 89.7287 13.8871
4625 1 16.3932 91.2957 15.1935
11065 2 14.5745 91.3025 13.9093
4628 1 15.4859 89.7361 12.5996
11043 2 17.3046 89.7287 13.8871
4626 1 18.2121 91.3107 12.6214
11045 2 20.0307 91.3025 13.9093
4610 1 19.1235 89.7228 15.1703
4614 1 20.9421 89.7361 12.5996
11066 2 11.8442 92.8759 13.9328
5078 1 10.9323 94.4406 15.2432
4621 1 13.6628 92.8683 15.2178
5079 1 12.7519 94.4589 12.6688
4627 1 15.4821 92.885 12.6445
11041 2 17.3004 92.8759 13.9328
5029 1 16.3886 94.4406 15.2432
11508 2 14.5701 94.449 13.9574
4611 1 20.9383 92.885 12.6445
4609 1 19.119 92.8683 15.2178
11465 2 20.0264 94.449 13.9574
5044 1 18.2082 94.4589 12.6688
11406 2 13.6888 77.1272 18.9039
4990 1 11.8673 77.1278 17.6194
11418 2 10.9588 78.6989 18.9102
11424 2 12.7732 78.7013 16.3478
11410 2 15.5026 77.1271 16.3422
4967 1 17.3236 77.1278 17.6194
11407 2 16.4151 78.6989 18.9102
4988 1 14.5939 78.701 17.6254
11361 2 19.145 77.1272 18.9039
11364 2 20.9588 77.1271 16.3422
11408 2 18.2294 78.7013 16.3478
4968 1 20.0502 78.701 17.6254
4989 1 11.8638 80.2741 17.6343
11398 2 13.6846 80.2706 18.9194
11419 2 10.9538 81.8421 18.9315
11420 2 12.7696 81.8492 16.3674
11409 2 15.4996 80.2754 16.3563
4963 1 17.3201 80.2741 17.6343
4991 1 14.5896 81.8471 17.6461
11396 2 16.41 81.8421 18.9315
11360 2 19.1408 80.2706 18.9194
11363 2 20.9559 80.2754 16.3563
4961 1 20.0459 81.8471 17.6461
11411 2 18.2258 81.8492 16.3674
4983 1 11.859 83.4197 17.6606
11397 2 13.679 83.4135 18.9464
11421 2 12.7651 84.9961 16.3972
11414 2 10.9479 84.9847 18.9639
11402 2 15.4955 83.4228 16.3811
4962 1 17.3153 83.4197 17.6606
4981 1 14.5845 84.9922 17.6776
11399 2 16.4041 84.9847 18.9639
11353 2 19.1352 83.4135 18.9464
11362 2 20.9518 83.4228 16.3811
4964 1 20.0408 84.9922 17.6776
11400 2 18.2213 84.9961 16.3972
4982 1 11.8538 86.5642 17.697
11384 2 13.673 86.5556 18.9838
11416 2 12.7603 88.1417 16.4359
11415 2 10.9418 88.1261 19.0057
11401 2 15.4909 86.5691 16.4155
4951 1 17.31 86.5642 17.697
4984 1 14.5792 88.1359 17.7184
11382 2 16.398 88.1261 19.0057
11352 2 19.1292 86.5556 18.9838
11355 2 20.9471 86.5691 16.4155
11403 2 18.2166 88.1417 16.4359
4949 1 20.0355 88.1359 17.7184
4976 1 11.8484 89.7073 17.7416
11383 2 13.6669 89.6963 19.0295
11417 2 12.7554 91.2859 16.4815
11413 2 10.9358 91.2663 19.0547
4950 1 17.3047 89.7073 17.7416
11388 2 15.486 89.714 16.458
4974 1 14.5739 91.2783 17.7663
11385 2 16.392 91.2663 19.0547
11338 2 19.1232 89.6963 19.0295
11354 2 20.9422 89.714 16.458
4952 1 20.0301 91.2783 17.7663
11386 2 18.2116 91.2859 16.4815
4975 1 11.843 92.8491 17.7921
11373 2 13.6609 92.8362 19.0809
11831 2 12.7503 94.4291 16.532
11830 2 10.9298 94.406 19.108
4933 1 17.2993 92.8491 17.7921
11387 2 15.481 92.8576 16.5063
11813 2 16.3861 94.406 19.108
5376 1 14.5684 94.4197 17.8188
11337 2 19.1172 92.8362 19.0809
11339 2 20.9372 92.8576 16.5063
11820 2 18.2066 94.4291 16.532
5350 1 20.0246 94.4197 17.8188
11394 2 11.8763 77.1256 21.4654
4987 1 12.7801 78.6978 20.187
4959 1 15.5105 77.1272 20.1804
11358 2 17.3326 77.1256 21.4654
11392 2 14.6017 78.6943 21.4722
4908 1 20.9667 77.1272 20.1804
4957 1 18.2363 78.6978 20.187
11359 2 20.058 78.6943 21.4722
11393 2 11.8702 80.2631 21.4821
4979 1 12.774 81.839 20.2097
4958 1 15.5054 80.2684 20.1968
11350 2 17.3265 80.2631 21.4821
11395 2 14.5946 81.832 21.4952
4907 1 20.9616 80.2684 20.1968
4960 1 18.2303 81.839 20.2097
11348 2 20.0508 81.832 21.4952
11380 2 11.8625 83.4009 21.5115
4980 1 12.7672 84.9796 20.2441
4947 1 15.4988 83.4094 20.2255
11349 2 17.3188 83.4009 21.5115
11378 2 14.5867 84.9697 21.5306
4906 1 20.955 83.4094 20.2255
4945 1 18.2234 84.9796 20.2441
11351 2 20.0429 84.9697 21.5306
11379 2 11.8547 86.5382 21.5523
4972 1 12.7605 88.1191 20.2885
4946 1 15.4919 86.5495 20.2652
11335 2 17.3109 86.5382 21.5523
11381 2 14.579 88.1064 21.5762
4899 1 20.9482 86.5495 20.2652
4948 1 18.2167 88.1191 20.2885
11333 2 20.0353 88.1064 21.5762
11372 2 11.8472 89.6744 21.6019
4973 1 12.7539 91.2573 20.3401
4932 1 15.4853 89.6883 20.3136
11334 2 17.3035 89.6744 21.6019
11370 2 14.5717 91.2422 21.629
4898 1 20.9415 89.6883 20.3136
4930 1 18.2102 91.2573 20.3401
11336 2 20.028 91.2422 21.629
11371 2 11.84 92.8101 21.657
5370 1 12.7475 94.3949 20.3957
4931 1 15.4788 92.8261 20.3676
11317 2 17.2963 92.8101 21.657
11812 2 14.5647 94.3782 21.6854
4883 1 20.935 92.8261 20.3676
5349 1 18.2037 94.3949 20.3957
11765 2 20.0209 94.3782 21.6854
4939 1 11.8892 77.119 25.3037
4955 1 13.6989 77.1246 22.7415
4977 1 10.9674 78.6919 22.7485
11391 2 12.7895 78.6864 24.0342
4902 1 17.3454 77.119 25.3037
11346 2 15.5216 77.1215 24.0274
4937 1 14.6121 78.6821 25.3104
4956 1 16.4236 78.6919 22.7485
4905 1 19.1551 77.1246 22.7415
11292 2 20.9779 77.1215 24.0274
4903 1 20.0684 78.6821 25.3104
11344 2 18.2458 78.6864 24.0342
4938 1 11.878 80.2461 25.3208
4943 1 13.6913 80.2595 22.7589
4978 1 10.9587 81.8273 22.7728
11376 2 12.7794 81.8177 24.0586
4894 1 17.3342 80.2461 25.3208
11345 2 15.5128 80.2519 24.0446
4940 1 14.5996 81.8108 25.3354
4941 1 16.4149 81.8273 22.7728
4904 1 19.1476 80.2595 22.7589
11291 2 20.969 80.2519 24.0446
4892 1 20.0559 81.8108 25.3354
11347 2 18.2356 81.8177 24.0586
4924 1 11.8652 83.3758 25.3542
4942 1 13.6822 83.3952 22.79
4970 1 10.9496 84.963 22.8104
11377 2 12.7688 84.9497 24.0972
4893 1 17.3215 83.3758 25.3542
11331 2 15.5021 83.3837 24.0762
4922 1 14.5874 84.9407 25.3769
4944 1 16.4058 84.963 22.8104
4897 1 19.1384 83.3952 22.79
11290 2 20.9584 83.3837 24.0762
4895 1 20.0437 84.9407 25.3769
11329 2 18.2251 84.9497 24.0972
4923 1 11.8538 86.5053 25.403
4928 1 13.6733 86.5304 22.8337
4971 1 10.9411 88.0976 22.8594
11368 2 12.7592 88.0809 24.1476
4879 1 17.31 86.5053 25.403
11330 2 15.492 86.5154 24.1212
4925 1 14.5768 88.0694 25.4318
4926 1 16.3973 88.0976 22.8594
4896 1 19.1296 86.5304 22.8337
11283 2 20.9482 86.5154 24.1212
4877 1 20.033 88.0694 25.4318
11332 2 18.2154 88.0809 24.1476
4916 1 11.8437 89.6333 25.4622
4927 1 13.6651 89.6644 22.8869
4969 1 10.9331 91.231 22.9156
11369 2 12.7503 91.2117 24.2051
4878 1 17.3 89.6333 25.4622
11316 2 15.4828 89.6463 24.1758
4914 1 14.5671 91.1971 25.4935
4929 1 16.3893 91.231 22.9156
4882 1 19.1214 89.6644 22.8869
11282 2 20.939 89.6463 24.1758
4880 1 20.0234 91.1971 25.4935
11314 2 18.2065 91.2117 24.2051
4915 1 11.8344 92.7614 25.5249
4917 1 13.6573 92.7976 22.945
5369 1 10.9255 94.3645 22.9746
11798 2 12.742 94.3439 24.2647
4862 1 17.2907 92.7614 25.5249
11315 2 15.4742 92.7775 24.2349
5337 1 14.5582 94.3265 25.5558
5338 1 16.3817 94.3645 22.9746
4881 1 19.1136 92.7976 22.945
11268 2 20.9304 92.7775 24.2349
5285 1 20.0145 94.3265 25.5558
11764 2 18.1983 94.3439 24.2647
11342 2 13.7125 77.1143 26.5907
4936 1 12.8022 78.667 27.8738
11374 2 10.9785 78.6744 26.5967
11323 2 11.9056 77.1036 29.1567
4890 1 15.538 77.1091 27.8689
11343 2 16.4347 78.6744 26.5967
11286 2 17.3618 77.1036 29.1567
11321 2 14.6249 78.6572 29.1599
4842 1 20.9943 77.1091 27.8689
11289 2 19.1688 77.1143 26.5907
4888 1 18.2584 78.667 27.8738
11287 2 20.0811 78.6572 29.1599
11327 2 13.6995 80.2356 26.6068
4920 1 12.784 81.7876 27.8978
11375 2 10.964 81.7976 26.6214
11322 2 11.8863 80.2129 29.1682
4889 1 15.5214 80.2266 27.8829
11325 2 16.4202 81.7976 26.6214
11278 2 17.3425 80.2129 29.1682
11324 2 14.604 81.7701 29.1826
4841 1 20.9776 80.2266 27.8829
11288 2 19.1557 80.2356 26.6068
4891 1 18.2403 81.7876 27.8978
11276 2 20.0602 81.7701 29.1826
11326 2 13.6848 83.3602 26.6405
4921 1 12.7676 84.9106 27.9442
11366 2 10.9499 84.9227 26.6638
11308 2 11.866 83.3279 29.2035
4875 1 15.5035 83.3493 27.9183
11328 2 16.4062 84.9227 26.6638
11277 2 17.3222 83.3279 29.2035
11306 2 14.5854 84.8857 29.2303
4840 1 20.9597 83.3493 27.9183
11281 2 19.1411 83.3602 26.6405
4873 1 18.2239 84.9106 27.9442
11279 2 20.0417 84.8857 29.2303
11312 2 13.6718 86.485 26.6908
4912 1 12.7544 88.0315 28.0071
11367 2 10.9379 88.0472 26.7204
4874 1 15.4888 86.4714 27.9742
11310 2 16.3941 88.0472 26.7204
4833 1 20.945 86.4714 27.9742
11280 2 19.1281 86.485 26.6908
4876 1 18.2106 88.0315 28.0071
11311 2 13.6605 89.6094 26.7516
4913 1 12.7429 91.1523 28.0749
11365 2 10.9272 91.1722 26.7834
4861 1 15.4766 89.5916 28.0411
11313 2 16.3834 91.1722 26.7834
4832 1 20.9329 89.5916 28.0411
11267 2 19.1168 89.6094 26.7516
4859 1 18.1991 91.1523 28.0749
11301 2 13.6504 92.736 26.8151
5319 1 12.7329 94.2783 28.1393
11797 2 10.9177 94.301 26.846
4860 1 15.4658 92.7144 28.1078
11749 2 16.374 94.301 26.846
4821 1 20.922 92.7144 28.1078
11266 2 19.1066 92.736 26.8151
5284 1 18.1891 94.2783 28.1393
4886 1 13.7344 77.0948 30.4412
4918 1 10.9936 78.645 30.4406
11320 2 12.8164 78.6358 31.723
11274 2 15.5582 77.092 31.7288
4887 1 16.4498 78.645 30.4406
4839 1 19.1907 77.0948 30.4412
11244 2 21.0145 77.092 31.7288
11272 2 18.2727 78.6358 31.723
4871 1 13.7093 80.1995 30.4465
4919 1 10.9669 81.7559 30.4606
11304 2 12.7853 81.7328 31.7396
11273 2 15.5289 80.1832 31.7271
4869 1 16.4232 81.7559 30.4606
4838 1 19.1655 80.1995 30.4465
11243 2 20.9851 80.1832 31.7271
11275 2 18.2416 81.7328 31.7396
4870 1 13.6834 83.3129 30.484
4910 1 10.9449 84.8691 30.5146
11305 2 12.761 84.8337 31.7962
11260 2 15.5005 83.2831 31.7639
4872 1 16.4012 84.8691 30.5146
4831 1 19.1396 83.3129 30.484
11242 2 20.9567 83.2831 31.7639
11258 2 18.2172 84.8337 31.7962
11307 2 11.8495 86.4434 29.2616
4857 1 13.6648 86.4239 30.5505
4911 1 10.9292 87.978 30.5885
11296 2 12.7431 87.9368 31.8745
11264 2 17.3057 86.4434 29.2616
11259 2 15.4797 86.3842 31.8348
4855 1 16.3855 87.978 30.5885
11309 2 14.5706 88.0012 29.2956
4830 1 19.121 86.4239 30.5505
11239 2 20.936 86.3842 31.8348
11261 2 18.1994 87.9368 31.8745
11262 2 20.0268 88.0012 29.2956
4856 1 13.6504 89.5336 30.6256
11300 2 11.8359 89.5599 29.3304
4909 1 10.9159 91.0918 30.6608
11297 2 12.7292 91.0519 31.9483
11252 2 15.4638 89.4926 31.9126
11263 2 17.2921 89.5599 29.3304
4858 1 16.3721 91.0918 30.6608
11298 2 14.5579 91.1203 29.3646
11250 2 18.1854 91.0519 31.9483
4820 1 19.1066 89.5336 30.6256
11238 2 20.92 89.4926 31.9126
11265 2 20.0142 91.1203 29.3646
4848 1 13.6383 92.6531 30.6938
11299 2 11.8243 92.6827 29.3976
11727 2 12.7195 94.1812 32.0123
11748 2 14.5477 94.2474 29.429
11251 2 15.452 92.6149 31.9815
11253 2 17.2806 92.6827 29.3976
5269 1 16.3616 94.2176 30.7247
11692 2 18.1757 94.1812 32.0123
2246 1 21.8178 94.2176 30.7247
4819 1 19.0946 92.6531 30.6938
11235 2 20.9082 92.6149 31.9815
11693 2 20.0039 94.2474 29.429
4867 1 11.9383 77.0857 33.0306
11270 2 13.7601 77.087 34.3104
11302 2 11.0107 78.6214 34.2931
4864 1 12.847 78.6268 35.6487
4836 1 17.3945 77.0857 33.0306
4865 1 14.6449 78.619 33.0211
11271 2 16.4669 78.6214 34.2931
4824 1 15.5959 77.0867 35.6317
11241 2 19.2164 77.087 34.3104
4837 1 20.1011 78.619 33.0211
4806 1 21.0521 77.0867 35.6317
4822 1 18.3032 78.6268 35.6487
4866 1 11.8943 80.1606 33.0128
11256 2 13.7107 80.1486 34.2769
11303 2 10.9632 81.6823 34.2881
4849 1 12.7518 81.6196 35.6218
4828 1 17.3505 80.1606 33.0128
4868 1 14.6011 81.7114 33.0301
11254 2 16.4195 81.6823 34.2881
4823 1 15.5443 80.1259 35.6158
11240 2 19.1669 80.1486 34.2769
4826 1 20.0573 81.7114 33.0301
4805 1 21.0005 80.1259 35.6158
4825 1 18.208 81.6196 35.6218
4853 1 11.8567 83.2601 33.0568
11255 2 13.6704 83.2184 34.3159
11294 2 10.9306 84.7549 34.3627
4850 1 12.7336 84.6773 35.7097
4827 1 17.3129 83.2601 33.0568
4851 1 14.5733 84.8061 33.0963
11257 2 16.3869 84.7549 34.3627
4813 1 15.469 83.1598 35.6613
11237 2 19.1266 83.2184 34.3159
4829 1 20.0295 84.8061 33.0963
4804 1 20.9253 83.1598 35.6613
4811 1 18.1898 84.6773 35.7097
4852 1 11.8365 86.3499 33.1398
11248 2 13.6473 86.2969 34.4114
4843 1 12.717 87.771 35.7816
4817 1 17.2927 86.3499 33.1398
4854 1 14.5557 87.8978 33.1799
11246 2 16.3666 87.8457 34.4564
4812 1 15.4514 86.2203 35.7464
4814 1 18.1733 87.771 35.7816
8031 2 21.8229 87.8457 34.4564
11236 2 19.1036 86.2969 34.4114
4815 1 20.012 87.8978 33.1799
4803 1 20.9077 86.2203 35.7464
4847 1 11.82 89.451 33.217
11247 2 13.6314 89.4019 34.4962
4844 1 12.7072 90.9025 35.8396
4845 1 14.5415 91.0102 33.2504
11249 2 16.354 90.9639 34.5318
4809 1 15.4396 89.3337 35.8118
4807 1 18.1635 90.9025 35.8396
4816 1 17.2762 89.451 33.217
8029 2 21.8102 90.9639 34.5318
11234 2 19.0877 89.4019 34.4962
4818 1 19.9978 91.0102 33.2504
4802 1 20.8958 89.3337 35.8118
4846 1 11.8082 92.5743 33.2812
11245 2 13.6217 92.5309 34.5637
5268 1 14.5323 94.1426 33.3098
5247 1 12.7024 94.0534 35.891
4810 1 17.2644 92.5743 33.2812
11677 2 16.3468 94.102 34.593
5218 1 18.1586 94.0534 35.891
4808 1 15.4324 92.4764 35.8658
4801 1 20.8886 92.4764 35.8658
8462 2 21.803 94.102 34.593
11233 2 19.0779 92.5309 34.5637
5219 1 19.9885 94.1426 33.3098
11446 2 12.0028 77.1022 36.8889
16731 1 13.088 75.6138 38.2417
11435 2 17.4591 77.1022 36.8889
17116 1 15.8186 77.259 38.2341
11444 2 14.6813 78.6433 36.8612
16701 1 18.5442 75.6138 38.2417
11436 2 20.1376 78.6433 36.8612
14304 1 21.2749 77.259 38.2341
11445 2 11.867 80.1337 36.8568
17117 1 13.0932 78.9533 38.2985
11432 2 17.3233 80.1337 36.8568
17118 1 15.7999 80.8056 38.3697
11447 2 14.5528 81.6131 36.8049
17082 1 18.5494 78.9533 38.2985
11430 2 20.0091 81.6131 36.8049
14302 1 21.2562 80.8056 38.3697
11442 2 11.8352 83.103 36.8646
17113 1 13.3346 82.5313 38.4189
11440 2 14.5496 84.629 36.9249
11431 2 17.2915 83.103 36.8646
17111 1 16.2674 84.3468 38.3208
17081 1 18.7909 82.5313 38.4189
11433 2 20.0059 84.629 36.9249
14303 1 21.7236 84.3468 38.3208
11441 2 11.8087 86.1646 36.9873
17112 1 13.5679 85.9544 38.3489
11443 2 14.531 87.72 37.0343
11428 2 17.265 86.1646 36.9873
17114 1 16.3114 87.5692 38.3744
17076 1 19.0241 85.9544 38.3489
11426 2 19.9873 87.72 37.0343
14300 1 21.7676 87.5692 38.3744
11439 2 11.7976 89.284 37.0744
17102 1 13.5914 89.169 38.3949
11437 2 14.5224 90.8554 37.1088
11427 2 17.2538 89.284 37.0744
17100 1 16.3251 90.7667 38.4171
17075 1 19.0476 89.169 38.3949
11429 2 19.9787 90.8554 37.1088
14301 1 21.7814 90.7667 38.4171
11856 2 14.5193 94.0115 37.1672
11438 2 11.7923 92.4317 37.1394
17101 1 13.6001 92.3601 38.4398
11425 2 17.2485 92.4317 37.1394
17103 1 16.3303 93.9523 38.4625
11842 2 19.9756 94.0115 37.1672
17062 1 19.0564 92.3601 38.4398
14299 1 21.7866 93.9523 38.4625
22739 2 12.4431 77.3042 39.4483
16729 1 11.5583 75.7139 40.7583
22329 2 13.4287 75.6973 41.9882
17115 1 14.3231 77.4079 40.7148
22721 2 16.1733 77.3741 41.9653
16681 1 17.0146 75.7139 40.7583
22343 2 15.1514 75.6654 39.4757
22728 2 17.8993 77.3042 39.4483
17078 1 19.7793 77.4079 40.7148
22293 2 18.885 75.6973 41.9882
22295 2 20.6076 75.6654 39.4757
19918 2 21.6295 77.3741 41.9653
22740 2 12.5384 80.7945 39.3698
22722 2 13.473 79.0579 41.9333
17109 1 11.6654 79.1042 40.6236
17107 1 14.4666 80.8256 40.5537
22726 2 15.2127 79.0005 39.4058
22723 2 16.2387 80.7345 41.9296
17079 1 17.1217 79.1042 40.6236
22724 2 17.9947 80.7945 39.3698
17080 1 19.9228 80.8256 40.5537
22677 2 18.9293 79.0579 41.9333
22680 2 20.6689 79.0005 39.4058
19914 2 21.6949 80.7345 41.9296
22736 2 12.6845 84.3105 39.4987
17108 1 11.7345 82.4169 40.6856
22714 2 13.5445 82.3998 41.9604
17110 1 14.4411 84.082 40.8429
22725 2 15.3781 82.6729 39.4241
17073 1 17.1908 82.4169 40.6856
22712 2 16.2983 84.0794 42.0315
22727 2 18.1408 84.3105 39.4987
19915 2 21.7546 84.0794 42.0315
17071 1 19.8973 84.082 40.8429
22676 2 19.0007 82.3998 41.9604
22679 2 20.8343 82.6729 39.4241
22737 2 12.6939 87.5369 39.5985
17098 1 11.7303 85.7368 40.884
22713 2 13.5866 85.7436 42.09
17096 1 14.4788 87.3853 40.9132
22718 2 15.4175 85.9337 39.556
17072 1 17.1865 85.7368 40.884
22715 2 16.3234 87.3749 42.14
22716 2 18.1502 87.5369 39.5985
19910 2 21.7796 87.3749 42.14
17074 1 19.935 87.3853 40.9132
22669 2 19.0428 85.7436 42.09
22678 2 20.8737 85.9337 39.556
22732 2 12.6952 90.7291 39.6719
17097 1 11.7631 89.012 40.9431
22700 2 13.5999 88.9947 42.1822
17099 1 14.4987 90.6319 40.9706
22717 2 15.4227 89.1356 39.6381
17059 1 17.2194 89.012 40.9431
22698 2 16.3309 90.6068 42.2192
22719 2 18.1515 90.7291 39.6719
19911 2 21.7871 90.6068 42.2192
17057 1 19.955 90.6319 40.9706
22668 2 19.0561 88.9947 42.1822
22671 2 20.8789 89.1356 39.6381
22733 2 12.6961 93.9142 39.7306
17090 1 11.7761 92.243 40.9957
22699 2 13.6045 92.2142 42.2524
17088 1 14.5081 93.8496 41.0201
17058 1 17.2323 92.243 40.9957
22701 2 16.3342 93.8182 42.2825
22704 2 15.4237 92.322 39.7026
22702 2 18.1524 93.9142 39.7306
19909 2 21.7904 93.8182 42.2825
17060 1 19.9644 93.8496 41.0201
22654 2 19.0608 92.2142 42.2524
22670 2 20.8799 92.322 39.7026
17105 1 12.5843 77.3975 43.2003
22327 2 11.6753 75.7061 44.5045
22720 2 14.4117 77.3682 44.496
16665 1 13.5258 75.7 45.7541
16679 1 15.2936 75.7217 43.2337
22274 2 17.1316 75.7061 44.5045
17077 1 18.0405 77.3975 43.2003
17064 1 16.2572 77.3521 45.7537
14284 1 21.7134 77.3521 45.7537
22673 2 19.8679 77.3682 44.496
16631 1 20.7498 75.7217 43.2337
16629 1 18.982 75.7 45.7541
17106 1 12.6166 80.6838 43.2099
22710 2 11.6991 79.0222 44.4922
22708 2 14.4471 80.6715 44.5025
17065 1 13.5374 78.9938 45.7625
17069 1 15.3244 79.0569 43.1857
22674 2 17.1553 79.0222 44.4922
17067 1 18.0728 80.6838 43.2099
17066 1 16.2785 80.6303 45.7785
14272 1 21.7347 80.6303 45.7785
17016 1 20.7807 79.0569 43.1857
22675 2 19.9033 80.6715 44.5025
17013 1 18.9937 78.9938 45.7625
17094 1 12.6646 83.9605 43.2944
22709 2 11.7393 82.3172 44.5285
22711 2 14.4828 83.9617 44.5709
17051 1 13.5647 82.2632 45.8065
17068 1 15.3691 82.3195 43.2444
22666 2 17.1955 82.3172 44.5285
17070 1 18.1209 83.9605 43.2944
17049 1 16.3077 83.8949 45.8441
14273 1 21.7639 83.8949 45.8441
17015 1 20.8253 82.3195 43.2444
22664 2 19.939 83.9617 44.5709
17012 1 19.0209 82.2632 45.8065
17095 1 12.6726 87.2533 43.4293
22696 2 11.7691 85.6067 44.622
22694 2 14.5061 87.2467 44.6721
17050 1 13.5908 85.5287 45.8913
17055 1 15.3991 85.6091 43.3709
22665 2 17.2253 85.6067 44.622
17053 1 18.1288 87.2533 43.4293
17014 1 20.8553 85.6091 43.3709
22667 2 19.9623 87.2467 44.6721
17005 1 19.047 85.5287 45.8913
17086 1 12.6845 90.5179 43.5045
22695 2 11.7836 88.8775 44.7168
22697 2 14.5154 90.5 44.7569
17054 1 15.4067 88.8896 43.4696
22651 2 17.2399 88.8775 44.7168
17056 1 18.1408 90.5179 43.5045
17007 1 20.8629 88.8896 43.4696
22649 2 19.9717 90.5 44.7569
17087 1 12.6928 93.7549 43.5648
22688 2 11.7899 92.1169 44.7929
22686 2 14.52 93.7296 44.8257
17038 1 18.149 93.7549 43.5648
22650 2 17.2461 92.1169 44.7929
17040 1 15.4174 92.1392 43.536
17006 1 20.8736 92.1392 43.536
22652 2 19.9762 93.7296 44.8257
22706 2 12.6331 77.3425 47.0436
16663 1 11.7402 75.6853 48.303
17063 1 14.4707 77.3236 48.3101
16612 1 17.1964 75.6853 48.303
22272 2 15.356 75.695 47.0414
22672 2 18.0893 77.3425 47.0436
17009 1 19.927 77.3236 48.3101
22233 2 20.8123 75.695 47.0414
17047 1 11.7473 78.9586 48.3227
22707 2 12.6527 80.6229 47.0664
17045 1 14.4827 80.5902 48.3413
17010 1 17.2036 78.9586 48.3227
22662 2 15.37 78.9851 47.051
22660 2 18.109 80.6229 47.0664
17011 1 19.9389 80.5902 48.3413
22614 2 20.8263 78.9851 47.051
17046 1 11.7635 82.2192 48.3666
22692 2 12.6756 83.891 47.1252
17048 1 14.5014 83.847 48.3983
17002 1 17.2198 82.2192 48.3666
22661 2 15.3926 82.2576 47.0912
22663 2 18.1319 83.891 47.1252
17000 1 19.9577 83.847 48.3983
22613 2 20.8489 82.2576 47.0912
17032 1 11.7821 85.4746 48.4357
22693 2 12.6934 87.1569 47.2085
17030 1 14.5173 87.1027 48.4772
17001 1 17.2383 85.4746 48.4357
22647 2 15.4135 85.5243 47.1651
22645 2 18.1496 87.1569 47.2085
17052 1 16.326 87.1644 45.943
17003 1 19.9735 87.1027 48.4772
22612 2 20.8697 85.5243 47.1651
14264 1 21.7823 87.1644 45.943
17031 1 11.7941 88.7308 48.5203
22684 2 12.7034 90.4126 47.292
17033 1 14.5255 90.3575 48.5618
17036 1 13.6018 88.7981 45.9908
16987 1 17.2504 88.7308 48.5203
17034 1 16.333 90.4277 46.0321
22646 2 15.4274 88.7868 47.2515
22648 2 18.1596 90.4126 47.292
14265 1 21.7892 90.4277 46.0321
16985 1 19.9818 90.3575 48.5618
22605 2 20.8837 88.7868 47.2515
17004 1 19.0581 88.7981 45.9908
17024 1 11.7997 91.9819 48.6005
17035 1 13.6078 92.0524 46.0686
22685 2 12.7083 93.6516 47.3644
17022 1 14.5297 93.6033 48.6363
16986 1 17.256 91.9819 48.6005
17037 1 16.3384 93.6726 46.1018
22633 2 15.4343 92.034 47.3296
22631 2 18.1645 93.6516 47.3644
14263 1 21.7947 93.6726 46.1018
16988 1 19.986 93.6033 48.6363
16990 1 19.064 92.0524 46.0686
22604 2 20.8905 92.034 47.3296
17043 1 12.6761 77.3072 50.8701
22260 2 13.5683 75.6852 49.5932
22258 2 11.773 75.6797 52.153
22656 2 14.5032 77.3066 52.1593
22657 2 16.2997 77.3211 49.599
16610 1 15.4024 75.6785 50.8627
17008 1 18.1324 77.3072 50.8701
22222 2 17.2293 75.6797 52.153
19885 2 21.7559 77.3211 49.599
16580 1 20.8587 75.6785 50.8627
22231 2 19.0245 75.6852 49.5932
22607 2 19.9594 77.3066 52.1593
17044 1 12.684 80.5608 50.9018
22658 2 13.5767 78.9544 49.6102
22639 2 11.7783 78.9325 52.1709
22637 2 14.5107 80.5571 52.1879
16998 1 15.4074 78.9347 50.8833
22659 2 16.3114 80.585 49.6275
16996 1 18.1402 80.5608 50.9018
22608 2 17.2346 78.9325 52.1709
19870 2 21.7676 80.585 49.6275
16956 1 20.8637 78.9347 50.8833
22611 2 19.0329 78.9544 49.6102
22609 2 19.967 80.5571 52.1879
17028 1 12.6963 83.8094 50.9536
22643 2 13.5907 82.2135 49.6511
22638 2 11.7876 82.1807 52.2098
22640 2 14.521 83.8036 52.2362
16997 1 15.4179 82.1855 50.9254
22641 2 16.3263 83.8408 49.6805
16999 1 18.1525 83.8094 50.9536
22600 2 17.2438 82.1807 52.2098
19871 2 21.7825 83.8408 49.6805
16955 1 20.8742 82.1855 50.9254
22610 2 19.0469 82.2135 49.6511
22598 2 19.9773 83.8036 52.2362
17029 1 12.7085 87.0566 51.0218
22642 2 13.6054 85.4678 49.7146
22623 2 14.5312 87.0483 52.2995
22625 2 11.7982 85.4261 52.2664
16983 1 15.4308 85.433 50.9861
22644 2 16.3398 87.0943 49.7519
16981 1 18.1647 87.0566 51.0218
22599 2 17.2544 85.4261 52.2664
19862 2 21.796 87.0943 49.7519
16954 1 20.8871 85.433 50.9861
22603 2 19.0616 85.4678 49.7146
22601 2 19.9875 87.0483 52.2995
22626 2 14.5393 90.2917 52.3703
22624 2 11.8075 88.6703 52.3345
17020 1 12.7168 90.3033 51.098
22629 2 13.6168 88.7201 49.7907
22589 2 17.2637 88.6703 52.3345
16982 1 15.4413 88.6801 51.0595
22627 2 16.349 90.3443 49.8293
16984 1 18.173 90.3033 51.098
19863 2 21.8052 90.3443 49.8293
22587 2 19.9955 90.2917 52.3703
16948 1 20.8976 88.6801 51.0595
22602 2 19.0731 88.7201 49.7907
22617 2 14.5445 93.5308 52.4412
22619 2 11.8141 91.912 52.4061
17021 1 12.7212 93.546 51.172
22628 2 13.6239 91.9662 49.8666
22588 2 17.2703 91.912 52.4061
16971 1 15.4475 91.9254 51.1357
22630 2 16.3542 93.5855 49.9022
16969 1 18.1775 93.546 51.172
22590 2 20.0008 93.5308 52.4412
19861 2 21.8105 93.5855 49.9022
16947 1 20.9037 91.9254 51.1357
22592 2 19.0801 91.9662 49.8666
22635 2 12.7024 77.2978 54.7221
16600 1 13.6032 75.6758 53.4269
16993 1 16.3327 77.2975 53.4335
22220 2 15.4292 75.6775 54.7163
22606 2 18.1586 77.2978 54.7221
14222 1 21.7889 77.2975 53.4335
16578 1 19.0594 75.6758 53.4269
22213 2 20.8854 75.6775 54.7163
16994 1 13.6069 78.9189 53.4455
22636 2 12.7076 80.5374 54.7485
16995 1 16.3384 80.5398 53.4625
22596 2 15.4327 78.9178 54.7329
22594 2 18.1639 80.5374 54.7485
14206 1 21.7946 80.5398 53.4625
16953 1 19.0632 78.9189 53.4455
22578 2 20.889 78.9178 54.7329
16979 1 13.6143 82.1603 53.4841
22621 2 12.7151 83.7755 54.7923
16977 1 16.3471 83.7805 53.5096
22595 2 15.4393 82.1566 54.7684
22597 2 18.1714 83.7755 54.7923
14207 1 21.8033 83.7805 53.5096
16952 1 19.0706 82.1603 53.4841
22577 2 20.8956 82.1566 54.7684
16978 1 13.6237 85.4006 53.5386
22622 2 12.7231 87.0132 54.8495
22583 2 18.1793 87.0132 54.8495
16980 1 16.3564 87.0207 53.5705
22585 2 15.4473 85.3944 54.8195
14198 1 21.8126 87.0207 53.5705
22576 2 20.9035 85.3944 54.8195
16946 1 19.0799 85.4006 53.5386
22615 2 12.73 90.2504 54.9147
16967 1 13.6323 88.6407 53.6044
22586 2 18.1862 90.2504 54.9147
22584 2 15.4549 88.6319 54.8814
16965 1 16.3638 90.2607 53.6397
14199 1 21.8201 90.2607 53.6397
22575 2 20.9111 88.6319 54.8814
16945 1 19.0886 88.6407 53.6044
22616 2 12.735 93.4857 54.9826
16966 1 13.6384 91.8802 53.6753
22581 2 15.4608 91.8684 54.9486
16968 1 16.3686 93.499 53.7107
22579 2 18.1913 93.4857 54.9826
22574 2 20.9171 91.8684 54.9486
16939 1 19.0946 91.8802 53.6753
14197 1 21.8248 93.499 53.7107
17291 1 12.7247 77.2895 58.5627
16598 1 11.8006 75.6755 55.9925
22539 2 13.6259 75.6776 57.2809
16992 1 14.5297 77.2921 55.9981
22924 2 16.3549 77.2929 57.2858
16895 1 15.452 75.677 58.5581
16573 1 17.2568 75.6755 55.9925
17280 1 18.1809 77.2895 58.5627
16949 1 19.986 77.2921 55.9981
16847 1 20.9082 75.677 58.5581
22509 2 19.0821 75.6776 57.2809
20112 2 21.8112 77.2929 57.2858
16975 1 11.8035 78.9086 56.0086
17292 1 12.7281 80.515 58.5852
22925 2 13.6285 78.9082 57.2953
16973 1 14.5341 80.5252 56.0238
16950 1 17.2597 78.9086 56.0086
17278 1 15.4542 78.9021 58.5718
22926 2 16.3588 80.5235 57.3093
17276 1 18.1844 80.515 58.5852
17232 1 20.9105 78.9021 58.5718
16951 1 19.9904 80.5252 56.0238
22890 2 19.0847 78.9082 57.2953
20110 2 21.8151 80.5235 57.3093
16974 1 11.8091 82.1418 56.0431
17288 1 12.7334 83.7416 58.6233
22921 2 13.6334 82.1389 57.3273
16976 1 14.5407 83.7585 56.0662
17277 1 15.4587 82.1281 58.6025
16943 1 17.2653 82.1418 56.0431
22919 2 16.3646 83.7543 57.3489
17279 1 18.1897 83.7416 58.6233
17231 1 20.915 82.1281 58.6025
16941 1 19.997 83.7585 56.0662
22889 2 19.0897 82.1389 57.3273
20111 2 21.8208 83.7543 57.3489
16963 1 11.8163 85.3753 56.0924
17289 1 12.7395 86.9693 58.6738
22920 2 13.6397 85.3698 57.3736
16961 1 14.5481 86.9922 56.1214
22928 2 10.9148 86.9855 57.401
17270 1 15.4645 85.3553 58.6472
16942 1 17.2725 85.3753 56.0924
22922 2 16.371 86.9855 57.401
17268 1 18.1957 86.9693 58.6738
17230 1 20.9208 85.3553 58.6472
16944 1 20.0043 86.9922 56.1214
22884 2 19.0959 85.3698 57.3736
16962 1 11.8234 88.6093 56.1525
17284 1 12.7452 90.1981 58.7331
22929 2 10.9208 90.217 57.4616
22910 2 13.646 88.6012 57.4305
16964 1 14.5546 90.2264 56.1851
17269 1 15.4705 88.5836 58.7026
16936 1 17.2796 88.6093 56.1525
22908 2 16.377 90.217 57.4616
17223 1 20.9268 88.5836 58.7026
17271 1 18.2014 90.1981 58.7331
16934 1 20.0108 90.2264 56.1851
22883 2 19.1023 88.6012 57.4305
16959 1 11.829 91.8434 56.2187
17285 1 12.7497 93.4272 58.7973
22927 2 10.9255 93.448 57.5264
22909 2 13.6514 91.8327 57.4937
16957 1 14.5593 93.4601 56.2526
17256 1 15.4757 91.8126 58.7648
16935 1 17.2853 91.8434 56.2187
22911 2 16.3818 93.448 57.5264
17222 1 20.932 91.8126 58.7648
17254 1 18.206 93.4272 58.7973
16937 1 20.0155 93.4601 56.2526
22870 2 19.1077 91.8327 57.4937
16881 1 13.6456 75.6797 61.1231
22537 2 11.8205 75.6794 59.8453
22923 2 14.5493 77.2907 59.8493
22913 2 12.7421 77.2903 62.4122
17290 1 10.9181 77.2888 61.1267
17273 1 16.3743 77.2888 61.1267
22489 2 17.2767 75.6794 59.8453
22487 2 15.4698 75.6824 62.409
22886 2 20.0055 77.2907 59.8493
16845 1 19.1018 75.6797 61.1231
22885 2 18.1984 77.2903 62.4122
22439 2 20.926 75.6824 62.409
17274 1 13.6473 78.8982 61.1346
17286 1 10.9209 80.5078 61.1464
22917 2 11.8224 78.9021 59.8577
22914 2 12.7446 80.5067 62.4304
22915 2 14.5523 80.5138 59.8701
17275 1 16.3771 80.5078 61.1464
22887 2 17.2787 78.9021 59.8577
22877 2 15.4712 78.8983 62.4194
17229 1 19.1036 78.8982 61.1346
22888 2 20.0085 80.5138 59.8701
22824 2 20.9275 78.8983 62.4194
22875 2 18.2008 80.5067 62.4304
17266 1 13.651 82.1178 61.1619
17287 1 10.9252 83.7282 61.1809
22916 2 11.8264 82.1257 59.8862
22902 2 12.7484 83.7244 62.4629
22918 2 14.557 83.7378 59.9058
17264 1 16.3815 83.7282 61.1809
22881 2 17.2826 82.1257 59.8862
22876 2 15.4745 82.1154 62.445
17228 1 19.1072 82.1178 61.1619
22879 2 20.0132 83.7378 59.9058
22823 2 20.9307 82.1154 62.445
22878 2 18.2047 83.7244 62.4629
17265 1 13.6559 85.339 61.2028
17282 1 10.9304 86.9503 61.2274
22906 2 11.8315 85.3502 59.9285
22903 2 12.7531 86.9438 62.5073
17267 1 16.3866 86.9503 61.2274
22880 2 17.2877 85.3502 59.9285
22904 2 14.5624 86.9629 59.9537
22863 2 15.4789 85.3339 62.4838
17221 1 19.1121 85.339 61.2028
22882 2 20.0186 86.9629 59.9537
22822 2 20.9351 85.3339 62.4838
22861 2 18.2094 86.9438 62.5073
17252 1 13.6611 88.5619 61.2543
17283 1 10.9355 90.1738 61.283
22905 2 11.8369 88.5759 59.9812
22894 2 12.7579 90.1646 62.5606
17250 1 16.3917 90.1738 61.283
22867 2 17.2932 88.5759 59.9812
22907 2 14.5676 90.1891 60.0104
22862 2 15.4837 88.554 62.533
17220 1 19.1174 88.5619 61.2543
22865 2 20.0239 90.1891 60.0104
22815 2 20.9399 88.554 62.533
22864 2 18.2142 90.1646 62.5606
17251 1 13.6659 91.786 61.3131
17281 1 10.9399 93.3983 61.3444
22898 2 11.8419 91.8023 60.0409
17253 1 16.3961 93.3983 61.3444
22866 2 17.2981 91.8023 60.0409
22896 2 14.5721 93.4156 60.0723
22848 2 15.4883 91.7755 62.5898
17206 1 19.1222 91.786 61.3131
22868 2 20.0284 93.4156 60.0723
22814 2 20.9446 91.7755 62.5898
22912 2 10.9338 77.291 64.9741
16879 1 11.8379 75.6835 63.6875
22473 2 13.6615 75.6863 64.9716
17272 1 14.5665 77.2896 63.6904
22872 2 16.39 77.291 64.9741
16826 1 17.2941 75.6835 63.6875
17225 1 20.0227 77.2896 63.6904
22437 2 19.1178 75.6863 64.9716
17262 1 11.8392 78.8959 63.6971
22873 2 13.6627 78.896 64.9803
22900 2 10.9357 80.5012 64.9901
17226 1 17.2955 78.8959 63.6971
17260 1 14.5687 80.5026 63.7076
22874 2 16.392 80.5012 64.9901
17227 1 20.025 80.5026 63.7076
22821 2 19.1189 78.896 64.9803
17261 1 11.8423 82.1096 63.7217
22859 2 13.6654 82.1068 65.0033
22901 2 10.9391 83.7128 65.0198
17218 1 17.2985 82.1096 63.7217
17263 1 14.5724 83.7172 63.739
22857 2 16.3953 83.7128 65.0198
17216 1 20.0287 83.7172 63.739
22820 2 19.1216 82.1068 65.0033
17248 1 11.8465 85.3252 63.7593
22858 2 13.6692 85.3193 65.0391
22892 2 10.9433 86.9263 65.0611
17217 1 17.3027 85.3252 63.7593
17246 1 14.577 86.9337 63.7823
22860 2 16.3995 86.9263 65.0611
17219 1 20.0332 86.9337 63.7823
22813 2 19.1255 85.3193 65.0391
17247 1 11.8512 88.5426 63.8076
22844 2 13.6737 88.5339 65.0855
22893 2 10.9478 90.1419 65.1117
17203 1 17.3074 88.5426 63.8076
17249 1 14.5816 90.152 63.8348
22842 2 16.404 90.1419 65.1117
17201 1 20.0379 90.152 63.8348
22812 2 19.1299 88.5339 65.0855
17240 1 11.8557 91.7618 63.8637
22843 2 13.6781 91.7504 65.1397
22891 2 10.9521 93.3593 65.169
22895 2 12.7623 93.3866 62.62
17202 1 17.312 91.7618 63.8637
17238 1 14.5859 93.372 63.8937
22845 2 16.4083 93.3593 65.169
17204 1 20.0422 93.372 63.8937
22846 2 18.2185 93.3866 62.62
22798 2 19.1343 91.7504 65.1397
17258 1 12.7575 77.2915 66.2546
22471 2 11.852 75.691 67.5323
17257 1 10.9477 77.2949 68.8229
16812 1 13.6757 75.6946 68.8211
22871 2 14.5803 77.2925 67.5341
16824 1 15.4853 75.6883 66.2524
22420 2 17.3082 75.691 67.5323
17209 1 16.404 77.2949 68.8229
17224 1 18.2137 77.2915 66.2546
22817 2 20.0366 77.2925 67.5341
16785 1 20.9415 75.6883 66.2524
16783 1 19.1319 75.6946 68.8211
17259 1 12.7593 80.4987 66.2699
22855 2 11.8528 78.8943 67.5394
17210 1 13.6764 78.8954 68.8282
17242 1 10.9492 80.4962 68.8369
17214 1 15.4863 78.8949 66.2605
22818 2 17.309 78.8943 67.5394
22853 2 14.5819 80.4963 67.5482
17211 1 16.4055 80.4962 68.8369
17166 1 20.9425 78.8949 66.2605
17212 1 18.2155 80.4987 66.2699
22819 2 20.0381 80.4963 67.5482
17163 1 19.1327 78.8954 68.8282
17244 1 12.7625 83.7075 66.2988
22854 2 11.8551 82.0987 67.5603
17195 1 13.6786 82.0974 68.8489
17243 1 10.952 83.6991 68.864
17213 1 15.4888 82.1029 66.2828
22810 2 17.3113 82.0987 67.5603
22856 2 14.5849 83.7017 67.5755
17193 1 16.4082 83.6991 68.864
17165 1 20.9451 82.1029 66.2828
17215 1 18.2187 83.7075 66.2988
22808 2 20.0411 83.7017 67.5755
17162 1 19.1348 82.0974 68.8489
17245 1 12.7665 86.9185 66.3395
22840 2 11.8586 85.3051 67.5936
17194 1 13.6819 85.3014 68.8819
17234 1 10.9557 86.9043 68.9026
17199 1 15.4925 85.3127 66.3178
22809 2 17.3148 85.3051 67.5936
22838 2 14.5888 86.9092 67.6143
17196 1 16.4119 86.9043 68.9026
17164 1 20.9488 85.3127 66.3178
17197 1 18.2228 86.9185 66.3395
22811 2 20.045 86.9092 67.6143
17155 1 19.1381 85.3014 68.8819
17236 1 12.7709 90.1317 66.3895
22839 2 11.8628 88.514 67.6374
17181 1 13.6858 88.5079 68.9255
17235 1 10.9598 90.1121 68.9505
17198 1 15.4968 88.5248 66.3635
22795 2 17.3191 88.514 67.6374
22841 2 14.5932 90.1193 67.6626
17179 1 16.416 90.1121 68.9505
17157 1 20.9531 88.5248 66.3635
17200 1 18.2272 90.1317 66.3895
22793 2 20.0494 90.1193 67.6626
17154 1 19.142 88.5079 68.9255
17237 1 12.7752 93.347 66.4463
22832 2 11.8673 91.7254 67.6895
17180 1 13.69 91.7171 68.9773
17233 1 10.9639 93.3228 69.0056
17185 1 15.5012 91.7391 66.4172
22794 2 17.3235 91.7254 67.6895
22830 2 14.5975 93.3321 67.7179
17182 1 16.4201 93.3228 69.0056
17156 1 20.9575 91.7391 66.4172
17183 1 18.2314 93.347 66.4463
22796 2 20.0538 93.3321 67.7179
17144 1 19.1462 91.7171 68.9773
22851 2 12.7714 77.2931 70.0884
16810 1 11.8629 75.6994 71.4054
17208 1 14.5912 77.2965 71.4071
16774 1 17.3192 75.6994 71.4054
22418 2 15.4994 75.695 70.0867
17159 1 20.0475 77.2965 71.4071
22816 2 18.2277 77.2931 70.0884
22388 2 20.9556 75.695 70.0867
17191 1 11.8636 78.8937 71.4122
22852 2 12.7729 80.4899 70.1021
17160 1 17.3198 78.8937 71.4122
17189 1 14.5925 80.4913 71.4207
22806 2 15.5001 78.8913 70.0936
17161 1 20.0488 80.4913 71.4207
22764 2 20.9564 78.8913 70.0936
22804 2 18.2291 80.4899 70.1021
17190 1 11.8655 82.0894 71.4323
22836 2 12.7757 83.6886 70.1285
17152 1 17.3217 82.0894 71.4323
17192 1 14.5949 83.688 71.4469
22805 2 15.5023 82.089 70.1138
17150 1 20.0512 83.688 71.4469
22763 2 20.9585 82.089 70.1138
22807 2 18.2319 83.6886 70.1285
17177 1 11.8684 85.2874 71.4643
22837 2 12.7793 86.8899 70.1662
17151 1 17.3246 85.2874 71.4643
17175 1 14.5982 86.8875 71.4843
22791 2 15.5055 85.2889 70.1461
17153 1 20.0544 86.8875 71.4843
22762 2 20.9618 85.2889 70.1461
22789 2 18.2356 86.8899 70.1662
17176 1 11.8718 88.4884 71.5066
22828 2 12.7834 90.0945 70.2132
17141 1 17.3281 88.4884 71.5066
17178 1 14.6018 90.0902 71.531
22790 2 15.5095 88.4918 70.1887
17139 1 20.058 90.0902 71.531
22756 2 20.9657 88.4918 70.1887
22792 2 18.2397 90.0945 70.2132
17171 1 11.8755 91.6929 71.5571
22829 2 12.7876 93.3026 70.2673
17140 1 17.3317 91.6929 71.5571
17169 1 14.6054 93.2965 71.5846
22779 2 15.5136 91.6981 70.2395
17142 1 20.0616 93.2965 71.5846
22755 2 20.9699 91.6981 70.2395
22777 2 18.2438 93.3026 70.2673
17187 1 12.7474 77.3015 74.0657
22850 2 10.9602 77.292 72.6295
22406 2 11.8608 75.7032 75.1182
22408 2 13.6881 75.6979 72.6278
22800 2 14.5891 77.294 75.1198
22801 2 16.4164 77.292 72.6295
16772 1 15.4756 75.7073 74.0641
22381 2 17.3171 75.7032 75.1182
17158 1 18.2037 77.3015 74.0657
22757 2 20.0453 77.294 75.1198
16765 1 20.9318 75.7073 74.0641
22386 2 19.1444 75.6979 72.6278
17188 1 12.7474 80.4907 74.0791
22783 2 11.8613 78.8851 75.1246
22802 2 13.6889 78.8864 72.6345
22834 2 10.9616 80.4812 72.6428
17148 1 15.4756 78.8959 74.0708
22758 2 17.3176 78.8851 75.1246
22781 2 14.59 80.4766 75.1325
22803 2 16.4179 80.4812 72.6428
17130 1 20.9318 78.8959 74.0708
17146 1 18.2037 80.4907 74.0791
22759 2 20.0463 80.4766 75.1325
22761 2 19.1451 78.8864 72.6345
17173 1 12.7474 83.6821 74.1051
22782 2 11.8627 82.0689 75.1435
22787 2 13.691 82.0766 72.6542
22835 2 10.9643 83.6727 72.6685
17147 1 15.4755 82.086 74.0906
22751 2 17.319 82.0689 75.1435
22784 2 14.5918 83.6621 75.1573
22785 2 16.4206 83.6727 72.6685
17129 1 20.9318 82.086 74.0906
17149 1 18.2037 83.6821 74.1051
22749 2 20.0481 83.6621 75.1573
22760 2 19.1472 82.0766 72.6542
17174 1 12.7474 86.8769 74.1422
22771 2 11.8648 85.2563 75.1738
22786 2 13.6941 85.2696 72.6857
22826 2 10.9679 86.8675 72.7053
17137 1 15.4755 85.279 74.1224
22750 2 17.3211 85.2563 75.1738
22769 2 14.5942 86.8517 75.1928
22788 2 16.4241 86.8675 72.7053
17128 1 20.9318 85.279 74.1224
17135 1 18.2036 86.8769 74.1422
22752 2 20.0504 86.8517 75.1928
22754 2 19.1504 85.2696 72.6857
17167 1 12.7473 90.0757 74.1885
22770 2 11.8673 88.4484 75.2141
22775 2 13.698 88.4664 72.7273
22827 2 10.9719 90.0665 72.7513
17136 1 15.4755 88.4758 74.1644
22744 2 17.3236 88.4484 75.2141
22772 2 14.5967 90.0465 75.2373
22773 2 16.4281 90.0665 72.7513
17127 1 20.9317 88.4758 74.1644
17138 1 18.2036 90.0757 74.1885
22742 2 20.053 90.0465 75.2373
22753 2 19.1542 88.4664 72.7273
17168 1 12.7471 93.279 74.2418
22767 2 11.8699 91.646 75.2623
22774 2 13.702 91.6677 72.777
22825 2 10.9759 93.27 72.8043
22776 2 16.4321 93.27 72.8043
17133 1 15.4754 91.6768 74.2144
22743 2 17.3261 91.646 75.2623
22765 2 14.5992 93.2468 75.2887
22747 2 19.1583 91.6677 72.777
22745 2 20.0555 93.2468 75.2887
17131 1 18.2034 93.279 74.2418
17126 1 20.9316 91.6768 74.2144
5183 1 12.7675 94.5589 -2.88205
11625 2 11.8375 96.1482 -1.41827
11633 2 13.6619 96.1686 -3.91609
11640 2 10.9356 94.5851 -3.93697
5170 1 15.4923 96.1417 -2.86065
11595 2 17.2937 96.1482 -1.41827
11631 2 14.5666 94.5664 -1.43974
11632 2 16.3918 94.5851 -3.93697
5124 1 20.9485 96.1417 -2.86065
5172 1 18.2237 94.5589 -2.88205
11594 2 20.0229 94.5664 -1.43974
11598 2 19.1181 96.1686 -3.91609
5184 1 12.7608 97.7237 -2.83834
11624 2 11.8353 99.309 -1.37279
11629 2 13.6581 99.3323 -3.87182
11638 2 10.9318 97.751 -3.89433
5169 1 15.4854 99.3047 -2.81528
11589 2 17.2915 99.309 -1.37279
11623 2 14.5645 97.7291 -1.39591
11634 2 16.3881 97.751 -3.89433
5123 1 20.9417 99.3047 -2.81528
5168 1 18.217 97.7237 -2.83834
11596 2 20.0207 97.7291 -1.39591
11597 2 19.1143 99.3323 -3.87182
5180 1 12.7538 100.885 -2.79162
11614 2 11.8331 102.466 -1.32491
11628 2 13.6542 102.492 -3.82517
11639 2 10.928 100.912 -3.84872
5162 1 15.4784 102.464 -2.76751
11588 2 17.2894 102.466 -1.32491
11626 2 14.5623 100.888 -1.34907
11627 2 16.3843 100.912 -3.84872
5122 1 20.9346 102.464 -2.76751
5171 1 18.21 100.885 -2.79162
11587 2 20.0186 100.888 -1.34907
11592 2 19.1105 102.492 -3.82517
5181 1 12.7467 104.042 -2.7431
11613 2 11.831 105.619 -1.27587
11618 2 13.6504 105.646 -3.77732
11636 2 10.9242 104.07 -3.80133
5161 1 15.4713 105.619 -2.71856
11575 2 17.2872 105.619 -1.27587
11612 2 14.5602 104.043 -1.30046
11630 2 16.3804 104.07 -3.80133
5115 1 20.9276 105.619 -2.71856
5160 1 18.2029 104.042 -2.7431
11590 2 20.0164 104.043 -1.30046
11591 2 19.1066 105.646 -3.77732
5176 1 12.7397 107.196 -2.694
11606 2 11.8288 108.769 -1.22678
11617 2 13.6466 108.797 -3.72935
11637 2 10.9204 107.222 -3.75329
5148 1 15.4645 108.771 -2.66957
11574 2 17.285 108.769 -1.22678
11615 2 14.558 107.195 -1.25126
11616 2 16.3766 107.222 -3.75329
5114 1 20.9207 108.771 -2.66957
5163 1 18.196 107.196 -2.694
11573 2 20.0142 107.195 -1.25126
11578 2 19.1029 108.797 -3.72935
5177 1 12.7331 110.346 -2.64538
11605 2 11.8266 111.916 -1.17867
11607 2 13.643 111.944 -3.68226
11635 2 10.9167 110.371 -3.70564
5147 1 15.458 111.92 -2.62156
11557 2 17.2828 111.916 -1.17867
11604 2 14.5558 110.343 -1.20255
11619 2 16.3729 110.371 -3.70564
5099 1 20.9142 111.92 -2.62156
5146 1 18.1893 110.346 -2.64538
11576 2 20.0121 110.343 -1.20255
11577 2 19.0992 111.944 -3.68226
5154 1 11.8406 96.1063 2.39322
5166 1 13.6591 96.1282 -0.198414
5182 1 10.9323 94.5471 -0.220031
11621 2 12.7498 94.5414 1.10876
5118 1 17.2968 96.1063 2.39322
5164 1 14.5701 94.5266 2.37108
5165 1 16.3886 94.5471 -0.220031
11585 2 15.4767 96.1218 1.13064
5117 1 20.0263 94.5266 2.37108
5121 1 19.1153 96.1282 -0.198414
11532 2 20.9329 96.1218 1.13064
11593 2 18.206 94.5414 1.10876
5153 1 11.8378 99.2636 2.4401
5158 1 13.6562 99.2881 -0.15258
5178 1 10.9295 97.7086 -0.175878
11622 2 12.7473 97.7013 1.15342
5110 1 17.2941 99.2636 2.4401
5152 1 14.5673 97.6853 2.41628
5167 1 16.3858 97.7086 -0.175878
11584 2 15.4742 99.2801 1.17697
5119 1 20.0236 97.6853 2.41628
5120 1 19.1125 99.2881 -0.15258
11531 2 20.9305 99.2801 1.17697
11583 2 18.2036 97.7013 1.15342
5140 1 11.835 102.418 2.48937
5157 1 13.6533 102.445 -0.104329
5179 1 10.9267 100.867 -0.128678
11610 2 12.7448 100.858 1.2011
5109 1 17.2912 102.418 2.48937
5155 1 14.5645 100.841 2.46451
5156 1 16.3829 100.867 -0.128678
11571 2 15.4717 102.435 1.22567
5108 1 20.0208 100.841 2.46451
5113 1 19.1096 102.445 -0.104329
11530 2 20.9279 102.435 1.22567
11586 2 18.2011 100.858 1.2011
5139 1 11.832 105.57 2.53975
5144 1 13.6504 105.598 -0.0548944
5174 1 10.9237 104.022 -0.0796847
11611 2 12.7423 104.012 1.25052
5095 1 17.2883 105.57 2.53975
5138 1 14.5616 103.994 2.51449
5159 1 16.38 104.022 -0.0796847
11570 2 15.4691 105.588 1.27551
5111 1 20.0179 103.994 2.51449
5112 1 19.1066 105.598 -0.0548944
11523 2 20.9253 105.588 1.27551
11569 2 18.1985 104.012 1.25052
5143 1 13.6474 108.748 -0.00543356
5175 1 10.9208 107.174 -0.0300994
11602 2 12.7397 107.163 1.30048
5141 1 14.5587 107.145 2.56498
5142 1 16.377 107.174 -0.0300994
11556 2 15.4665 108.737 1.32531
5093 1 20.0149 107.145 2.56498
5098 1 19.1037 108.748 -0.00543356
11522 2 20.9227 108.737 1.32531
11572 2 18.1959 107.163 1.30048
5133 1 13.6445 111.896 0.0430219
5173 1 10.9178 110.323 0.0189785
11603 2 12.7371 110.311 1.34987
5145 1 16.3741 110.323 0.0189785
11555 2 15.4639 111.885 1.37405
5097 1 19.1007 111.896 0.0430219
11507 2 20.9201 111.885 1.37405
11554 2 18.1933 110.311 1.34987
5150 1 12.7527 94.5082 4.94722
11581 2 13.6596 96.0986 3.69327
11620 2 10.9329 94.5198 3.67095
5106 1 15.4794 96.0865 4.96991
11580 2 16.3891 94.5198 3.67095
5052 1 20.9356 96.0865 4.96991
5116 1 18.209 94.5082 4.94722
11529 2 19.1159 96.0986 3.69327
5151 1 12.7498 97.6641 4.99352
11567 2 13.6568 99.2546 3.74048
11608 2 10.9301 97.677 3.7165
5105 1 15.4759 99.2416 5.01932
11582 2 16.3863 97.677 3.7165
5051 1 20.9322 99.2416 5.01932
5104 1 18.206 97.6641 4.99352
11528 2 19.113 99.2546 3.74048
5136 1 12.7461 100.818 5.04427
11566 2 13.6538 102.408 3.79002
11609 2 10.9272 100.831 3.76504
5091 1 15.4726 102.394 5.06958
11565 2 16.3834 100.831 3.76504
5050 1 20.9288 102.394 5.06958
5107 1 18.2023 100.818 5.04427
11521 2 19.1101 102.408 3.79002
5137 1 12.7429 103.97 5.09514
11552 2 13.6508 105.559 3.84061
11600 2 10.9242 103.984 3.81526
5090 1 15.4694 105.545 5.12076
11568 2 16.3805 103.984 3.81526
5043 1 20.9256 105.545 5.12076
5089 1 18.1991 103.97 5.09514
11520 2 19.1071 105.559 3.84061
5132 1 11.8291 108.72 2.59006
5128 1 12.7396 107.119 5.14631
11551 2 13.6478 108.708 3.89106
11601 2 10.9212 107.134 3.86592
5094 1 17.2853 108.72 2.59006
5076 1 15.4661 108.694 5.17165
11550 2 16.3774 107.134 3.86592
5042 1 20.9223 108.694 5.17165
5092 1 18.1958 107.119 5.14631
11506 2 19.104 108.708 3.89106
5131 1 11.8261 111.868 2.63925
5129 1 12.7363 110.268 5.19666
11541 2 13.6448 111.856 3.94033
11599 2 10.9181 110.282 3.9159
5077 1 17.2824 111.868 2.63925
5130 1 14.5557 110.294 2.61485
5075 1 15.4628 111.841 5.22123
11553 2 16.3744 110.282 3.9159
5096 1 20.0119 110.294 2.61485
5028 1 20.9191 111.841 5.22123
5074 1 18.1926 110.268 5.19666
11505 2 19.101 111.856 3.94033
5102 1 13.6603 96.0687 7.54504
11563 2 11.8413 96.0786 6.26277
11560 2 12.7488 97.6354 8.8593
5134 1 10.9305 97.6448 7.56946
11514 2 15.4787 96.0599 8.8348
11526 2 17.2975 96.0786 6.26277
5103 1 16.3868 97.6448 7.56946
5049 1 19.1165 96.0687 7.54504
11472 2 20.9349 96.0599 8.8348
11512 2 18.205 97.6354 8.8593
5087 1 13.6568 99.2206 7.59467
11562 2 11.8381 99.2318 6.31119
11544 2 12.7452 100.785 8.90995
5135 1 10.927 100.796 7.62035
11513 2 15.4751 99.2105 8.88438
11518 2 17.2943 99.2318 6.31119
11561 2 14.5678 97.6554 6.28663
5085 1 16.3833 100.796 7.62035
5048 1 19.1131 99.2206 7.59467
11471 2 20.9313 99.2105 8.88438
11527 2 20.024 97.6554 6.28663
11515 2 18.2014 100.785 8.90995
5086 1 13.6533 102.371 7.64619
11548 2 11.8347 102.383 6.36174
11545 2 12.7414 103.934 8.96168
5126 1 10.9234 103.946 7.67212
11499 2 15.4714 102.36 8.93578
11517 2 17.2909 102.383 6.36174
11564 2 14.5645 100.808 6.33634
5088 1 16.3796 103.946 7.67212
5041 1 19.1096 102.371 7.64619
11470 2 20.9276 102.36 8.93578
11516 2 20.0208 100.808 6.33634
11497 2 18.1977 103.934 8.96168
5072 1 13.6497 105.52 7.69804
11547 2 11.8313 105.533 6.41293
11536 2 12.7377 107.082 9.0132
5127 1 10.9198 107.095 7.7238
11498 2 15.4677 105.508 8.98753
11503 2 17.2875 105.533 6.41293
11546 2 14.5611 103.958 6.38732
5070 1 16.376 107.095 7.7238
5040 1 19.1059 105.52 7.69804
11464 2 20.9239 105.508 8.98753
11519 2 20.0174 103.958 6.38732
11500 2 18.1939 107.082 9.0132
5071 1 13.6461 108.669 7.74929
11540 2 11.8279 108.682 6.46371
11537 2 12.7341 110.23 9.0635
5125 1 10.9162 110.242 7.77439
11487 2 15.464 108.656 9.03855
11502 2 17.2842 108.682 6.46371
11549 2 14.5577 107.108 6.43844
5073 1 16.3725 110.242 7.77439
5027 1 19.1024 108.669 7.74929
11463 2 20.9202 108.656 9.03855
11501 2 20.014 107.108 6.43844
11485 2 18.1903 110.23 9.0635
5061 1 13.6426 111.816 7.799
11539 2 11.8246 111.829 6.5131
5533 1 10.9128 113.39 7.82302
11967 2 12.7306 113.378 9.11177
11486 2 15.4604 111.804 9.08793
11488 2 17.2808 111.829 6.5131
11538 2 14.5544 110.256 6.48864
11987 2 14.5511 113.403 6.53702
5485 1 16.3691 113.39 7.82302
11932 2 18.1869 113.378 9.11177
5026 1 19.0989 111.816 7.799
11456 2 20.9167 111.804 9.08793
11504 2 20.0106 110.256 6.48864
11933 2 20.0073 113.403 6.53702
5083 1 11.8412 96.0509 10.1193
11510 2 13.6594 96.0414 11.4082
11542 2 10.9294 97.6155 11.4334
5046 1 17.2974 96.0509 10.1193
11511 2 16.3856 97.6155 11.4334
5081 1 14.5675 97.6256 10.1444
11469 2 19.1157 96.0414 11.4082
5047 1 20.0237 97.6256 10.1444
5082 1 11.8374 99.2001 10.17
11495 2 13.6555 99.1894 11.4591
11543 2 10.9253 100.763 11.4851
5038 1 17.2937 99.2001 10.17
11493 2 16.3815 100.763 11.4851
5084 1 14.5636 100.774 10.1961
11468 2 19.1117 99.1894 11.4591
5036 1 20.0198 100.774 10.1961
5068 1 11.8335 102.348 10.2223
11494 2 13.6514 102.337 11.5113
11534 2 10.9212 103.91 11.5375
5037 1 17.2898 102.348 10.2223
11496 2 16.3775 103.91 11.5375
5066 1 14.5597 103.922 10.2486
11462 2 19.1076 102.337 11.5113
5039 1 20.0159 103.922 10.2486
5067 1 11.8296 105.496 10.2747
11483 2 13.6473 105.484 11.5635
11535 2 10.9172 107.058 11.5893
5024 1 17.2858 105.496 10.2747
11481 2 16.3735 107.058 11.5893
5069 1 14.5558 107.07 10.3006
11461 2 19.1036 105.484 11.5635
5022 1 20.012 107.07 10.3006
5060 1 11.8257 108.644 10.3261
11482 2 13.6434 108.631 11.6146
11533 2 10.9134 110.205 11.6395
5023 1 17.282 108.644 10.3261
11484 2 16.3696 110.205 11.6395
5058 1 14.552 110.218 10.3512
11455 2 19.0996 108.631 11.6146
5025 1 20.0082 110.218 10.3512
5059 1 11.8221 111.792 10.3758
11476 2 13.6397 111.779 11.6638
5484 1 14.5484 113.365 10.3997
5013 1 17.2783 111.792 10.3758
11917 2 16.3661 113.353 11.6875
11454 2 19.0959 111.779 11.6638
5429 1 20.0047 113.365 10.3997
8702 2 21.8223 113.353 11.6875
5030 1 13.6581 96.0127 15.2693
11491 2 11.8398 96.022 13.9827
5062 1 10.9276 97.5847 15.296
5080 1 12.7478 97.6059 12.7197
5034 1 15.478 96.0325 12.6939
11466 2 17.2961 96.022 13.9827
5031 1 16.3838 97.5847 15.296
11489 2 14.5657 97.5947 14.0087
5001 1 19.1143 96.0127 15.2693
5004 1 20.9342 96.0325 12.6939
5032 1 18.204 97.6059 12.7197
11467 2 20.0219 97.5947 14.0087
5016 1 13.6533 99.1568 15.3229
11490 2 11.8353 99.1674 14.035
5063 1 10.9228 100.729 15.3498
5064 1 12.7435 100.752 12.7724
5033 1 15.4738 99.1792 12.7459
11459 2 17.2916 99.1674 14.035
5014 1 16.379 100.729 15.3498
11492 2 14.5612 100.74 14.0615
5000 1 19.1095 99.1568 15.3229
5003 1 20.93 99.1792 12.7459
5035 1 18.1997 100.752 12.7724
11457 2 20.0174 100.74 14.0615
5015 1 13.6485 102.301 15.3767
11479 2 11.8308 102.313 14.0881
5054 1 10.9181 103.874 15.4034
5065 1 12.7392 103.899 12.8255
5020 1 15.4694 102.325 12.799
11458 2 17.287 102.313 14.0881
5017 1 16.3743 103.874 15.4034
11477 2 14.5567 103.886 14.1145
4997 1 19.1048 102.301 15.3767
5002 1 20.9257 102.325 12.799
11460 2 20.013 103.886 14.1145
5018 1 18.1954 103.899 12.8255
5008 1 13.644 105.447 15.4297
11478 2 11.8264 105.459 14.1406
5055 1 10.9137 107.02 15.4556
5056 1 12.735 107.045 12.8778
5019 1 15.4652 105.472 12.8518
11452 2 17.2827 105.459 14.1406
5006 1 16.37 107.02 15.4556
11480 2 14.5525 107.032 14.1663
4996 1 19.1002 105.447 15.4297
4999 1 20.9214 105.472 12.8518
11450 2 20.0087 107.032 14.1663
5021 1 18.1912 107.045 12.8778
5057 1 12.7311 110.193 12.9282
5007 1 13.6398 108.593 15.4809
11475 2 11.8223 108.606 14.1916
11473 2 14.5486 110.18 14.2163
5010 1 18.1873 110.193 12.9282
5012 1 15.4611 108.619 12.9032
11451 2 17.2786 108.606 14.1916
5009 1 16.366 110.167 15.5056
1981 1 21.8222 110.167 15.5056
4998 1 20.9174 108.619 12.9032
4994 1 19.096 108.593 15.4809
11453 2 20.0048 110.18 14.2163
11474 2 11.8186 111.754 14.2404
11916 2 14.545 113.329 14.2638
5005 1 13.636 111.741 15.5296
5463 1 12.7275 113.341 12.9762
5011 1 15.4574 111.767 12.9525
5413 1 16.3624 113.316 15.5529
11449 2 17.2749 111.754 14.2404
5428 1 18.1837 113.341 12.9762
4995 1 20.9136 111.767 12.9525
4993 1 19.0923 111.741 15.5296
2390 1 21.8187 113.316 15.5529
11873 2 20.0012 113.329 14.2638
11814 2 13.655 95.9759 19.1354
5374 1 11.8375 95.9903 17.846
11832 2 12.7452 97.572 16.5852
11826 2 10.924 97.5461 19.163
11818 2 15.4759 96.0005 16.5584
5351 1 17.2938 95.9903 17.846
11815 2 16.3802 97.5461 19.163
5372 1 14.5629 97.5609 17.8735
11769 2 19.1112 95.9759 19.1354
11772 2 20.9321 96.0005 16.5584
11816 2 18.2014 97.572 16.5852
5352 1 20.0192 97.5609 17.8735
5373 1 11.8321 99.1318 17.901
11806 2 13.6492 99.1166 19.1906
11828 2 12.7402 100.715 16.6392
11827 2 10.9184 100.688 19.218
11817 2 15.4708 99.1435 16.6122
5347 1 17.2883 99.1318 17.901
5375 1 14.5576 100.703 17.9284
11804 2 16.3746 100.688 19.218
11768 2 19.1055 99.1166 19.1906
11771 2 20.927 99.1435 16.6122
11819 2 18.1964 100.715 16.6392
5345 1 20.0138 100.703 17.9284
5367 1 11.8269 102.275 17.9555
11805 2 13.6439 102.259 19.2449
11829 2 12.7354 103.86 16.6925
11810 2 15.4658 102.287 16.666
5346 1 17.2832 102.275 17.9555
5365 1 14.5526 103.847 17.9822
11761 2 19.1001 102.259 19.2449
11770 2 20.9221 102.287 16.666
5348 1 20.0088 103.847 17.9822
11808 2 18.1916 103.86 16.6925
5366 1 11.8222 105.419 18.0084
11824 2 12.731 107.006 16.7442
5368 1 14.5481 106.992 18.0341
11809 2 15.4612 105.433 16.7186
5335 1 17.2784 105.419 18.0084
11811 2 18.1872 107.006 16.7442
11763 2 20.9175 105.433 16.7186
5333 1 20.0043 106.992 18.0341
5360 1 11.818 108.566 18.059
11825 2 12.727 110.154 16.7936
5358 1 14.5442 110.14 18.0833
5334 1 17.2742 108.566 18.059
11796 2 15.4571 108.58 16.7692
11794 2 18.1833 110.154 16.7936
11762 2 20.9133 108.58 16.7692
5336 1 20.0004 110.14 18.0833
5359 1 11.8143 111.715 18.1069
12239 2 12.7236 113.303 16.8403
5760 1 14.5409 113.29 18.1297
5317 1 17.2706 111.715 18.1069
11795 2 15.4534 111.728 16.8173
12228 2 18.1799 113.303 16.8403
11747 2 20.9096 111.728 16.8173
5734 1 19.9971 113.29 18.1297
11802 2 11.8331 95.9466 21.714
5371 1 12.7412 97.5332 20.4524
5343 1 15.4724 95.9639 20.4241
11766 2 17.2894 95.9466 21.714
11800 2 14.558 97.5156 21.7423
5292 1 20.9286 95.9639 20.4241
5341 1 18.1974 97.5332 20.4524
11767 2 20.0142 97.5156 21.7423
11801 2 11.8268 99.0853 21.7704
5363 1 12.7353 100.674 20.5082
5342 1 15.4663 99.1031 20.4805
11758 2 17.283 99.0853 21.7704
11803 2 14.552 100.656 21.7979
5291 1 20.9225 99.1031 20.4805
5344 1 18.1916 100.674 20.5082
11756 2 20.0082 100.656 21.7979
11822 2 10.9133 103.831 19.2714
11788 2 11.8212 102.227 21.8248
5364 1 12.7301 103.817 20.5619
11786 2 14.5468 103.799 21.851
11807 2 16.3696 103.831 19.2714
5331 1 15.4607 102.245 20.5354
11757 2 17.2774 102.227 21.8248
5329 1 18.1864 103.817 20.5619
5290 1 20.917 102.245 20.5354
11759 2 20.003 103.799 21.851
11792 2 13.6391 105.404 19.2974
11787 2 11.8164 105.372 21.8766
5356 1 12.7257 106.963 20.613
11789 2 14.5426 106.946 21.9014
11790 2 16.3651 106.977 19.3227
5330 1 15.4559 105.389 20.5878
11743 2 17.2727 105.372 21.8766
5332 1 18.1819 106.963 20.613
11760 2 19.0954 105.404 19.2974
5283 1 20.9122 105.389 20.5878
11741 2 19.9988 106.946 21.9014
8559 2 21.8214 106.977 19.3227
11791 2 13.635 108.551 19.3473
11780 2 11.8126 108.521 21.9255
5357 1 12.722 110.112 20.6612
11778 2 14.5391 110.096 21.9489
11793 2 16.3614 110.126 19.3713
5316 1 15.4519 108.537 20.6375
11742 2 17.2689 108.521 21.9255
5314 1 18.1783 110.112 20.6612
11746 2 19.0913 108.551 19.3473
5282 1 20.9081 108.537 20.6375
11744 2 19.9954 110.096 21.9489
8557 2 21.8176 110.126 19.3713
11781 2 13.6316 111.701 19.3945
11779 2 11.8096 111.672 21.9715
5754 1 12.7191 113.263 20.7065
12220 2 14.5365 113.249 21.9934
5315 1 15.4486 111.687 20.6842
11725 2 17.2658 111.672 21.9715
12221 2 16.3582 113.277 19.417
5733 1 18.1753 113.263 20.7065
11745 2 19.0878 111.701 19.3945
5267 1 20.9048 111.687 20.6842
12173 2 19.9927 113.249 21.9934
8974 2 21.8145 113.277 19.417
5323 1 11.826 95.8928 25.5859
5339 1 13.6499 95.932 23.004
5361 1 10.9184 97.5002 23.033
11799 2 12.7346 97.4793 24.3231
5286 1 17.2823 95.8928 25.5859
11754 2 15.4663 95.9111 24.2942
5321 1 14.5504 97.4604 25.6151
5340 1 16.3746 97.5002 23.033
5289 1 19.1062 95.932 23.004
11700 2 20.9225 95.9111 24.2942
5287 1 20.0067 97.4604 25.6151
11752 2 18.1908 97.4793 24.3231
5322 1 11.819 99.0294 25.6434
5327 1 13.6432 99.0693 23.0614
11784 2 12.7284 100.619 24.3786
5324 1 14.5442 100.6 25.6707
5278 1 17.2752 99.0294 25.6434
11753 2 15.4594 99.0486 24.3513
5325 1 16.3683 100.639 23.0891
11755 2 18.1846 100.619 24.3786
5288 1 19.0995 99.0693 23.0614
11699 2 20.9157 99.0486 24.3513
5276 1 20.0004 100.6 25.6707
2290 1 21.8246 100.639 23.0891
5308 1 11.8135 102.172 25.697
5326 1 13.6375 102.211 23.116
11785 2 12.7234 103.763 24.431
5306 1 14.5393 103.745 25.7224
5277 1 17.2697 102.172 25.697
11739 2 15.4538 102.191 24.4052
5328 1 16.3632 103.783 23.1421
11737 2 18.1796 103.763 24.431
5281 1 19.0937 102.211 23.116
11698 2 20.9101 102.191 24.4052
5279 1 19.9956 103.745 25.7224
2282 1 21.8194 103.783 23.1421
5307 1 11.8093 105.319 25.747
5312 1 13.6329 105.356 23.1675
11776 2 12.7196 106.912 24.4801
5309 1 14.5358 106.894 25.7708
5263 1 17.2656 105.319 25.747
11738 2 15.4495 105.337 24.4559
5310 1 16.359 106.93 23.1921
11740 2 18.1758 106.912 24.4801
2283 1 21.8153 106.93 23.1921
5280 1 19.0891 105.356 23.1675
11691 2 20.9057 105.337 24.4559
5261 1 19.9921 106.894 25.7708
5300 1 11.8064 108.471 25.7937
5311 1 13.6292 108.505 23.2159
11777 2 12.7168 110.064 24.5261
5298 1 14.5334 110.048 25.816
5262 1 17.2626 108.471 25.7937
11724 2 15.4462 108.488 24.5035
5313 1 16.3558 110.081 23.2389
11722 2 18.173 110.064 24.5261
2281 1 21.8121 110.081 23.2389
5266 1 19.0855 108.505 23.2159
11690 2 20.9024 108.488 24.5035
5264 1 19.9896 110.048 25.816
5299 1 11.8043 111.626 25.8375
5301 1 13.6264 111.657 23.2612
12206 2 12.7147 113.22 24.5692
5721 1 14.5317 113.205 25.8583
5246 1 17.2606 111.626 25.8375
11723 2 15.4438 111.642 24.548
5722 1 16.3534 113.235 23.2828
12172 2 18.1709 113.22 24.5692
5669 1 19.9879 113.205 25.8583
2681 1 21.8097 113.235 23.2828
5265 1 19.0827 111.657 23.2612
11676 2 20.9 111.642 24.548
11750 2 13.6417 95.8676 26.876
5320 1 12.7249 97.4122 28.1983
5274 1 15.4567 95.8443 28.1695
11751 2 16.3661 97.4357 26.905
5272 1 18.1811 97.4122 28.1983
5226 1 20.913 95.8443 28.1695
11697 2 19.0979 95.8676 26.876
8518 2 21.8224 97.4357 26.905
11735 2 13.6348 99.0053 26.9329
5304 1 12.7191 100.554 28.2522
5273 1 15.4499 98.9821 28.2259
11733 2 16.3601 100.577 26.9597
5275 1 18.1754 100.554 28.2522
5225 1 20.9061 98.9821 28.2259
11696 2 19.091 99.0053 26.9329
8519 2 21.8163 100.577 26.9597
11734 2 13.6296 102.149 26.9856
5305 1 12.7152 103.702 28.302
5259 1 15.4451 102.127 28.2776
11736 2 16.3558 103.723 27.0106
5257 1 18.1714 103.702 28.302
8510 2 21.812 103.723 27.0106
5224 1 20.9013 102.127 28.2776
11689 2 19.0859 102.149 26.9856
11720 2 13.626 105.298 27.0347
5296 1 12.7126 106.855 28.3484
5258 1 15.4419 105.278 28.3256
11718 2 16.3527 106.875 27.058
5260 1 18.1689 106.855 28.3484
8511 2 21.809 106.875 27.058
5217 1 20.8981 105.278 28.3256
11688 2 19.0822 105.298 27.0347
11719 2 13.6235 108.452 27.0806
5297 1 12.7111 110.013 28.3918
5245 1 15.4399 108.433 28.3704
11721 2 16.3507 110.03 27.1024
5243 1 18.1673 110.013 28.3918
8509 2 21.807 110.03 27.1024
5216 1 20.8961 108.433 28.3704
11675 2 19.0797 108.452 27.0806
11709 2 13.6219 111.609 27.1235
5703 1 12.7103 113.173 28.4325
5244 1 15.4387 111.592 28.4125
12157 2 16.3494 113.189 27.144
5668 1 18.1665 113.173 28.4325
5205 1 20.895 111.592 28.4125
11674 2 19.0781 111.609 27.1235
8941 2 21.8057 113.189 27.144
5270 1 13.6295 95.7849 30.7538
11731 2 11.8154 95.8144 29.4588
11728 2 12.7134 97.3226 32.0682
11729 2 14.5401 97.3836 29.4872
11682 2 15.4442 95.7506 32.0411
11694 2 17.2717 95.8144 29.4588
5271 1 16.3544 97.3549 30.7814
11680 2 18.1697 97.3226 32.0682
2230 1 21.8106 97.3549 30.7814
5223 1 19.0857 95.7849 30.7538
11652 2 20.9004 95.7506 32.0411
11695 2 19.9964 97.3836 29.4872
5255 1 13.6237 98.9272 30.8076
11730 2 11.8092 98.9548 29.5143
11712 2 12.71 100.473 32.1187
11732 2 14.535 100.528 29.5402
11681 2 15.4395 98.8968 32.094
11686 2 17.2654 98.9548 29.5143
5253 1 16.3499 100.501 30.8326
11683 2 18.1662 100.473 32.1187
2231 1 21.8061 100.501 30.8326
5222 1 19.08 98.9272 30.8076
11651 2 20.8958 98.8968 32.094
11684 2 19.9913 100.528 29.5402
5254 1 13.6203 102.077 30.8567
11716 2 11.8051 102.102 29.565
11713 2 12.7082 103.63 32.1652
11714 2 14.5318 103.679 29.589
11668 2 15.437 102.051 32.1424
11685 2 17.2613 102.102 29.565
5256 1 16.3473 103.655 30.8799
11666 2 18.1644 103.63 32.1652
2222 1 21.8036 103.655 30.8799
5215 1 19.0765 102.077 30.8567
11650 2 20.8933 102.051 32.1424
11687 2 19.988 103.679 29.589
5241 1 13.6184 105.233 30.9024
11715 2 11.8025 105.256 29.6121
11704 2 12.7076 106.791 32.2088
11717 2 14.5298 106.834 29.6345
11667 2 15.4359 105.21 32.1874
11672 2 17.2588 105.256 29.6121
5239 1 16.3461 106.813 30.9242
11669 2 18.1638 106.791 32.2088
2223 1 21.8023 106.813 30.9242
5214 1 19.0747 105.233 30.9024
11647 2 20.8921 105.21 32.1874
11670 2 19.9861 106.834 29.6345
5240 1 13.6176 108.394 30.9453
11708 2 11.8011 108.414 29.6562
11705 2 12.7076 109.956 32.25
11706 2 14.5288 109.994 29.6772
11660 2 15.4356 108.373 32.2297
11671 2 17.2573 108.414 29.6562
5242 1 16.3456 109.975 30.9658
11658 2 18.1639 109.956 32.25
2221 1 21.8019 109.975 30.9658
5204 1 19.0739 108.394 30.9453
11646 2 20.8919 108.373 32.2297
11673 2 19.985 109.994 29.6772
5232 1 13.6175 111.557 30.9858
11707 2 11.8004 111.575 29.6976
12135 2 12.7081 113.123 32.2888
12156 2 14.5284 113.157 29.7173
11659 2 15.4359 111.539 32.2697
11661 2 17.2567 111.575 29.6976
5653 1 16.3457 113.14 31.0051
12100 2 18.1643 113.123 32.2888
5203 1 19.0737 111.557 30.9858
11643 2 20.8922 111.539 32.2697
2630 1 21.8019 113.14 31.0051
12101 2 19.9846 113.157 29.7173
5251 1 11.8012 95.7142 33.3368
11678 2 13.6166 95.6764 34.6203
5249 1 14.5272 97.2885 33.3623
5220 1 17.2574 95.7142 33.3368
11679 2 16.3433 97.2533 34.6459
5208 1 15.4294 95.6328 35.9152
8446 2 21.7995 97.2533 34.6459
11649 2 19.0728 95.6764 34.6203
5221 1 19.9834 97.2885 33.3623
5190 1 20.8857 95.6328 35.9152
5252 1 14.5248 100.443 33.4103
5250 1 11.7976 98.8649 33.3868
11664 2 13.6143 98.8322 34.6703
11662 2 16.342 100.413 34.6937
5212 1 17.2538 98.8649 33.3868
8447 2 21.7982 100.413 34.6937
5210 1 19.981 100.443 33.4103
11648 2 19.0706 98.8322 34.6703
5235 1 14.5239 103.604 33.455
5237 1 11.7961 102.023 33.433
11663 2 13.6137 101.995 34.7163
11665 2 16.342 103.577 34.7382
5211 1 17.2523 102.023 33.433
8438 2 21.7982 103.577 34.7382
5213 1 19.9802 103.604 33.455
11645 2 19.07 101.995 34.7163
11656 2 13.6141 105.161 34.7595
5236 1 11.7958 105.186 33.4765
5238 1 14.5241 106.769 33.4973
5201 1 17.252 105.186 33.4765
11654 2 16.3426 106.746 34.7802
8439 2 21.7989 106.746 34.7802
11644 2 19.0704 105.161 34.7595
5199 1 19.9803 106.769 33.4973
5229 1 14.5248 109.936 33.5375
5231 1 11.7963 108.352 33.5177
11655 2 13.615 108.331 34.8004
11657 2 16.3437 109.916 34.8202
5200 1 17.2525 108.352 33.5177
8437 2 21.8 109.916 34.8202
5202 1 19.981 109.936 33.5375
11642 2 19.0713 108.331 34.8004
11653 2 13.6162 111.502 34.8394
5230 1 11.7971 111.521 33.5568
5652 1 14.5258 113.106 33.5756
5194 1 17.2534 111.521 33.5568
12085 2 16.345 113.089 34.8581
8870 2 21.8013 113.089 34.8581
5603 1 19.982 113.106 33.5756
11641 2 19.0725 111.502 34.8394
11854 2 11.7908 95.5937 37.1931
17091 1 13.6038 95.5432 38.4851
11852 2 14.5189 97.1775 37.2176
5248 1 12.7008 97.2139 35.9386
11843 2 17.247 95.5937 37.1931
17476 1 16.3332 97.1337 38.5074
5206 1 18.1571 97.2139 35.9386
17061 1 19.06 95.5432 38.4851
11844 2 19.9751 97.1775 37.2176
14664 1 21.7895 97.1337 38.5074
11853 2 11.7911 98.7627 37.241
17477 1 13.6064 98.7238 38.5293
5233 1 12.701 100.38 35.9835
11855 2 14.5197 100.349 37.2636
11840 2 17.2473 98.7627 37.241
5207 1 15.4289 98.7964 35.9614
17478 1 16.3358 100.314 38.5508
5209 1 18.1572 100.38 35.9835
17442 1 19.0626 98.7238 38.5293
5189 1 20.8851 98.7964 35.9614
11838 2 19.976 100.349 37.2636
14662 1 21.792 100.314 38.5508
11850 2 11.7923 101.935 37.2855
17473 1 13.6089 101.904 38.572
5234 1 12.702 103.55 36.0263
11848 2 14.5212 103.523 37.3069
11839 2 17.2485 101.935 37.2855
5197 1 15.4295 101.965 36.0051
17471 1 16.3383 103.494 38.5928
5195 1 18.1582 103.55 36.0263
17441 1 19.0652 101.904 38.572
5188 1 20.8858 101.965 36.0051
11841 2 19.9774 103.523 37.3069
14663 1 21.7946 103.494 38.5928
11849 2 11.794 105.11 37.3277
17472 1 13.6115 105.084 38.6132
5227 1 12.7035 106.722 36.0672
11851 2 14.523 106.698 37.3481
11836 2 17.2502 105.11 37.3277
5196 1 15.4308 105.136 36.0469
17474 1 16.3409 106.674 38.6332
5198 1 18.1597 106.722 36.0672
17436 1 19.0677 105.084 38.6132
5187 1 20.8871 105.136 36.0469
11834 2 19.9793 106.698 37.3481
14660 1 21.7971 106.674 38.6332
11847 2 11.7959 108.287 37.368
17462 1 13.614 108.264 38.6528
5228 1 12.7052 109.896 36.1064
11845 2 14.525 109.875 37.3874
11835 2 17.2521 108.287 37.368
17460 1 16.3433 109.855 38.6721
5193 1 15.4324 108.309 36.087
5191 1 18.1614 109.896 36.1064
17435 1 19.0702 108.264 38.6528
5186 1 20.8887 108.309 36.087
11837 2 19.9812 109.875 37.3874
14661 1 21.7996 109.855 38.6721
12264 2 14.5269 113.053 37.4249
5631 1 12.707 113.071 36.1437
11846 2 11.7978 111.464 37.4064
17461 1 13.6164 111.445 38.6909
5602 1 18.1632 113.071 36.1437
11833 2 17.2541 111.464 37.4064
17463 1 16.3457 113.035 38.7093
5192 1 15.4342 111.483 36.1253
12250 2 19.9831 113.053 37.4249
17422 1 19.0727 111.445 38.6909
5185 1 20.8904 111.483 36.1253
14659 1 21.8019 113.035 38.7093
23099 2 12.6979 97.0986 39.7812
17089 1 11.783 95.452 41.0437
22689 2 13.6075 95.4201 42.3102
17475 1 14.5135 97.052 41.0668
23081 2 16.337 97.0203 42.3362
17041 1 17.2392 95.452 41.0437
22703 2 15.425 95.5064 39.7566
23088 2 18.1541 97.0986 39.7812
17438 1 19.9698 97.052 41.0668
22653 2 19.0637 95.4201 42.3102
22655 2 20.8813 95.5064 39.7566
20278 2 21.7932 97.0203 42.3362
23100 2 12.7002 100.283 39.8273
23082 2 13.6103 98.6193 42.3609
17469 1 11.7875 98.65 41.0893
17467 1 14.5174 100.247 41.1114
23086 2 15.4271 98.6908 39.8047
23083 2 16.3398 100.217 42.3845
17439 1 17.2437 98.65 41.0893
23084 2 18.1564 100.283 39.8273
17440 1 19.9737 100.247 41.1114
23037 2 19.0665 98.6193 42.3609
23040 2 20.8833 98.6908 39.8047
20274 2 21.7961 100.217 42.3845
23096 2 12.7027 103.467 39.8707
17468 1 11.7911 101.842 41.1329
23074 2 13.6132 101.815 42.4073
17470 1 14.5208 103.437 41.1541
23085 2 15.4295 101.875 39.8493
17433 1 17.2473 101.842 41.1329
23072 2 16.3427 103.411 42.4294
23087 2 18.1589 103.467 39.8707
17431 1 19.9771 103.437 41.1541
23036 2 19.0694 101.815 42.4073
23039 2 20.8857 101.875 39.8493
20275 2 21.799 103.411 42.4294
23097 2 12.7052 106.651 39.912
17458 1 11.7943 105.032 41.1748
23073 2 13.616 105.007 42.4509
17456 1 14.524 106.626 41.1951
23078 2 15.4321 105.059 39.8916
17432 1 17.2506 105.032 41.1748
23075 2 16.3456 106.603 42.4719
23076 2 18.1615 106.651 39.912
17434 1 19.9802 106.626 41.1951
23029 2 19.0723 105.007 42.4509
23038 2 20.8883 105.059 39.8916
20270 2 21.8018 106.603 42.4719
23092 2 12.7077 109.834 39.9514
17457 1 11.7973 108.22 41.215
23060 2 13.6189 108.198 42.4923
17459 1 14.5269 109.813 41.2345
23077 2 15.4346 108.242 39.9319
17419 1 17.2536 108.22 41.215
23058 2 16.3483 109.793 42.5122
23079 2 18.164 109.834 39.9514
17417 1 19.9831 109.813 41.2345
23028 2 19.0751 108.198 42.4923
23031 2 20.8908 108.242 39.9319
20271 2 21.8046 109.793 42.5122
23093 2 12.7101 113.017 39.989
17450 1 11.8001 111.406 41.2535
23059 2 13.6215 111.387 42.5316
17448 1 14.5296 112.999 41.2721
17418 1 17.2564 111.406 41.2535
23061 2 16.3509 112.981 42.5504
23064 2 15.4371 111.426 39.9704
23062 2 18.1664 113.017 39.989
17420 1 19.9858 112.999 41.2721
23014 2 19.0778 111.387 42.5316
23030 2 20.8933 111.426 39.9704
20269 2 21.8072 112.981 42.5504
17465 1 12.6982 96.9735 43.6173
22687 2 11.7935 95.339 44.856
23080 2 14.5231 96.9459 44.8841
17039 1 15.4239 95.366 43.5917
22634 2 17.2497 95.339 44.856
17437 1 18.1544 96.9735 43.6173
23033 2 19.9793 96.9459 44.8841
16991 1 20.8801 95.366 43.5917
17466 1 12.7023 100.181 43.6653
23070 2 11.7964 98.5508 44.9107
23068 2 14.5259 100.154 44.936
17429 1 15.4285 98.5783 43.6417
23034 2 17.2526 98.5508 44.9107
17427 1 18.1585 100.181 43.6653
17376 1 20.8847 98.5783 43.6417
23035 2 19.9822 100.154 44.936
17454 1 12.7058 103.382 43.7103
23069 2 11.7992 101.756 44.9602
23071 2 14.5288 103.357 44.9835
17428 1 15.4322 101.782 43.6881
23026 2 17.2555 101.756 44.9602
17430 1 18.1621 103.382 43.7103
17375 1 20.8885 101.782 43.6881
23024 2 19.985 103.357 44.9835
17455 1 12.7091 106.578 43.753
23056 2 11.802 104.956 45.0061
23054 2 14.5316 106.555 45.028
17415 1 15.4356 104.98 43.7319
23025 2 17.2583 104.956 45.0061
17413 1 18.1653 106.578 43.753
17374 1 20.8918 104.98 43.7319
23027 2 19.9878 106.555 45.028
17446 1 12.7121 109.771 43.7936
23055 2 11.8048 108.154 45.0492
23057 2 14.5343 109.751 45.0699
17414 1 15.4387 108.175 43.7736
23011 2 17.261 108.154 45.0492
17416 1 18.1683 109.771 43.7936
17367 1 20.8949 108.175 43.7736
23009 2 19.9905 109.751 45.0699
17447 1 12.7148 112.963 43.8322
23048 2 11.8075 111.349 45.0899
23046 2 14.5368 112.946 45.1093
17400 1 15.4416 111.368 43.8132
23010 2 17.2637 111.349 45.0899
17398 1 18.1711 112.963 43.8322
23012 2 19.9931 112.946 45.1093
17366 1 20.8978 111.368 43.8132
23066 2 12.7115 96.8776 47.4272
17023 1 11.8033 95.2217 48.6696
17025 1 13.6125 95.2888 46.1324
17423 1 14.5329 96.8372 48.7008
17424 1 16.3426 96.9015 46.1609
16972 1 17.2595 95.2217 48.6696
22632 2 15.4381 95.2659 47.3968
23032 2 18.1677 96.8776 47.4272
17369 1 19.9891 96.8372 48.7008
16989 1 19.0688 95.2888 46.1324
22593 2 20.8944 95.2659 47.3968
14644 1 21.7989 96.9015 46.1609
17407 1 11.8061 98.4501 48.7301
17425 1 13.6163 98.5112 46.1879
23067 2 12.7141 100.094 47.4829
17405 1 14.5356 100.061 48.758
17370 1 17.2624 98.4501 48.7301
17426 1 16.3461 100.119 46.2136
23022 2 15.4409 98.4869 47.4558
23020 2 18.1703 100.094 47.4829
17371 1 19.9918 100.061 48.758
17373 1 19.0725 98.5112 46.1879
22974 2 20.8972 98.4869 47.4558
14632 1 21.8023 100.119 46.2136
17406 1 11.8087 101.669 48.7847
17411 1 13.6196 101.724 46.2383
23052 2 12.7166 103.304 47.5337
17408 1 14.5381 103.276 48.8102
17362 1 17.265 101.669 48.7847
17409 1 16.3492 103.327 46.262
23021 2 15.4435 101.7 47.5089
23023 2 18.1728 103.304 47.5337
17360 1 19.9944 103.276 48.8102
17372 1 19.0758 101.724 46.2383
22973 2 20.8997 101.7 47.5089
14633 1 21.8055 103.327 46.262
17392 1 11.8113 104.881 48.8347
17410 1 13.6226 104.93 46.285
23053 2 12.7191 106.509 47.5808
17390 1 14.5406 106.485 48.8584
17361 1 17.2675 104.881 48.8347
17412 1 16.3522 106.531 46.3072
23007 2 15.446 104.907 47.5577
23005 2 18.1754 106.509 47.5808
17363 1 19.9969 106.485 48.8584
17365 1 19.0789 104.93 46.285
22972 2 20.9022 104.907 47.5577
14624 1 21.8084 106.531 46.3072
17391 1 11.8137 108.088 48.8812
17396 1 13.6255 108.131 46.3288
23044 2 12.7216 109.711 47.6248
17393 1 14.543 109.69 48.9033
17347 1 17.27 108.088 48.8812
17394 1 16.355 109.73 46.3498
23006 2 15.4485 108.111 47.6032
23008 2 18.1778 109.711 47.6248
17345 1 19.9993 109.69 48.9033
17364 1 19.0818 108.131 46.3288
22965 2 20.9047 108.111 47.6032
14625 1 21.8112 109.73 46.3498
17384 1 11.8161 111.292 48.9247
17395 1 13.6282 111.329 46.3701
23045 2 12.7239 112.91 47.6659
17382 1 14.5454 112.892 48.9452
17346 1 17.2723 111.292 48.9247
17397 1 16.3576 112.927 46.3898
22993 2 15.4509 111.311 47.6457
22991 2 18.1802 112.91 47.6659
17348 1 20.0016 112.892 48.9452
17350 1 19.0845 111.329 46.3701
22964 2 20.9071 111.311 47.6457
14623 1 21.8139 112.927 46.3898
17403 1 12.724 96.7812 51.2394
22620 2 13.6279 95.2023 49.9359
22618 2 11.8182 95.148 52.4753
23016 2 14.5478 96.7633 52.508
23017 2 16.3574 96.8166 49.9678
16970 1 15.4508 95.1646 51.2065
17368 1 18.1802 96.7812 51.2394
22582 2 17.2745 95.148 52.4753
16940 1 20.9071 95.1646 51.2065
22591 2 19.0841 95.2023 49.9359
22967 2 20.004 96.7633 52.508
20245 2 21.8137 96.8166 49.9678
17404 1 12.7261 100.008 51.3003
23018 2 13.6306 98.4288 49.9982
22999 2 11.8209 98.377 52.5395
22997 2 14.5501 99.989 52.5698
17358 1 15.4532 98.3957 51.2706
23019 2 16.3598 100.039 50.027
17356 1 18.1824 100.008 51.3003
22968 2 17.2772 98.377 52.5395
20230 2 21.8161 100.039 50.027
17316 1 20.9094 98.3957 51.2706
22971 2 19.0868 98.4288 49.9982
22969 2 20.0063 99.989 52.5698
17388 1 12.7281 103.228 51.356
23003 2 13.6328 101.648 50.0547
17357 1 15.4553 101.619 51.3287
23001 2 16.362 103.255 50.0811
17359 1 18.1844 103.228 51.356
20231 2 21.8182 103.255 50.0811
17315 1 20.9115 101.619 51.3287
22970 2 19.089 101.648 50.0547
17389 1 12.7301 106.442 51.4073
23002 2 13.635 104.861 50.1066
17343 1 15.4572 104.836 51.3821
23004 2 16.3642 106.465 50.131
17341 1 18.1864 106.442 51.4073
20222 2 21.8204 106.465 50.131
17314 1 20.9135 104.836 51.3821
22963 2 19.0912 104.861 50.1066
17380 1 12.7321 109.651 51.4548
22989 2 13.6371 108.069 50.1546
17342 1 15.4592 108.047 51.4315
22987 2 16.3663 109.672 50.1774
20223 2 21.8225 109.672 50.1774
17308 1 20.9155 108.047 51.4315
17344 1 18.1884 109.651 51.4548
22962 2 19.0933 108.069 50.1546
17381 1 12.7341 112.857 51.4988
22988 2 13.6392 111.274 50.1993
17331 1 15.4612 111.255 51.4772
22990 2 16.3684 112.875 50.2204
17307 1 20.9175 111.255 51.4772
17329 1 18.1903 112.857 51.4988
22952 2 19.0954 111.274 50.1993
20221 2 21.8246 112.875 50.2204
17402 1 10.9152 96.733 53.7787
22995 2 12.7384 96.7172 55.0492
16960 1 13.642 95.1167 53.7452
17353 1 16.3714 96.733 53.7787
22580 2 15.465 95.102 55.0162
22966 2 18.1946 96.7172 55.0492
16938 1 19.0983 95.1167 53.7452
22573 2 20.9212 95.102 55.0162
17354 1 13.6443 98.3479 53.811
17386 1 10.9171 99.9613 53.842
22996 2 12.7407 99.9438 55.1124
17355 1 16.3734 99.9613 53.842
22956 2 15.4678 98.3311 55.0813
17313 1 19.1006 98.3479 53.811
22938 2 20.924 98.3311 55.0813
22954 2 18.197 99.9438 55.1124
22998 2 11.823 101.599 52.5988
17339 1 13.6461 101.573 53.8718
17387 1 10.9188 103.184 53.9005
22981 2 12.7425 103.166 55.1716
22960 2 17.2792 101.599 52.5988
17337 1 16.375 103.184 53.9005
22955 2 15.4698 101.555 55.1425
23000 2 14.552 103.208 52.6268
17312 1 19.1023 101.573 53.8718
22937 2 20.926 101.555 55.1425
22957 2 18.1988 103.166 55.1716
22958 2 20.0083 103.208 52.6268
17338 1 13.6477 104.793 53.9281
17378 1 10.9204 106.401 53.9547
22982 2 12.7441 106.383 55.2267
22985 2 11.8248 104.816 52.6536
17340 1 16.3766 106.401 53.9547
22945 2 15.4714 104.775 55.1997
22959 2 17.2811 104.816 52.6536
22983 2 14.5538 106.423 52.6794
17306 1 19.1039 104.793 53.9281
22936 2 20.9277 104.775 55.1997
22943 2 18.2003 106.383 55.2267
22961 2 20.0101 106.423 52.6794
22984 2 11.8266 108.029 52.7043
22975 2 12.7456 109.596 55.2778
17379 1 10.922 109.614 54.0047
17327 1 13.6493 108.008 53.9802
22986 2 14.5556 109.633 52.7282
22949 2 17.2828 108.029 52.7043
22944 2 15.473 107.99 55.2528
17325 1 16.3782 109.614 54.0047
22947 2 20.0119 109.633 52.7282
22946 2 18.2018 109.596 55.2778
22935 2 20.9292 107.99 55.2528
17305 1 19.1055 108.008 53.9802
22979 2 11.8284 111.237 52.7512
22976 2 12.747 112.807 55.325
17377 1 10.9236 112.823 54.0509
17326 1 13.6509 111.219 54.0283
22977 2 14.5574 112.841 52.7733
22948 2 17.2846 111.237 52.7512
22941 2 15.4744 111.202 55.3019
17328 1 16.3798 112.823 54.0509
22939 2 18.2033 112.807 55.325
22934 2 20.9307 111.202 55.3019
17299 1 19.1071 111.219 54.0283
22950 2 20.0136 112.841 52.7733
17651 1 12.753 96.6554 58.8631
23292 2 10.929 96.6771 57.5919
16958 1 11.8329 95.0762 56.2864
22899 2 13.6555 95.0629 57.5592
17352 1 14.5624 96.6915 56.3198
23284 2 16.3852 96.6771 57.5919
17255 1 15.4796 95.0414 58.8302
16933 1 17.2891 95.0762 56.2864
17309 1 20.0186 96.6915 56.3198
17640 1 18.2092 96.6554 58.8631
17207 1 20.9359 95.0414 58.8302
22869 2 19.1118 95.0629 57.5592
17335 1 11.8353 98.3059 56.3524
17652 1 12.7552 99.8815 58.9277
23290 2 10.9314 99.9032 57.6557
23285 2 13.6584 98.2906 57.6242
17333 1 14.5644 99.9193 56.3842
17310 1 17.2916 98.3059 56.3524
17638 1 15.4823 98.2688 58.8956
23286 2 16.3876 99.9032 57.6557
17592 1 20.9386 98.2688 58.8956
17311 1 20.0206 99.9193 56.3842
17636 1 18.2115 99.8815 58.9277
23250 2 19.1146 98.2906 57.6242
17334 1 11.8371 101.532 56.415
17648 1 12.7568 103.105 58.9897
23291 2 10.9332 103.126 57.7165
23281 2 13.6605 101.515 57.6866
17336 1 14.5659 103.143 56.4448
17637 1 15.4842 101.494 58.9591
17303 1 17.2933 101.532 56.415
23279 2 16.3894 103.126 57.7165
17591 1 20.9404 101.494 58.9591
17639 1 18.2131 103.105 58.9897
17301 1 20.0222 103.143 56.4448
23249 2 19.1167 101.515 57.6866
17323 1 11.8385 104.753 56.4736
17649 1 12.7581 106.325 59.048
23288 2 10.9347 106.345 57.7736
23280 2 13.6621 104.736 57.7456
17321 1 14.5673 106.362 56.5014
17630 1 15.4856 104.715 59.0193
17302 1 17.2947 104.753 56.4736
23282 2 16.3909 106.345 57.7736
17590 1 20.9418 104.715 59.0193
17628 1 18.2143 106.325 59.048
17304 1 20.0235 106.362 56.5014
23244 2 19.1183 104.736 57.7456
17322 1 11.8398 107.97 56.5281
17644 1 12.7592 109.543 59.1024
23289 2 10.936 109.561 57.8268
23270 2 13.6634 107.953 57.8007
17324 1 14.5686 109.578 56.5537
17629 1 15.4868 107.934 59.0757
17296 1 17.296 107.97 56.5281
23268 2 16.3922 109.561 57.8268
17583 1 20.943 107.934 59.0757
17631 1 18.2154 109.543 59.1024
17294 1 20.0248 109.578 56.5537
23243 2 19.1197 107.953 57.8007
17319 1 11.8411 111.184 56.5784
17645 1 12.7602 112.758 59.1525
23287 2 10.9372 112.774 57.8758
23269 2 13.6647 111.168 57.8518
17317 1 14.5698 112.79 56.602
17616 1 15.4878 111.15 59.128
17295 1 17.2973 111.184 56.5784
23271 2 16.3934 112.774 57.8758
17582 1 20.9441 111.15 59.128
17614 1 18.2165 112.758 59.1525
17297 1 20.0261 112.79 56.602
23230 2 19.1209 111.168 57.8518
17650 1 10.9433 96.623 61.4085
17241 1 13.6698 95.0107 61.3763
22897 2 11.8459 95.0287 60.1043
17633 1 16.3995 96.623 61.4085
23283 2 14.5756 96.6416 60.1365
22849 2 17.3021 95.0287 60.1043
23246 2 20.0319 96.6416 60.1365
17205 1 19.1261 95.0107 61.3763
17634 1 13.6728 98.2351 61.4408
17646 1 10.9458 99.8469 61.4729
23277 2 11.8489 98.2541 60.1685
17635 1 16.402 99.8469 61.4729
23247 2 17.3052 98.2541 60.1685
23275 2 14.5782 99.8661 60.2003
17589 1 19.129 98.2351 61.4408
23248 2 20.0345 99.8661 60.2003
17626 1 13.6748 101.458 61.5045
17647 1 10.9475 103.069 61.5355
23276 2 11.8511 101.478 60.2315
17624 1 16.4038 103.069 61.5355
23241 2 17.3074 101.478 60.2315
23278 2 14.5801 103.088 60.262
17588 1 19.1311 101.458 61.5045
23239 2 20.0364 103.088 60.262
17625 1 13.6764 104.68 61.5658
17642 1 10.9489 106.29 61.5952
23266 2 11.8528 104.699 60.2918
17627 1 16.4051 106.29 61.5952
23240 2 17.309 104.699 60.2918
23264 2 14.5816 106.308 60.3206
17581 1 19.1326 104.68 61.5658
23242 2 20.0378 106.308 60.3206
17612 1 13.6775 107.9 61.6237
17643 1 10.9499 109.509 61.6511
23265 2 11.8541 107.917 60.3485
17610 1 16.4061 109.509 61.6511
23227 2 17.3103 107.917 60.3485
23267 2 14.5828 109.526 60.3755
17580 1 19.1338 107.9 61.6237
23225 2 20.039 109.526 60.3755
17611 1 13.6785 111.117 61.6775
17641 1 10.9508 112.726 61.7028
23258 2 11.8552 111.134 60.4013
17613 1 16.4071 112.726 61.7028
23226 2 17.3115 111.134 60.4013
23256 2 14.5839 112.742 60.4262
17566 1 19.1347 111.117 61.6775
23228 2 20.0401 112.742 60.4262
23272 2 10.9558 96.5782 65.2302
23273 2 12.7659 96.6092 62.6827
17239 1 11.8597 94.9824 63.9247
22833 2 13.6821 94.9686 65.1992
17632 1 14.5895 96.593 63.9563
23232 2 16.412 96.5782 65.2302
17186 1 17.3159 94.9824 63.9247
22847 2 15.4923 94.9979 62.6511
17585 1 20.0457 96.593 63.9563
23245 2 18.2221 96.6092 62.6827
22797 2 19.1384 94.9686 65.1992
22799 2 20.9485 94.9979 62.6511
17622 1 11.8628 98.2037 63.9882
23233 2 13.6855 98.1881 65.2615
23260 2 10.9588 99.7981 65.293
23274 2 12.7686 99.8315 62.7461
17586 1 17.3191 98.2037 63.9882
17620 1 14.5922 99.8144 64.0201
23234 2 16.415 99.7981 65.293
23237 2 15.4955 98.2204 62.7144
17587 1 20.0484 99.8144 64.0201
23181 2 19.1417 98.1881 65.2615
23184 2 20.9517 98.2204 62.7144
23235 2 18.2249 99.8315 62.7461
17621 1 11.8652 101.425 64.0518
23219 2 13.6881 101.408 65.3243
23261 2 10.9611 103.018 65.3554
23262 2 12.7707 103.053 62.8083
17578 1 17.3214 101.425 64.0518
17623 1 14.5942 103.036 64.083
23217 2 16.4173 103.018 65.3554
23236 2 15.4979 101.442 62.7775
17576 1 20.0505 103.036 64.083
23180 2 19.1444 101.408 65.3243
23183 2 20.9541 101.442 62.7775
23238 2 18.2269 103.053 62.8083
17608 1 11.8669 104.646 64.1136
23218 2 13.6902 104.628 65.3859
23252 2 10.9629 106.238 65.4157
23263 2 12.7723 106.273 62.868
17577 1 17.3231 104.646 64.1136
17606 1 14.5957 106.256 64.1435
23220 2 16.4191 106.238 65.4157
23223 2 15.4996 104.663 62.8385
17579 1 20.052 106.256 64.1435
23173 2 19.1464 104.628 65.3859
23182 2 20.9559 104.663 62.8385
23221 2 18.2285 106.273 62.868
17607 1 11.8682 107.866 64.1725
23204 2 13.6917 107.848 65.4447
23253 2 10.9642 109.458 65.4728
23254 2 12.7735 109.492 62.9242
17563 1 17.3244 107.866 64.1725
17609 1 14.5968 109.476 64.2006
23202 2 16.4204 109.458 65.4728
23222 2 15.501 107.883 62.8966
17561 1 20.0531 109.476 64.2006
23172 2 19.1479 107.848 65.4447
23175 2 20.9573 107.883 62.8966
23224 2 18.2297 109.492 62.9242
17600 1 11.8692 111.085 64.2276
23203 2 13.6929 111.068 65.4999
23251 2 10.9653 112.678 65.5259
23255 2 12.7745 112.71 62.9762
17562 1 17.3254 111.085 64.2276
17598 1 14.5978 112.694 64.2535
23205 2 16.4215 112.678 65.5259
23208 2 15.5021 111.101 62.9507
17564 1 20.054 112.694 64.2535
23158 2 19.1491 111.068 65.4999
23174 2 20.9584 111.101 62.9507
23206 2 18.2307 112.71 62.9762
17618 1 12.7789 96.5643 66.5073
22831 2 11.8715 94.9394 67.7474
17617 1 10.9676 96.5362 69.0652
17172 1 13.6939 94.9292 69.0349
23231 2 14.6015 96.5473 67.7777
17184 1 15.5052 94.9555 66.4764
22780 2 17.3277 94.9394 67.7474
17569 1 16.4239 96.5362 69.0652
17584 1 18.2351 96.5643 66.5073
23177 2 20.0577 96.5473 67.7777
17145 1 20.9615 94.9555 66.4764
17143 1 19.1502 94.9292 69.0349
17619 1 12.7819 99.783 66.5703
23215 2 11.8751 98.1557 67.8086
17570 1 13.6974 98.1438 69.0959
17602 1 10.9707 99.752 69.127
17574 1 15.5086 98.1735 66.5387
23178 2 17.3314 98.1557 67.8086
23213 2 14.6048 99.7645 67.8398
17571 1 16.427 99.752 69.127
17526 1 20.9649 98.1735 66.5387
17572 1 18.2382 99.783 66.5703
23179 2 20.0611 99.7645 67.8398
17523 1 19.1536 98.1438 69.0959
17604 1 12.7843 103.003 66.6331
23214 2 11.8781 101.374 67.8711
17555 1 13.7002 101.361 69.1583
17603 1 10.9733 102.97 69.1895
17573 1 15.5113 101.393 66.6019
23170 2 17.3344 101.374 67.8711
23216 2 14.6075 102.983 67.9021
17553 1 16.4295 102.97 69.1895
17525 1 20.9675 101.393 66.6019
17575 1 18.2405 103.003 66.6331
23168 2 20.0638 102.983 67.9021
17522 1 19.1565 101.361 69.1583
17605 1 12.786 106.223 66.6941
23200 2 11.8805 104.593 67.9328
17554 1 13.7025 104.58 69.2203
17594 1 10.9753 106.189 69.2505
17559 1 15.5133 104.613 66.6639
23169 2 17.3368 104.593 67.9328
23198 2 14.6096 106.203 67.9629
17556 1 16.4315 106.189 69.2505
17524 1 20.9696 104.613 66.6639
17557 1 18.2423 106.223 66.6941
23171 2 20.0658 106.203 67.9629
17515 1 19.1587 104.58 69.2203
17596 1 12.7873 109.443 66.7519
23199 2 11.8823 107.814 67.9922
17558 1 15.5148 107.833 66.7235
23155 2 17.3385 107.814 67.9922
23201 2 14.6111 109.424 68.0206
17517 1 20.9711 107.833 66.7235
17560 1 18.2435 109.443 66.7519
23153 2 20.0674 109.424 68.0206
17597 1 12.7883 112.663 66.8056
23192 2 11.8836 111.035 68.048
17545 1 15.5159 111.053 66.7793
23154 2 17.3399 111.035 68.048
23190 2 14.6123 112.645 68.0744
17516 1 20.9722 111.053 66.7793
17543 1 18.2445 112.663 66.8056
23156 2 20.0686 112.645 68.0744
23211 2 12.7914 96.5142 70.326
17170 1 11.879 94.901 71.6133
17568 1 14.6087 96.5064 71.6429
17134 1 17.3352 94.901 71.6133
22778 2 15.5176 94.908 70.2962
17519 1 20.065 96.5064 71.6429
23176 2 18.2476 96.5142 70.326
22748 2 20.9739 94.908 70.2962
17551 1 11.8821 98.1127 71.673
23212 2 12.7946 99.7289 70.387
17520 1 17.3384 98.1127 71.673
17549 1 14.6116 99.7197 71.7035
23166 2 15.5212 98.1212 70.3564
17521 1 20.0679 99.7197 71.7035
23124 2 20.9774 98.1212 70.3564
23164 2 18.2508 99.7289 70.387
17550 1 11.8848 101.327 71.7339
23196 2 12.7974 102.947 70.4486
17512 1 17.341 101.327 71.7339
17552 1 14.614 102.936 71.7654
23165 2 15.5241 101.337 70.4179
17510 1 20.0702 102.936 71.7654
23123 2 20.9804 101.337 70.4179
23167 2 18.2536 102.947 70.4486
17537 1 11.8868 104.545 71.7962
23197 2 12.7995 106.166 70.5088
17511 1 17.343 104.545 71.7962
17535 1 14.6158 106.155 71.8262
23151 2 15.5266 104.556 70.479
17513 1 20.072 106.155 71.8262
23122 2 20.9829 104.556 70.479
23149 2 18.2558 106.166 70.5088
17536 1 11.8884 107.766 71.8555
17541 1 13.7042 107.8 69.28
17595 1 10.9768 109.41 69.3085
23188 2 12.8012 109.388 70.5663
17501 1 17.3447 107.766 71.8555
17538 1 14.6172 109.377 71.8839
17539 1 16.433 109.41 69.3085
23150 2 15.5285 107.777 70.538
17499 1 20.0735 109.377 71.8839
17514 1 19.1604 107.8 69.28
23116 2 20.9848 107.777 70.538
23152 2 18.2574 109.388 70.5663
17531 1 11.8898 110.988 71.9113
17540 1 13.7055 111.021 69.3361
17593 1 10.9779 112.632 69.3626
23189 2 12.8025 112.611 70.62
17500 1 17.346 110.988 71.9113
17529 1 14.6185 112.6 71.9378
17542 1 16.4342 112.632 69.3626
23139 2 15.53 110.999 70.5937
17502 1 20.0747 112.6 71.9378
17504 1 19.1617 111.021 69.3361
23115 2 20.9863 110.999 70.5937
23137 2 18.2588 112.611 70.62
17547 1 12.7468 96.4865 74.2997
23210 2 10.9795 96.4783 72.8619
22766 2 11.8723 94.8491 75.3163
22768 2 13.7059 94.8736 72.8326
23160 2 14.6014 96.4527 75.3449
23161 2 16.4358 96.4783 72.8619
17132 1 15.4751 94.8822 74.2703
22741 2 17.3285 94.8491 75.3163
17518 1 18.203 96.4865 74.2997
23117 2 20.0577 96.4527 75.3449
17125 1 20.9313 94.8822 74.2703
22746 2 19.1621 94.8736 72.8326
17548 1 12.7463 99.6978 74.3602
23143 2 11.8743 98.0577 75.3741
23162 2 13.7093 98.0841 72.8918
23194 2 10.9827 99.691 72.9221
17508 1 15.4747 98.0917 74.3298
23118 2 17.3305 98.0577 75.3741
23141 2 14.6033 99.6639 75.4037
23163 2 16.4389 99.691 72.9221
17490 1 20.9309 98.0917 74.3298
17506 1 18.2026 99.6978 74.3602
23119 2 20.0595 99.6639 75.4037
23121 2 19.1656 98.0841 72.8918
17533 1 12.7457 102.912 74.4206
23142 2 11.876 101.271 75.4335
23147 2 13.7121 101.299 72.9524
23195 2 10.9855 102.907 72.9825
17507 1 15.4743 101.305 74.3904
23111 2 17.3322 101.271 75.4335
23144 2 14.6049 102.88 75.4622
23145 2 16.4417 102.907 72.9825
17489 1 20.9306 101.305 74.3904
17509 1 18.202 102.912 74.4206
23109 2 20.0611 102.88 75.4622
23120 2 19.1684 101.299 72.9524
17534 1 12.7452 106.131 74.4797
23131 2 11.8774 104.489 75.4909
23146 2 13.7148 104.517 73.0124
23186 2 10.9877 106.128 73.0418
17497 1 15.4735 104.521 74.4504
23110 2 17.3337 104.489 75.4909
23129 2 14.6062 106.1 75.5195
23148 2 16.4439 106.128 73.0418
17488 1 20.9297 104.521 74.4504
17495 1 18.2014 106.131 74.4797
23112 2 20.0624 106.1 75.5195
23114 2 19.171 104.517 73.0124
17527 1 12.7449 109.353 74.5365
23130 2 11.8786 107.711 75.5475
23135 2 13.7167 107.739 73.0706
23187 2 10.9894 109.351 73.0986
17496 1 15.4731 107.742 74.5085
23104 2 17.3349 107.711 75.5475
23132 2 14.6073 109.324 75.575
23133 2 16.4457 109.351 73.0986
17487 1 20.9293 107.742 74.5085
17498 1 18.2011 109.353 74.5365
23102 2 20.0635 109.324 75.575
23113 2 19.173 107.739 73.0706
17528 1 12.7449 112.576 74.5898
23127 2 11.8797 110.936 75.6017
23134 2 13.7183 110.963 73.1257
23185 2 10.9909 112.576 73.1519
17493 1 15.473 110.964 74.5637
23103 2 17.3359 110.936 75.6017
23125 2 14.6083 112.55 75.6275
23136 2 16.4471 112.576 73.1519
17486 1 20.9292 110.964 74.5637
17491 1 18.2011 112.576 74.5898
23105 2 20.0645 112.55 75.6275
23107 2 19.1745 110.963 73.1257
5567 1 12.7268 113.493 -2.5982
12033 2 11.8244 115.061 -1.13241
12041 2 13.6395 115.088 -3.63688
12048 2 10.9131 113.517 -3.65931
5554 1 15.452 115.065 -2.57539
12003 2 17.2806 115.061 -1.13241
12039 2 14.5536 113.489 -1.15526
12040 2 16.3694 113.517 -3.65931
5556 1 18.1831 113.493 -2.5982
5508 1 20.9083 115.065 -2.57539
12002 2 20.0098 113.489 -1.15526
12006 2 19.0958 115.088 -3.63688
5568 1 12.7211 116.637 -2.55323
12032 2 11.8222 118.203 -1.08869
12037 2 13.6363 118.229 -3.59392
5553 1 15.4466 118.208 -2.53178
11997 2 17.2785 118.203 -1.08869
12031 2 14.5514 116.632 -1.1102
12042 2 16.366 116.659 -3.61506
5552 1 18.1774 116.637 -2.55323
5507 1 20.9029 118.208 -2.53178
12004 2 20.0077 116.632 -1.1102
12005 2 19.0925 118.229 -3.59392
8782 2 21.8222 116.659 -3.61506
5564 1 12.716 119.778 -2.5111
12022 2 11.8201 121.343 -1.04807
12036 2 13.6333 121.368 -3.55392
12034 2 14.5493 119.773 -1.06797
5546 1 15.4418 121.348 -2.49125
11996 2 17.2764 121.343 -1.04807
12035 2 16.3629 119.799 -3.57352
5555 1 18.1723 119.778 -2.5111
5506 1 20.8981 121.348 -2.49125
11995 2 20.0055 119.773 -1.06797
12000 2 19.0895 121.368 -3.55392
8783 2 21.8191 119.799 -3.57352
5565 1 12.7116 122.918 -2.47228
12021 2 11.8181 124.482 -1.01095
12026 2 13.6306 124.505 -3.51731
12020 2 14.5472 122.913 -1.02905
5545 1 15.4377 124.487 -2.45422
11983 2 17.2744 124.482 -1.01095
12038 2 16.36 122.936 -3.53517
5544 1 18.1678 122.918 -2.47228
5499 1 20.8939 124.487 -2.45422
11998 2 20.0035 122.913 -1.02905
11999 2 19.0868 124.505 -3.51731
8780 2 21.8163 122.936 -3.53517
5560 1 12.7077 126.056 -2.43711
12014 2 11.8163 127.62 -0.977614
12025 2 13.6282 127.64 -3.48438
12023 2 14.5453 126.051 -0.993795
5532 1 15.4341 127.624 -2.42097
11982 2 17.2725 127.62 -0.977614
12024 2 16.3575 126.072 -3.50037
5547 1 18.164 126.056 -2.43711
5498 1 20.8904 127.624 -2.42097
11981 2 20.0015 126.051 -0.993795
11986 2 19.0844 127.64 -3.48438
8781 2 21.8137 126.072 -3.50037
5561 1 12.7045 129.193 -2.40582
12013 2 11.8146 130.757 -0.948254
12015 2 13.6261 130.774 -3.45534
12012 2 14.5435 129.189 -0.962428
5531 1 15.4312 130.76 -2.39168
11965 2 17.2708 130.757 -0.948254
12027 2 16.3552 129.207 -3.46936
5530 1 18.1607 129.193 -2.40582
5483 1 20.8874 130.76 -2.39168
11984 2 19.9997 129.189 -0.962428
11985 2 19.0823 130.774 -3.45534
8779 2 21.8114 129.207 -3.46936
5550 1 13.6416 115.042 0.0895948
5566 1 10.9149 113.469 0.066592
12029 2 12.7344 113.458 1.39775
5549 1 16.3712 113.469 0.066592
11993 2 15.4613 115.03 1.42086
5505 1 19.0979 115.042 0.0895948
11940 2 20.9175 115.03 1.42086
12001 2 18.1907 113.458 1.39775
5542 1 13.6389 118.185 0.133575
12030 2 12.7319 116.602 1.44331
5551 1 16.3684 116.614 0.111947
11992 2 15.4587 118.174 1.46503
5504 1 19.0951 118.185 0.133575
11939 2 20.915 118.174 1.46503
11991 2 18.1881 116.602 1.44331
2490 1 21.8246 116.614 0.111947
5541 1 13.6363 121.327 0.174414
12018 2 12.7294 119.745 1.48595
5540 1 16.3657 119.756 0.154415
11979 2 15.4563 121.317 1.50602
11994 2 18.1856 119.745 1.48595
5497 1 19.0926 121.327 0.174414
11938 2 20.9126 121.317 1.50602
2491 1 21.8219 119.756 0.154415
5528 1 13.6339 124.467 0.211709
12019 2 12.7271 122.887 1.5252
5543 1 16.3632 122.897 0.193524
11978 2 15.4541 124.458 1.54344
11977 2 18.1833 122.887 1.5252
5496 1 19.0902 124.467 0.211709
11931 2 20.9103 124.458 1.54344
2486 1 21.8194 122.897 0.193524
5527 1 13.6317 127.607 0.24518
12010 2 12.7249 126.028 1.56072
5526 1 16.3609 126.037 0.228936
11964 2 15.452 127.598 1.57701
11980 2 18.1811 126.028 1.56072
5482 1 19.088 127.607 0.24518
11930 2 20.9082 127.598 1.57701
2487 1 21.8172 126.037 0.228936
5517 1 13.6298 130.745 0.274644
12011 2 12.7229 129.168 1.5923
5529 1 16.3589 129.176 0.260421
11963 2 15.4502 130.738 1.60655
11962 2 18.1792 129.168 1.5923
5481 1 19.0861 130.745 0.274644
11915 2 20.9064 130.738 1.60655
2485 1 21.8151 129.176 0.260421
5538 1 11.8232 115.014 2.68643
5534 1 12.7331 113.415 5.24525
11989 2 13.6418 115.002 3.98755
12028 2 10.9151 113.429 3.96424
5502 1 17.2794 115.014 2.68643
5548 1 14.5528 113.441 2.66314
5490 1 15.4597 114.988 5.26865
11988 2 16.3714 113.429 3.96424
5501 1 20.009 113.441 2.66314
5436 1 20.9159 114.988 5.26865
5500 1 18.1894 113.415 5.24525
11937 2 19.098 115.002 3.98755
5537 1 11.8204 118.158 2.73091
5536 1 14.5499 116.586 2.70905
5535 1 12.7301 116.561 5.29134
11975 2 13.6389 118.147 4.03203
5494 1 17.2767 118.158 2.73091
5489 1 15.4567 118.134 5.31326
11990 2 16.3685 116.575 4.01017
5488 1 18.1863 116.561 5.29134
5503 1 20.0062 116.586 2.70905
5435 1 20.913 118.134 5.31326
11936 2 19.0952 118.147 4.03203
8752 2 21.8247 116.575 4.01017
5524 1 11.8178 121.302 2.77215
5539 1 14.5472 119.73 2.75196
5520 1 12.7272 119.707 5.33434
11974 2 13.6362 121.292 4.07326
5521 1 12.7245 122.852 5.37384
5493 1 17.274 121.302 2.77215
5475 1 15.4539 121.28 5.35455
11973 2 16.3657 119.72 4.05308
5491 1 18.1834 119.707 5.33434
5473 1 18.1808 122.852 5.37384
5492 1 20.0034 119.73 2.75196
5434 1 20.9102 121.28 5.35455
11929 2 19.0925 121.292 4.07326
8753 2 21.8219 119.72 4.05308
5523 1 11.8153 124.445 2.80976
5522 1 14.5447 122.874 2.79143
11960 2 13.6338 124.435 4.11085
5512 1 12.7221 125.997 5.40951
5479 1 17.2716 124.445 2.80976
5474 1 15.4514 124.424 5.39217
11976 2 16.3631 122.864 4.09253
5476 1 18.1783 125.997 5.40951
5495 1 20.0009 122.874 2.79143
5427 1 20.9076 124.424 5.39217
11928 2 19.09 124.435 4.11085
8744 2 21.8193 122.864 4.09253
5516 1 11.8131 127.587 2.84346
5525 1 14.5423 126.016 2.82711
11959 2 13.6315 127.579 4.14454
5513 1 12.72 129.141 5.44118
5478 1 17.2694 127.587 2.84346
5460 1 15.4491 127.569 5.42586
11958 2 16.3607 126.007 4.12819
5458 1 18.1762 129.141 5.44118
11961 2 16.3586 129.15 4.15986
5477 1 19.9986 126.016 2.82711
5426 1 20.9054 127.569 5.42586
11914 2 19.0878 127.579 4.14454
8745 2 21.817 126.007 4.12819
8743 2 21.8149 129.15 4.15986
5515 1 11.8112 130.728 2.8731
5514 1 14.5402 129.158 2.8588
11949 2 13.6296 130.721 4.17415
5932 1 14.5384 132.299 2.88635
5918 1 12.7181 132.285 5.4687
5461 1 17.2674 130.728 2.8731
5459 1 15.4471 130.713 5.45546
12396 2 16.3568 132.292 4.18739
5884 1 18.1744 132.285 5.4687
11913 2 19.0858 130.721 4.17415
5480 1 19.9965 129.158 2.8588
5412 1 20.9034 130.713 5.45546
5885 1 19.9947 132.299 2.88635
9172 2 21.8131 132.292 4.18739
5486 1 13.6393 114.964 7.84638
11971 2 11.8214 114.976 6.5603
11968 2 12.7274 116.526 9.15738
11969 2 14.548 116.55 6.58287
11922 2 15.4571 114.952 9.13495
11934 2 17.2776 114.976 6.5603
11920 2 18.1837 116.526 9.15738
5487 1 16.3659 116.537 7.86901
5433 1 19.0956 114.964 7.84638
11880 2 20.9133 114.952 9.13495
2446 1 21.8221 116.537 7.86901
11935 2 20.0042 116.55 6.58287
5471 1 13.6362 118.111 7.89084
11970 2 11.8184 118.123 6.60467
11952 2 12.7245 119.673 9.19984
11972 2 14.5451 119.696 6.62564
11921 2 15.454 118.099 9.17903
11926 2 17.2746 118.123 6.60467
11923 2 18.1807 119.673 9.19984
5469 1 16.3629 119.684 7.91183
5432 1 19.0925 118.111 7.89084
11879 2 20.9103 118.099 9.17903
2447 1 21.8191 119.684 7.91183
11924 2 20.0013 119.696 6.62564
5470 1 13.6334 121.258 7.93194
11956 2 11.8156 121.269 6.64573
11953 2 12.7218 122.821 9.23879
11954 2 14.5424 122.842 6.66491
11907 2 15.4512 121.247 9.21977
11925 2 17.2719 121.269 6.64573
11905 2 18.1781 122.821 9.23879
5472 1 16.3602 122.831 7.95112
5425 1 19.0896 121.258 7.93194
11878 2 20.9075 121.247 9.21977
2438 1 21.8164 122.831 7.95112
11927 2 19.9987 122.842 6.66491
5456 1 13.6308 124.405 7.96934
11955 2 11.8131 124.415 6.68314
11957 2 14.5401 125.988 6.7004
11911 2 17.2693 124.415 6.68314
5454 1 16.3578 125.978 7.98659
5424 1 19.0871 124.405 7.96934
2439 1 21.814 125.978 7.98659
11909 2 19.9963 125.988 6.7004
5455 1 13.6286 127.551 8.00284
11948 2 11.8109 127.56 6.71666
11946 2 14.538 129.133 6.73191
11910 2 17.2671 127.56 6.71666
5457 1 16.3557 129.125 8.01807
5411 1 19.0848 127.551 8.00284
2437 1 21.8119 129.125 8.01807
11912 2 19.9942 129.133 6.73191
5445 1 13.6266 130.698 8.03227
11947 2 11.8089 130.706 6.74613
12395 2 14.5361 132.278 6.75931
11896 2 17.2651 130.706 6.74613
5869 1 16.3539 132.271 8.04543
5410 1 19.0828 130.698 8.03227
12341 2 19.9924 132.278 6.75931
2845 1 21.8101 132.271 8.04543
5467 1 11.8186 114.939 10.4229
11918 2 13.6363 114.928 11.7105
5465 1 14.5452 116.514 10.4453
5430 1 17.2749 114.939 10.4229
11919 2 16.3629 116.502 11.7327
11877 2 19.0926 114.928 11.7105
5431 1 20.0014 116.514 10.4453
8686 2 21.8191 116.502 11.7327
5466 1 11.8155 118.088 10.467
11903 2 13.6333 118.076 11.7541
5468 1 14.5422 119.662 10.4877
5422 1 17.2718 118.088 10.467
11901 2 16.36 119.651 11.7746
11876 2 19.0895 118.076 11.7541
5420 1 19.9984 119.662 10.4877
8687 2 21.8162 119.651 11.7746
5452 1 11.8127 121.236 10.5076
11902 2 13.6305 121.226 11.7943
5450 1 14.5395 122.811 10.5266
5421 1 17.2689 121.236 10.5076
11904 2 16.3574 122.801 11.8131
11870 2 19.0868 121.226 11.7943
5423 1 19.9958 122.811 10.5266
8678 2 21.8137 122.801 11.8131
5451 1 11.8102 124.385 10.5446
11891 2 13.6281 124.376 11.8309
5453 1 14.5372 125.96 10.5617
11944 2 12.7195 125.969 9.27397
11906 2 15.4487 124.395 9.25686
5408 1 17.2665 124.385 10.5446
11889 2 16.3552 125.951 11.8478
11908 2 18.1757 125.969 9.27397
11872 2 20.905 124.395 9.25686
11869 2 19.0844 124.376 11.8309
5406 1 19.9934 125.96 10.5617
8679 2 21.8114 125.951 11.8478
5444 1 11.808 127.534 10.5778
11890 2 13.6261 127.526 11.8637
11945 2 12.7174 129.117 9.30521
5442 1 14.5352 129.109 10.5928
11895 2 15.4465 127.543 9.29009
5407 1 17.2643 127.534 10.5778
11893 2 18.1737 129.117 9.30521
11892 2 16.3533 129.101 11.8787
11871 2 20.9028 127.543 9.29009
11863 2 19.0823 127.526 11.8637
5409 1 19.9914 129.109 10.5928
8677 2 21.8095 129.101 11.8787
5443 1 11.8062 130.684 10.6069
11884 2 13.6243 130.677 11.8926
12375 2 12.7157 132.265 9.33239
5868 1 14.5335 132.258 10.6199
11894 2 15.4446 130.691 9.31931
5397 1 17.2624 130.684 10.6069
12340 2 18.1719 132.265 9.33239
12325 2 16.3516 132.252 11.9055
11864 2 20.9009 130.691 9.31931
11862 2 19.0805 130.677 11.8926
5813 1 19.9897 132.258 10.6199
9110 2 21.8079 132.252 11.9055
5414 1 13.6327 114.891 15.5755
11899 2 11.8153 114.903 14.2864
5464 1 12.7242 116.49 13.0213
11897 2 14.5419 116.478 14.3083
5418 1 15.4539 114.915 12.9991
11874 2 17.2715 114.903 14.2864
5415 1 16.3593 116.466 15.5972
5416 1 18.1805 116.49 13.0213
5385 1 19.089 114.891 15.5755
5388 1 20.9102 114.915 12.9991
2374 1 21.8156 116.466 15.5972
11875 2 19.9981 116.478 14.3083
5400 1 13.6298 118.042 15.6182
11898 2 11.8123 118.054 14.3294
5448 1 12.7214 119.64 13.0631
11900 2 14.5391 119.629 14.3496
5417 1 15.4509 118.065 13.0426
11867 2 17.2686 118.054 14.3294
5398 1 16.3567 119.618 15.6383
5419 1 18.1776 119.64 13.0631
2375 1 21.8129 119.618 15.6383
5384 1 19.0861 118.042 15.6182
5387 1 20.9071 118.065 13.0426
11865 2 19.9954 119.629 14.3496
11885 2 14.5368 122.781 14.3874
5399 1 13.6274 121.194 15.6575
11887 2 11.8098 121.205 14.3689
5449 1 12.7189 122.791 13.1014
5402 1 18.1751 122.791 13.1014
5404 1 15.4482 121.215 13.0827
11866 2 17.266 121.205 14.3689
5401 1 16.3544 122.771 15.6758
11868 2 19.993 122.781 14.3874
2366 1 21.8107 122.771 15.6758
5381 1 19.0836 121.194 15.6575
5386 1 20.9044 121.215 13.0827
11888 2 14.5347 125.933 14.4215
5440 1 12.7167 125.942 13.1359
5392 1 13.6253 124.347 15.6932
11886 2 11.8076 124.357 14.4049
5405 1 18.1729 125.942 13.1359
5390 1 16.3525 125.924 15.7097
11860 2 17.2638 124.357 14.4049
5403 1 15.4459 124.366 13.1191
11858 2 19.991 125.933 14.4215
5383 1 20.9021 124.366 13.1191
5380 1 19.0815 124.347 15.6932
2367 1 21.8087 125.924 15.7097
11881 2 14.533 129.086 14.4519
5441 1 12.7148 129.094 13.1666
11883 2 11.8057 127.51 14.4372
5391 1 13.6235 127.501 15.7252
5394 1 18.1711 129.094 13.1666
5393 1 16.3509 129.078 15.7398
11859 2 17.2619 127.51 14.4372
5396 1 15.4438 127.518 13.1518
11861 2 19.9892 129.086 14.4519
5382 1 20.9001 127.518 13.1518
5378 1 19.0798 127.501 15.7252
2365 1 21.8071 129.078 15.7398
5389 1 13.622 130.656 15.7534
11882 2 11.8041 130.663 14.4656
5847 1 12.7133 132.246 13.1934
12324 2 14.5316 132.239 14.4783
5797 1 16.3495 132.233 15.766
5812 1 18.1695 132.246 13.1934
11857 2 17.2604 130.663 14.4656
5395 1 15.4421 130.67 13.1805
12281 2 19.9878 132.239 14.4783
2774 1 21.8058 132.233 15.766
5377 1 19.0783 130.656 15.7534
5379 1 20.8984 130.67 13.1805
5758 1 11.8113 114.866 18.1518
12240 2 12.7207 116.454 16.884
5756 1 14.538 116.442 18.1731
12226 2 15.4502 114.879 16.8626
5735 1 17.2675 114.866 18.1518
12224 2 18.1769 116.454 16.884
12180 2 20.9065 114.879 16.8626
5736 1 19.9943 116.442 18.1731
5757 1 11.8087 118.019 18.1935
12236 2 12.7182 119.607 16.9245
5759 1 14.5357 119.596 18.2131
12225 2 15.4475 118.03 16.9047
5731 1 17.2649 118.019 18.1935
12227 2 18.1745 119.607 16.9245
12179 2 20.9038 118.03 16.9047
5729 1 19.992 119.596 18.2131
5751 1 11.8066 121.173 18.2319
12237 2 12.7161 122.761 16.9615
5749 1 14.5338 122.751 18.2498
12218 2 15.4452 121.184 16.9434
5730 1 17.2628 121.173 18.2319
12216 2 18.1724 122.761 16.9615
12178 2 20.9015 121.184 16.9434
5732 1 19.99 122.751 18.2498
5750 1 11.8048 124.328 18.2668
12232 2 12.7144 125.916 16.9949
5752 1 14.5322 125.907 18.2829
12217 2 15.4433 124.338 16.9786
5719 1 17.2611 124.328 18.2668
12219 2 18.1706 125.916 16.9949
12171 2 20.8996 124.338 16.9786
5717 1 19.9884 125.907 18.2829
5744 1 11.8034 127.485 18.2981
12233 2 12.7129 129.071 17.0247
5742 1 14.5308 129.063 18.3123
5718 1 17.2596 127.485 18.2981
12204 2 15.4417 127.493 17.0102
12202 2 18.1691 129.071 17.0247
12170 2 20.898 127.493 17.0102
5720 1 19.9871 129.063 18.3123
5743 1 11.8022 130.642 18.3257
12647 2 12.7117 132.227 17.0506
6144 1 14.5298 132.221 18.3381
5701 1 17.2584 130.642 18.3257
12203 2 15.4404 130.649 17.0381
12636 2 18.1679 132.227 17.0506
12155 2 20.8966 130.649 17.0381
6118 1 19.986 132.221 18.3381
12222 2 13.6288 114.853 19.4387
12210 2 11.8072 114.826 22.0145
5755 1 12.7167 116.417 20.7486
12208 2 14.5344 116.404 22.0348
12223 2 16.3556 116.43 19.4596
5727 1 15.4459 114.84 20.7279
12174 2 17.2635 114.826 22.0145
5725 1 18.1729 116.417 20.7486
12177 2 19.085 114.853 19.4387
5676 1 20.9022 114.84 20.7279
12175 2 19.9906 116.404 22.0348
8970 2 21.8119 116.43 19.4596
12214 2 13.6264 118.007 19.4798
12209 2 11.8054 117.983 22.0544
5747 1 12.7148 119.573 20.7876
12211 2 14.5327 119.561 22.0732
12212 2 16.3535 119.584 19.4991
5726 1 15.4438 117.995 20.7685
12166 2 17.2616 117.983 22.0544
5728 1 18.171 119.573 20.7876
12176 2 19.0827 118.007 19.4798
5675 1 20.9 117.995 20.7685
12164 2 19.989 119.561 22.0732
8971 2 21.8098 119.584 19.4991
12213 2 13.6245 121.162 19.5175
12196 2 11.8039 121.141 22.0911
5748 1 12.7133 122.73 20.8232
12194 2 14.5314 122.72 22.1083
12215 2 16.3518 122.741 19.5352
5715 1 15.4421 121.151 20.8058
12165 2 17.2602 121.141 22.0911
5713 1 18.1695 122.73 20.8232
12169 2 19.0808 121.162 19.5175
5674 1 20.8983 121.151 20.8058
12167 2 19.9877 122.72 22.1083
8966 2 21.8081 122.741 19.5352
12200 2 13.623 124.319 19.5519
12195 2 11.8028 124.3 22.1246
5740 1 12.712 125.889 20.8555
12197 2 14.5304 125.88 22.1401
12198 2 16.3504 125.898 19.5678
5714 1 15.4407 124.31 20.8398
12151 2 17.259 124.3 22.1246
5716 1 18.1683 125.889 20.8555
12168 2 19.0792 124.319 19.5519
5667 1 20.897 124.31 20.8398
12149 2 19.9867 125.88 22.1401
8967 2 21.8066 125.898 19.5678
12199 2 13.6217 127.477 19.5828
12188 2 11.8019 127.461 22.1547
5741 1 12.7111 129.049 20.8843
12186 2 14.5297 129.041 22.1685
12201 2 16.3493 129.056 19.5969
5700 1 15.4396 127.469 20.8703
12150 2 17.2581 127.461 22.1547
5698 1 18.1673 129.049 20.8843
12154 2 19.0779 127.477 19.5828
5666 1 20.8959 127.469 20.8703
12152 2 19.9859 129.041 22.1685
8965 2 21.8055 129.056 19.5969
12189 2 13.6206 130.635 19.6101
12187 2 11.8012 130.622 22.1813
6138 1 12.7103 132.209 20.9095
12628 2 14.529 132.203 22.1933
5699 1 15.4388 130.629 20.8973
12133 2 17.2574 130.622 22.1813
12629 2 16.3483 132.215 19.6223
6117 1 18.1665 132.209 20.9095
12153 2 19.0769 130.635 19.6101
5651 1 20.895 130.629 20.8973
12581 2 19.9853 132.203 22.1933
9382 2 21.8046 132.215 19.6223
5707 1 11.8029 114.784 25.8784
5723 1 13.6243 114.813 23.3036
12207 2 12.7132 116.378 24.6093
5705 1 14.5305 116.364 25.8977
5670 1 17.2592 114.784 25.8784
12162 2 15.442 114.799 24.5896
5724 1 16.3516 116.391 23.3236
12160 2 18.1695 116.378 24.6093
5673 1 19.0806 114.813 23.3036
12108 2 20.8983 114.799 24.5896
5671 1 19.9868 116.364 25.8977
2673 1 21.8078 116.391 23.3236
5706 1 11.802 117.945 25.9164
5711 1 13.6228 117.97 23.3429
12192 2 12.7121 119.538 24.6465
5662 1 17.2582 117.945 25.9164
12161 2 15.4408 117.958 24.6283
5709 1 16.3502 119.55 23.3614
12163 2 18.1684 119.538 24.6465
5672 1 19.079 117.97 23.3429
12107 2 20.897 117.958 24.6283
2674 1 21.8065 119.55 23.3614
5710 1 13.6216 121.13 23.3791
12193 2 12.7114 122.699 24.6806
12147 2 15.4398 121.118 24.664
5712 1 16.3492 122.71 23.396
12145 2 18.1676 122.699 24.6806
5665 1 19.0778 121.13 23.3791
12106 2 20.8961 121.118 24.664
2666 1 21.8055 122.71 23.396
5696 1 13.6207 124.29 23.4122
12184 2 12.7108 125.862 24.7116
12146 2 15.4392 124.281 24.6965
5694 1 16.3484 125.871 23.4274
12148 2 18.1671 125.862 24.7116
5664 1 19.0769 124.29 23.4122
12099 2 20.8954 124.281 24.6965
2667 1 21.8047 125.871 23.4274
5695 1 13.62 127.452 23.4419
12185 2 12.7104 129.026 24.7393
12132 2 15.4387 127.444 24.7259
5697 1 16.3478 129.034 23.4555
12130 2 18.1666 129.026 24.7393
5650 1 19.0762 127.452 23.4419
12098 2 20.895 127.444 24.7259
2665 1 21.8041 129.034 23.4555
5685 1 13.6195 130.615 23.4682
12614 2 12.7101 132.191 24.7636
12131 2 15.4384 130.608 24.7519
6106 1 16.3474 132.197 23.4801
12580 2 18.1663 132.191 24.7636
5649 1 19.0757 130.615 23.4682
12084 2 20.8946 130.608 24.7519
3065 1 21.8036 132.197 23.4801
12158 2 13.6209 114.769 27.1637
5704 1 12.7099 116.336 28.4707
5658 1 15.4381 114.754 28.4519
12159 2 16.3486 116.35 27.1828
5656 1 18.1661 116.336 28.4707
8926 2 21.8049 116.35 27.1828
5610 1 20.8944 114.754 28.4519
12105 2 19.0771 114.769 27.1637
5708 1 14.5298 119.526 25.9343
12143 2 13.6203 117.932 27.2012
5688 1 12.7098 119.501 28.5061
5657 1 15.4379 117.918 28.4887
12141 2 16.3482 119.513 27.2188
5659 1 18.166 119.501 28.5061
8927 2 21.8044 119.513 27.2188
5660 1 19.986 119.526 25.9343
5609 1 20.8942 117.918 28.4887
12104 2 19.0765 117.932 27.2012
5692 1 11.8014 121.107 25.9515
5690 1 14.5293 122.689 25.968
12142 2 13.6199 121.096 27.2358
5689 1 12.7098 122.668 28.5388
5661 1 17.2576 121.107 25.9515
5643 1 15.4379 121.084 28.5228
12144 2 16.348 122.678 27.252
5641 1 18.1661 122.668 28.5388
8918 2 21.8042 122.678 27.252
5663 1 19.9855 122.689 25.968
5608 1 20.8942 121.084 28.5228
12097 2 19.0762 121.096 27.2358
5691 1 11.801 124.271 25.9836
5693 1 14.529 125.853 25.9985
12128 2 13.6198 124.261 27.2675
5680 1 12.71 125.835 28.5686
5647 1 17.2572 124.271 25.9836
5642 1 15.438 124.251 28.5541
12126 2 16.3479 125.844 27.2822
5644 1 18.1662 125.835 28.5686
8919 2 21.8041 125.844 27.2822
5645 1 19.9852 125.853 25.9985
5601 1 20.8943 124.251 28.5541
12096 2 19.076 124.261 27.2675
5684 1 11.8007 127.436 26.0126
5682 1 14.5288 129.019 26.0259
12127 2 13.6197 127.428 27.2961
5681 1 12.7102 129.004 28.5954
5646 1 17.257 127.436 26.0126
5629 1 15.4382 127.419 28.5824
12129 2 16.3478 129.011 27.3092
5627 1 18.1664 129.004 28.5954
8917 2 21.8041 129.011 27.3092
5648 1 19.985 129.019 26.0259
5600 1 20.8944 127.419 28.5824
12083 2 19.076 127.428 27.2961
5683 1 11.8006 130.602 26.0384
12117 2 13.6197 130.595 27.3215
6105 1 14.5286 132.185 26.05
6087 1 12.7104 132.173 28.6189
5630 1 17.2568 130.602 26.0384
5628 1 15.4384 130.588 28.6076
12565 2 16.3478 132.179 27.333
6052 1 18.1666 132.173 28.6189
5589 1 20.8946 130.588 28.6076
12082 2 19.076 130.595 27.3215
6053 1 19.9849 132.185 26.05
9349 2 21.8041 132.179 27.333
5654 1 13.6177 114.723 31.0239
12139 2 11.8002 114.739 29.7364
12136 2 12.7088 116.292 32.3254
12137 2 14.5283 116.322 29.7549
12090 2 15.4365 114.708 32.3074
12102 2 17.2564 114.739 29.7364
5655 1 16.3461 116.307 31.0421
12088 2 18.165 116.292 32.3254
2614 1 21.8023 116.307 31.0421
5607 1 19.074 114.723 31.0239
12060 2 20.8928 114.708 32.3074
12103 2 19.9846 116.322 29.7549
5639 1 13.6182 117.891 31.0596
12138 2 11.8003 117.905 29.7727
12120 2 12.7096 119.463 32.3595
12140 2 14.5285 119.489 29.7899
12089 2 15.4373 117.878 32.3428
12094 2 17.2565 117.905 29.7727
5637 1 16.3466 119.476 31.0765
12091 2 18.1658 119.463 32.3595
2615 1 21.8029 119.476 31.0765
5606 1 19.0745 117.891 31.0596
12059 2 20.8935 117.878 32.3428
12092 2 19.9848 119.489 29.7899
5638 1 13.6188 121.061 31.0928
12124 2 11.8006 121.072 29.8064
12121 2 12.7104 122.635 32.3912
12122 2 14.5288 122.657 29.8222
12076 2 15.4381 121.049 32.3757
12093 2 17.2568 121.072 29.8064
5640 1 16.3472 122.646 31.1084
12074 2 18.1666 122.635 32.3912
2606 1 21.8035 122.646 31.1084
5599 1 19.0751 121.061 31.0928
12058 2 20.8943 121.049 32.3757
12095 2 19.9851 122.657 29.8222
5625 1 13.6194 124.231 31.1234
12123 2 11.8009 124.241 29.8373
12112 2 12.7112 125.807 32.4201
12125 2 14.5292 125.826 29.8517
12075 2 15.4389 124.221 32.406
12080 2 17.2571 124.241 29.8373
5623 1 16.3478 125.817 31.1376
12077 2 18.1674 125.807 32.4201
2607 1 21.8041 125.817 31.1376
5598 1 19.0757 124.231 31.1234
12055 2 20.8951 124.221 32.406
12078 2 19.9854 125.826 29.8517
5624 1 13.62 127.403 31.1511
12116 2 11.8013 127.411 29.8653
12113 2 12.7119 128.981 32.4461
12114 2 14.5295 128.996 29.8782
12068 2 15.4396 127.394 32.4334
12079 2 17.2575 127.411 29.8653
5626 1 16.3484 128.988 31.1638
12066 2 18.1681 128.981 32.4461
2605 1 21.8046 128.988 31.1638
5588 1 19.0762 127.403 31.1511
12054 2 20.8959 127.394 32.4334
12081 2 19.9858 128.996 29.8782
5616 1 13.6205 130.575 31.1758
12115 2 11.8016 130.581 29.8902
12543 2 12.7124 132.155 32.469
12564 2 14.5299 132.167 29.9015
12067 2 15.4403 130.568 32.4579
12069 2 17.2578 130.581 29.8902
6037 1 16.3489 132.161 31.1869
12508 2 18.1687 132.155 32.469
5587 1 19.0768 130.575 31.1758
12051 2 20.8965 130.568 32.4579
3014 1 21.8051 132.161 31.1869
12509 2 19.9861 132.167 29.9015
5635 1 11.7982 114.692 33.5939
12086 2 13.6176 114.675 34.8763
5633 1 14.5269 116.277 33.6116
5604 1 17.2544 114.692 33.5939
12087 2 16.3464 116.262 34.8939
8854 2 21.8026 116.262 34.8939
12057 2 19.0738 114.675 34.8763
5605 1 19.9831 116.277 33.6116
5636 1 14.528 119.45 33.6454
5634 1 11.7993 117.864 33.6288
12072 2 13.6189 117.85 34.911
12070 2 16.3477 119.437 34.9275
5596 1 17.2556 117.864 33.6288
8855 2 21.8039 119.437 34.9275
5594 1 19.9843 119.45 33.6454
12056 2 19.0752 117.85 34.911
5619 1 14.5291 122.624 33.6767
5621 1 11.8005 121.037 33.6613
12071 2 13.6202 121.025 34.9434
12073 2 16.3489 122.613 34.9586
5595 1 17.2567 121.037 33.6613
8846 2 21.8052 122.613 34.9586
5597 1 19.9854 122.624 33.6767
12053 2 19.0765 121.025 34.9434
5622 1 14.5301 125.798 33.7053
12064 2 13.6214 124.201 34.9732
5620 1 11.8015 124.211 33.6913
12062 2 16.3501 125.789 34.9871
5585 1 17.2578 124.211 33.6913
8847 2 21.8063 125.789 34.9871
5583 1 19.9864 125.798 33.7053
12052 2 19.0776 124.201 34.9732
5613 1 14.531 128.973 33.7311
12063 2 13.6225 127.377 35.0003
5615 1 11.8025 127.386 33.7186
12065 2 16.3511 128.965 35.0128
5584 1 17.2587 127.386 33.7186
5586 1 19.9872 128.973 33.7311
12050 2 19.0787 127.377 35.0003
8845 2 21.8073 128.965 35.0128
12061 2 13.6234 130.554 35.0245
5614 1 11.8033 130.561 33.7429
6036 1 14.5317 132.149 33.7539
5578 1 17.2595 130.561 33.7429
12493 2 16.3519 132.143 35.0355
12049 2 19.0796 130.554 35.0245
9278 2 21.8081 132.143 35.0355
5987 1 19.988 132.149 33.7539
12262 2 11.7997 114.642 37.4428
17451 1 13.6187 114.626 38.7271
5632 1 12.7087 116.247 36.1792
12260 2 14.5288 116.232 37.4603
12251 2 17.256 114.642 37.4428
5592 1 15.436 114.659 36.1617
17836 1 16.3479 116.216 38.7445
5590 1 18.1649 116.247 36.1792
5574 1 20.8922 114.659 36.1617
17421 1 19.0749 114.626 38.7271
12252 2 19.985 116.232 37.4603
15024 1 21.8041 116.216 38.7445
12261 2 11.8016 117.821 37.4773
17837 1 13.6208 117.807 38.7614
5617 1 12.7103 119.424 36.2125
12263 2 14.5305 119.411 37.4936
12248 2 17.2578 117.821 37.4773
5591 1 15.4377 117.835 36.1961
17838 1 16.3499 119.397 38.7777
5593 1 18.1666 119.424 36.2125
17802 1 19.077 117.807 38.7614
5573 1 20.8939 117.835 36.1961
12246 2 19.9868 119.411 37.4936
15022 1 21.8061 119.397 38.7777
12258 2 11.8032 121 37.5094
17833 1 13.6227 120.988 38.7934
5618 1 12.7118 122.601 36.2434
12256 2 14.5321 122.59 37.5245
12247 2 17.2595 121 37.5094
5581 1 15.4392 121.013 36.2282
17831 1 16.3517 122.579 38.8085
5579 1 18.1681 122.601 36.2434
17801 1 19.0789 120.988 38.7934
5572 1 20.8955 121.013 36.2282
12249 2 19.9883 122.59 37.5245
15023 1 21.8079 122.579 38.8085
12257 2 11.8047 124.18 37.539
17832 1 13.6243 124.169 38.823
5611 1 12.7131 125.779 36.2717
12259 2 14.5335 125.77 37.5528
12244 2 17.261 124.18 37.539
5580 1 15.4406 124.19 36.2579
17834 1 16.3532 125.76 38.8368
5582 1 18.1694 125.779 36.2717
17796 1 19.0806 124.169 38.823
5571 1 20.8969 124.19 36.2579
12242 2 19.9898 125.77 37.5528
15020 1 21.8095 125.76 38.8368
12255 2 11.806 127.36 37.5659
17822 1 13.6258 127.351 38.8498
5612 1 12.7143 128.958 36.2973
12253 2 14.5347 128.95 37.5783
12243 2 17.2623 127.36 37.5659
17820 1 16.3546 128.942 38.8622
5577 1 15.4419 127.368 36.2849
5575 1 18.1705 128.958 36.2973
17795 1 19.082 127.351 38.8498
5570 1 20.8981 127.368 36.2849
12245 2 19.991 128.95 37.5783
15021 1 21.8108 128.942 38.8622
12254 2 11.8071 130.54 37.59
17821 1 13.627 130.533 38.8738
6015 1 12.7152 132.137 36.3199
12672 2 14.5357 132.13 37.6009
12241 2 17.2634 130.54 37.59
17823 1 16.3557 132.124 38.8847
5576 1 15.4429 130.547 36.309
5986 1 18.1715 132.137 36.3199
17782 1 19.0833 130.533 38.8738
5569 1 20.8991 130.547 36.309
15019 1 21.8119 132.124 38.8847
12658 2 19.992 132.13 37.6009
23459 2 12.7123 116.201 40.0245
17449 1 11.8027 114.592 41.2901
23049 2 13.624 114.575 42.5688
17835 1 14.532 116.185 41.3077
23441 2 16.3533 116.169 42.5865
17401 1 17.2589 114.592 41.2901
23063 2 15.4394 114.609 40.007
23448 2 18.1686 116.201 40.0245
17798 1 19.9882 116.185 41.3077
23013 2 19.0803 114.575 42.5688
23015 2 20.8956 114.609 40.007
20638 2 21.8096 116.169 42.5865
23460 2 12.7144 119.384 40.0579
17829 1 11.805 117.778 41.3246
17827 1 14.5342 119.371 41.3411
23446 2 15.4415 117.792 40.0415
17799 1 17.2613 117.778 41.3246
23444 2 18.1706 119.384 40.0579
17800 1 19.9905 119.371 41.3411
23400 2 20.8977 117.792 40.0415
23456 2 12.7162 122.567 40.0888
17828 1 11.8071 120.963 41.3569
17830 1 14.5362 122.556 41.372
23445 2 15.4434 120.976 40.0737
17793 1 17.2633 120.963 41.3569
23447 2 18.1724 122.567 40.0888
17791 1 19.9924 122.556 41.372
23399 2 20.8997 120.976 40.0737
23457 2 12.7178 125.751 40.1171
17818 1 11.8089 124.148 41.3866
17816 1 14.5379 125.741 41.4004
23438 2 15.4451 124.159 40.1033
17792 1 17.2652 124.148 41.3866
23436 2 18.174 125.751 40.1171
17794 1 19.9941 125.741 41.4004
23398 2 20.9014 124.159 40.1033
23452 2 12.7191 128.934 40.1426
17817 1 11.8105 127.334 41.4135
17819 1 14.5393 128.926 41.4259
23437 2 15.4466 127.342 40.1303
17779 1 17.2668 127.334 41.4135
23439 2 18.1754 128.934 40.1426
17777 1 19.9956 128.926 41.4259
23391 2 20.9028 127.342 40.1303
23453 2 12.7203 132.118 40.1651
17810 1 11.8119 130.519 41.4375
17808 1 14.5406 132.112 41.4484
17778 1 17.2681 130.519 41.4375
23424 2 15.4479 130.526 40.1543
23422 2 18.1765 132.118 40.1651
17780 1 19.9968 132.112 41.4484
23390 2 20.9041 130.526 40.1543
17825 1 12.7173 116.154 43.8686
23047 2 11.8099 114.542 45.1282
23440 2 14.5392 116.138 45.1464
17399 1 15.4442 114.559 43.8507
22994 2 17.2662 114.542 45.1282
17797 1 18.1736 116.154 43.8686
23393 2 19.9954 116.138 45.1464
17351 1 20.9005 114.559 43.8507
23442 2 13.6263 117.763 42.6037
17826 1 12.7196 119.344 43.9025
23430 2 11.8122 117.734 45.1639
23428 2 14.5414 119.33 45.1809
23443 2 16.3555 119.357 42.6203
17789 1 15.4466 117.749 43.8859
23394 2 17.2684 117.734 45.1639
17787 1 18.1758 119.344 43.9025
23397 2 19.0825 117.763 42.6037
17736 1 20.9029 117.749 43.8859
23395 2 19.9976 119.33 45.1809
20634 2 21.8117 119.357 42.6203
23434 2 13.6284 120.951 42.6362
17814 1 12.7216 122.533 43.934
23429 2 11.8142 120.926 45.1971
23431 2 14.5433 122.521 45.2127
23432 2 16.3574 122.544 42.6515
17788 1 15.4488 120.938 43.9186
23386 2 17.2705 120.926 45.1971
17790 1 18.1779 122.533 43.934
23396 2 19.0846 120.951 42.6362
17735 1 20.905 120.938 43.9186
23384 2 19.9995 122.521 45.2127
20635 2 21.8136 122.544 42.6515
23433 2 13.6302 124.138 42.6661
17815 1 12.7234 125.722 43.9626
23416 2 11.8161 124.116 45.2275
23414 2 14.545 125.712 45.2416
23435 2 16.3591 125.731 42.6801
17775 1 15.4506 124.127 43.9486
23385 2 17.2723 124.116 45.2275
17773 1 18.1796 125.722 43.9626
23389 2 19.0864 124.138 42.6661
17734 1 20.9069 124.127 43.9486
23387 2 20.0012 125.712 45.2416
20630 2 21.8153 125.731 42.6801
23420 2 13.6317 127.325 42.6932
17806 1 12.7249 128.91 43.9883
23415 2 11.8176 127.307 45.2549
23417 2 14.5465 128.902 45.2675
23418 2 16.3605 128.918 42.7057
17774 1 15.4523 127.316 43.9758
23371 2 17.2739 127.307 45.2549
17776 1 18.1811 128.91 43.9883
23388 2 19.088 127.325 42.6932
17727 1 20.9085 127.316 43.9758
23369 2 20.0027 128.902 45.2675
20631 2 21.8168 128.918 42.7057
23419 2 13.6331 130.512 42.7174
17807 1 12.7261 132.099 44.011
23408 2 11.819 130.497 45.2793
23406 2 14.5477 132.093 45.2902
23421 2 16.3618 132.105 42.7282
17760 1 15.4537 130.505 44
23370 2 17.2752 130.497 45.2793
17758 1 18.1824 132.099 44.011
23374 2 19.0893 130.512 42.7174
17726 1 20.9099 130.505 44
23372 2 20.004 132.093 45.2902
20629 2 21.818 132.105 42.7282
23426 2 12.7262 116.107 47.7042
17383 1 11.8184 114.492 48.9651
17385 1 13.6307 114.525 46.4089
17783 1 14.5476 116.092 48.9842
17784 1 16.36 116.123 46.4274
17332 1 17.2746 114.492 48.9651
22992 2 15.4532 114.509 47.6854
23392 2 18.1824 116.107 47.7042
17729 1 20.0038 116.092 48.9842
17349 1 19.087 114.525 46.4089
22953 2 20.9094 114.509 47.6854
15004 1 21.8163 116.123 46.4274
17767 1 11.8205 117.691 49.0026
17785 1 13.6331 117.72 46.4451
23427 2 12.7282 119.303 47.7397
17765 1 14.5496 119.289 49.0203
17730 1 17.2767 117.691 49.0026
17786 1 16.3622 119.317 46.4622
23382 2 15.4553 117.705 47.7223
23380 2 18.1845 119.303 47.7397
17731 1 20.0058 119.289 49.0203
17733 1 19.0893 117.72 46.4451
23334 2 20.9116 117.705 47.7223
14992 1 21.8185 119.317 46.4622
17766 1 11.8224 120.888 49.0371
17771 1 13.6351 120.913 46.4786
23412 2 12.7301 122.498 47.7723
17722 1 17.2786 120.888 49.0371
17768 1 14.5514 122.486 49.0532
17769 1 16.3642 122.51 46.4943
23381 2 15.4573 120.9 47.7564
23383 2 18.1863 122.498 47.7723
14993 1 21.8204 122.51 46.4943
17720 1 20.0076 122.486 49.0532
17732 1 19.0914 120.913 46.4786
23333 2 20.9135 120.9 47.7564
17752 1 11.8241 124.084 49.0685
17770 1 13.637 124.106 46.5093
23413 2 12.7317 125.692 47.8018
17721 1 17.2804 124.084 49.0685
17750 1 14.553 125.682 49.083
17772 1 16.3659 125.702 46.5235
23367 2 15.459 124.095 47.7874
14984 1 21.8222 125.702 46.5235
17723 1 20.0093 125.682 49.083
17725 1 19.0932 124.106 46.5093
23332 2 20.9153 124.095 47.7874
23365 2 18.1879 125.692 47.8018
17751 1 11.8256 127.28 49.0967
17756 1 13.6386 127.298 46.5369
23404 2 12.7331 128.886 47.8281
17707 1 17.2819 127.28 49.0967
17753 1 14.5544 128.878 49.1096
17754 1 16.3674 128.894 46.5495
23366 2 15.4606 127.289 47.8153
14985 1 21.8237 128.894 46.5495
17705 1 20.0107 128.878 49.1096
17724 1 19.0948 127.298 46.5369
23325 2 20.9168 127.289 47.8153
23368 2 18.1894 128.886 47.8281
17744 1 11.827 130.476 49.1216
17755 1 13.64 130.49 46.5614
23405 2 12.7344 132.08 47.8511
17706 1 17.2832 130.476 49.1216
17742 1 14.5557 132.073 49.1328
17757 1 16.3687 132.086 46.5724
23353 2 15.4619 130.483 47.84
14983 1 21.8249 132.086 46.5724
17708 1 20.0119 132.073 49.1328
17710 1 19.0962 130.49 46.5614
23324 2 20.9181 130.483 47.84
23351 2 18.1906 132.08 47.8511
17763 1 12.736 116.061 51.5395
23425 2 10.9141 116.076 50.2603
22980 2 13.6412 114.476 50.2408
23377 2 16.3703 116.076 50.2603
17330 1 15.4632 114.459 51.5196
17728 1 18.1922 116.061 51.5395
17300 1 20.9194 114.459 51.5196
22951 2 19.0975 114.476 50.2408
17764 1 12.7377 119.262 51.5768
23378 2 13.6432 117.676 50.2791
23410 2 10.9159 119.276 50.297
17718 1 15.465 117.662 51.5586
23379 2 16.3722 119.276 50.297
17676 1 20.9212 117.662 51.5586
17716 1 18.194 119.262 51.5768
23331 2 19.0994 117.676 50.2791
17748 1 12.7394 122.463 51.6108
23363 2 13.6449 120.875 50.3142
23411 2 10.9176 122.474 50.3305
17717 1 15.4667 120.863 51.5942
23361 2 16.3739 122.474 50.3305
17675 1 20.9229 120.863 51.5942
17719 1 18.1956 122.463 51.6108
23330 2 19.1012 120.875 50.3142
17749 1 12.7409 125.662 51.6414
23362 2 13.6466 124.073 50.346
23402 2 10.9192 125.672 50.3607
17703 1 15.4683 124.063 51.6265
23364 2 16.3754 125.672 50.3607
17674 1 20.9245 124.063 51.6265
17701 1 18.1971 125.662 51.6414
23323 2 19.1028 124.073 50.346
17740 1 12.7422 128.861 51.6684
23349 2 13.648 127.271 50.3745
23403 2 10.9205 128.87 50.3875
17702 1 15.4696 127.262 51.6553
23347 2 16.3768 128.87 50.3875
17668 1 20.9259 127.262 51.6553
17704 1 18.1984 128.861 51.6684
23322 2 19.1042 127.271 50.3745
17741 1 12.7433 132.06 51.692
23348 2 13.6492 130.468 50.3997
23401 2 10.9217 132.067 50.4109
17691 1 15.4709 130.461 51.6807
23350 2 16.3779 132.067 50.4109
17667 1 20.9271 130.461 51.6807
17689 1 18.1995 132.06 51.692
23312 2 19.1055 130.468 50.3997
17762 1 10.9251 116.03 54.0933
23355 2 12.7485 116.015 55.3683
17320 1 13.6525 114.427 54.0726
22978 2 11.8301 114.443 52.7945
17713 1 16.3814 116.03 54.0933
23376 2 14.5591 116.046 52.8149
22940 2 15.4759 114.411 55.3471
22942 2 17.2863 114.443 52.7945
23326 2 18.2047 116.015 55.3683
23327 2 20.0153 116.046 52.8149
17298 1 19.1087 114.427 54.0726
22933 2 20.9321 114.411 55.3471
17714 1 13.654 117.633 54.1132
17746 1 10.9266 119.236 54.1321
23356 2 12.7498 119.222 55.4077
23359 2 11.8318 117.647 52.8344
17715 1 16.3829 119.236 54.1321
23316 2 15.4773 117.619 55.3885
23328 2 17.288 117.647 52.8344
23357 2 14.5607 119.249 52.8529
17673 1 19.1102 117.633 54.1132
23298 2 20.9335 117.619 55.3885
23314 2 18.2061 119.222 55.4077
23329 2 20.0169 119.249 52.8529
17699 1 13.6555 120.838 54.1501
17747 1 10.928 122.439 54.1672
23341 2 12.7511 122.428 55.4433
23358 2 11.8333 120.85 52.8706
17697 1 16.3843 122.439 54.1672
23315 2 15.4786 120.825 55.426
23320 2 17.2896 120.85 52.8706
23360 2 14.5622 122.451 52.8875
17672 1 19.1117 120.838 54.1501
23297 2 20.9349 120.825 55.426
23317 2 18.2074 122.428 55.4433
23318 2 20.0184 122.451 52.8875
17698 1 13.6568 124.041 54.1833
17738 1 10.9294 125.642 54.1986
23342 2 12.7524 125.632 55.4751
23345 2 11.8348 124.052 52.9034
17700 1 16.3856 125.642 54.1986
23305 2 15.4799 124.03 55.4597
23319 2 17.291 124.052 52.9034
23343 2 14.5636 125.652 52.9184
17666 1 19.1131 124.041 54.1833
23296 2 20.9361 124.03 55.4597
23303 2 18.2086 125.632 55.4751
23321 2 20.0198 125.652 52.9184
17687 1 13.6581 127.244 54.2129
17739 1 10.9305 128.845 54.2263
23335 2 12.7535 128.836 55.5031
23344 2 11.8361 127.253 52.9326
23346 2 14.5648 128.853 52.9459
23309 2 17.2923 127.253 52.9326
17685 1 16.3868 128.845 54.2263
23304 2 15.4811 127.234 55.4896
23307 2 20.021 128.853 52.9459
23306 2 18.2097 128.836 55.5031
23295 2 20.9373 127.234 55.4896
17665 1 19.1143 127.244 54.2129
23339 2 11.8373 130.453 52.9582
23336 2 12.7545 132.04 55.5274
17737 1 10.9316 132.047 54.2503
17686 1 13.6592 130.446 54.2387
23337 2 14.5659 132.053 52.9697
23308 2 17.2935 130.453 52.9582
23301 2 15.4821 130.438 55.5157
17688 1 16.3878 132.047 54.2503
23310 2 20.0221 132.053 52.9697
23299 2 18.2107 132.04 55.5274
23294 2 20.9384 130.438 55.5157
17659 1 19.1154 130.446 54.2387
18011 1 12.7613 115.971 59.1983
23652 2 10.9384 115.985 57.9207
17318 1 11.8423 114.395 56.6246
23259 2 13.6659 114.38 57.8988
17712 1 14.5711 116 56.6462
23644 2 16.3946 115.985 57.9207
17615 1 15.4889 114.364 59.1759
17293 1 17.2986 114.395 56.6246
17669 1 20.0273 116 56.6462
18000 1 18.2175 115.971 59.1983
17567 1 20.9451 114.364 59.1759
23229 2 19.1221 114.38 57.8988
17695 1 11.8436 117.605 56.6668
18012 1 12.7623 119.182 59.2398
23650 2 10.9395 119.195 57.9615
23645 2 13.6671 117.591 57.9416
17693 1 14.5723 119.209 56.6863
17670 1 17.2998 117.605 56.6668
17998 1 15.4899 117.576 59.2196
23646 2 16.3958 119.195 57.9615
17952 1 20.9461 117.576 59.2196
17671 1 20.0286 119.209 56.6863
17996 1 18.2185 119.182 59.2398
23610 2 19.1233 117.591 57.9416
17694 1 11.8448 120.812 56.7049
23651 2 10.9406 122.404 57.9982
23641 2 13.6682 120.8 57.9804
17696 1 14.5735 122.416 56.7225
17997 1 15.4909 120.787 59.2589
17663 1 17.3011 120.812 56.7049
23639 2 16.3969 122.404 57.9982
17951 1 20.9472 120.787 59.2589
17661 1 20.0298 122.416 56.7225
23609 2 19.1244 120.8 57.9804
17683 1 11.846 124.019 56.7391
23648 2 10.9417 125.612 58.0308
23640 2 13.6693 124.008 58.015
17681 1 14.5747 125.622 56.7548
17662 1 17.3022 124.019 56.7391
23642 2 16.398 125.612 58.0308
17664 1 20.0309 125.622 56.7548
23604 2 19.1256 124.008 58.015
17682 1 11.8471 127.225 56.7694
23649 2 10.9427 128.819 58.0594
23630 2 13.6704 127.216 58.0456
17684 1 14.5758 128.828 56.7831
17656 1 17.3034 127.225 56.7694
23628 2 16.399 128.819 58.0594
17654 1 20.032 128.828 56.7831
23603 2 19.1266 127.216 58.0456
17679 1 11.8481 130.431 56.7958
23647 2 10.9437 132.026 58.0841
23629 2 13.6713 130.423 58.0723
17677 1 14.5767 132.033 56.8075
17655 1 17.3044 130.431 56.7958
23631 2 16.3999 132.026 58.0841
17657 1 20.033 132.033 56.8075
23590 2 19.1276 130.423 58.0723
18010 1 10.9517 115.941 61.75
17601 1 13.6794 114.334 61.727
23257 2 11.8563 114.349 60.4499
17993 1 16.408 115.941 61.75
23643 2 14.5849 115.956 60.4725
23209 2 17.3125 114.349 60.4499
23606 2 20.0411 115.956 60.4725
17565 1 19.1356 114.334 61.727
17994 1 13.6803 117.548 61.7719
18006 1 10.9526 119.155 61.7926
23637 2 11.8573 117.562 60.4941
17995 1 16.4089 119.155 61.7926
23607 2 17.3135 117.562 60.4941
23635 2 14.5859 119.169 60.5145
17949 1 19.1365 117.548 61.7719
23608 2 20.0421 119.169 60.5145
18008 1 12.7633 122.392 59.277
17986 1 13.6812 120.762 61.8123
18007 1 10.9535 122.369 61.8308
23636 2 11.8583 120.775 60.5339
17984 1 16.4098 122.369 61.8308
23601 2 17.3145 120.775 60.5339
23638 2 14.5869 122.38 60.5522
17999 1 18.2196 122.392 59.277
17948 1 19.1374 120.762 61.8123
23599 2 20.0431 122.38 60.5522
18009 1 12.7643 125.602 59.3101
17985 1 13.6821 123.975 61.8483
18002 1 10.9544 125.582 61.8646
23626 2 11.8592 123.986 60.5694
17990 1 15.4919 123.997 59.2941
17987 1 16.4107 125.582 61.8646
23600 2 17.3155 123.986 60.5694
23624 2 14.5878 125.592 60.5856
17950 1 20.9482 123.997 59.2941
17988 1 18.2206 125.602 59.3101
17941 1 19.1383 123.975 61.8483
23602 2 20.0441 125.592 60.5856
18004 1 12.7653 128.811 59.339
17972 1 13.683 127.188 61.8799
18003 1 10.9553 128.794 61.8941
23625 2 11.8602 127.197 60.6007
17989 1 15.4929 127.206 59.325
17970 1 16.4116 128.794 61.8941
23587 2 17.3164 127.197 60.6007
23627 2 14.5888 128.802 60.6148
17943 1 20.9492 127.206 59.325
17991 1 18.2215 128.811 59.339
17940 1 19.1392 127.188 61.8799
23585 2 20.045 128.802 60.6148
18005 1 12.7662 132.02 59.3639
17971 1 13.6839 130.4 61.9073
18001 1 10.9562 132.006 61.9194
23618 2 11.8611 130.407 60.6279
17976 1 15.4939 130.415 59.3519
17973 1 16.4124 132.006 61.9194
23586 2 17.3173 130.407 60.6279
23616 2 14.5896 132.012 60.6399
17942 1 20.9501 130.415 59.3519
17974 1 18.2224 132.02 59.3639
17926 1 19.1401 130.4 61.9073
23588 2 20.0459 132.012 60.6399
23632 2 10.9662 115.896 65.5745
23633 2 12.7754 115.926 63.0238
17599 1 11.8701 114.303 64.2782
23193 2 13.6939 114.287 65.5508
17992 1 14.5986 115.912 64.3017
23592 2 16.4224 115.896 65.5745
17546 1 17.3263 114.303 64.2782
23207 2 15.5031 114.318 63.0006
17945 1 20.0549 115.912 64.3017
23605 2 18.2317 115.926 63.0238
23157 2 19.1501 114.287 65.5508
23159 2 20.9593 114.318 63.0006
17982 1 11.8709 117.52 64.3241
23593 2 13.6948 117.506 65.597
23620 2 10.9671 119.115 65.6184
23634 2 12.7764 119.142 63.0669
17946 1 17.3271 117.52 64.3241
17980 1 14.5995 119.129 64.3453
23594 2 16.4234 119.115 65.6184
23597 2 15.504 117.534 63.0459
17947 1 20.0557 119.129 64.3453
23541 2 19.151 117.506 65.597
23544 2 20.9603 117.534 63.0459
23595 2 18.2326 119.142 63.0669
17981 1 11.8718 120.737 64.3654
23579 2 13.6957 120.724 65.6386
23621 2 10.968 122.333 65.6577
23622 2 12.7773 122.357 63.1054
17938 1 17.328 120.737 64.3654
17983 1 14.6003 122.345 64.3844
23577 2 16.4243 122.333 65.6577
23596 2 15.5049 120.749 63.0867
17936 1 20.0565 122.345 64.3844
23540 2 19.1519 120.724 65.6386
23543 2 20.9612 120.749 63.0867
23598 2 18.2335 122.357 63.1054
17968 1 11.8726 123.953 64.4022
23578 2 13.6966 123.942 65.6756
23612 2 10.9689 125.55 65.6923
23623 2 12.7782 125.571 63.1395
17937 1 17.3289 123.953 64.4022
17966 1 14.6012 125.561 64.4188
23580 2 16.4251 125.55 65.6923
23583 2 15.5058 123.964 63.123
17939 1 20.0574 125.561 64.4188
23533 2 19.1528 123.942 65.6756
23542 2 20.9621 123.964 63.123
23581 2 18.2344 125.571 63.1395
17967 1 11.8735 127.169 64.4344
23564 2 13.6975 127.159 65.7079
23613 2 10.9698 128.768 65.7225
23614 2 12.7791 128.785 63.1692
17923 1 17.3297 127.169 64.4344
17969 1 14.602 128.777 64.4488
23562 2 16.426 128.768 65.7225
23582 2 15.5067 127.178 63.1549
17921 1 20.0583 128.777 64.4488
23532 2 19.1537 127.159 65.7079
23535 2 20.963 127.178 63.1549
23584 2 18.2353 128.785 63.1692
17960 1 11.8743 130.384 64.4622
23563 2 13.6983 130.376 65.7359
23611 2 10.9706 131.984 65.7483
23615 2 12.7799 131.999 63.1947
17922 1 17.3306 130.384 64.4622
17958 1 14.6028 131.992 64.4744
23565 2 16.4269 131.984 65.7483
23568 2 15.5076 130.392 63.1825
17924 1 20.0591 131.992 64.4744
23518 2 19.1546 130.376 65.7359
23534 2 20.9638 130.392 63.1825
23566 2 18.2361 131.999 63.1947
17978 1 12.7894 115.883 66.8542
23191 2 11.8847 114.256 68.0997
23591 2 14.6133 115.866 68.1237
17544 1 15.5169 114.273 66.8308
23140 2 17.341 114.256 68.0997
17944 1 18.2456 115.883 66.8542
23537 2 20.0696 115.866 68.1237
17505 1 20.9732 114.273 66.8308
17979 1 12.7902 119.103 66.8988
23575 2 11.8857 117.477 68.1466
17934 1 15.5179 117.493 66.8771
23538 2 17.3419 117.477 68.1466
23573 2 14.6143 119.087 68.1683
17886 1 20.9742 117.493 66.8771
17932 1 18.2464 119.103 66.8988
23539 2 20.0705 119.087 68.1683
17964 1 12.791 122.322 66.9386
23574 2 11.8866 120.698 68.1888
17933 1 15.5187 120.713 66.9193
23530 2 17.3429 120.698 68.1888
23576 2 14.6152 122.308 68.2082
17885 1 20.975 120.713 66.9193
17935 1 18.2473 122.322 66.9386
23528 2 20.0714 122.308 68.2082
17965 1 12.7919 125.542 66.9736
23560 2 11.8876 123.919 68.2263
17919 1 15.5196 123.932 66.9567
23529 2 17.3438 123.919 68.2263
23558 2 14.6161 125.529 68.2432
17884 1 20.9758 123.932 66.9567
17917 1 18.2481 125.542 66.9736
23531 2 20.0724 125.529 68.2432
17956 1 12.7927 128.76 67.004
23559 2 11.8885 127.14 68.2591
17918 1 15.5204 127.151 66.9893
23515 2 17.3447 127.14 68.2591
23561 2 14.6171 128.75 68.2737
17877 1 20.9767 127.151 66.9893
17920 1 18.249 128.76 67.004
23513 2 20.0733 128.75 68.2737
17957 1 12.7936 131.979 67.0299
23552 2 11.8894 130.36 68.2873
17905 1 15.5213 130.37 67.0175
23514 2 17.3456 130.36 68.2873
23550 2 14.618 131.97 68.2998
17876 1 20.9775 130.37 67.0175
17903 1 18.2498 131.979 67.0299
23516 2 20.0742 131.97 68.2998
17977 1 10.9789 115.854 69.4121
23571 2 12.8037 115.835 70.6694
17530 1 11.8909 114.211 71.9631
17532 1 13.7065 114.243 69.3879
17928 1 14.6196 115.824 71.9873
17929 1 16.4352 115.854 69.4121
17494 1 17.3472 114.211 71.9631
23138 2 15.5313 114.223 70.6453
17879 1 20.0759 115.824 71.9873
23536 2 18.2599 115.835 70.6694
17503 1 19.1628 114.243 69.3879
23108 2 20.9875 114.223 70.6453
17911 1 11.8921 117.436 72.0103
17930 1 13.7075 117.465 69.4351
17962 1 10.9799 119.076 69.457
23572 2 12.8048 119.059 70.7141
17880 1 17.3483 117.436 72.0103
17909 1 14.6208 119.048 72.0322
17931 1 16.4361 119.076 69.457
23526 2 15.5324 117.447 70.6924
17881 1 20.077 119.048 72.0322
17883 1 19.1638 117.465 69.4351
23484 2 20.9886 117.447 70.6924
23524 2 18.261 119.059 70.7141
17910 1 11.8932 120.661 72.0528
17915 1 13.7085 120.687 69.4776
17963 1 10.9809 122.298 69.497
23556 2 12.8059 122.283 70.7541
17872 1 17.3495 120.661 72.0528
17912 1 14.622 122.274 72.0723
17913 1 16.4371 122.298 69.497
23525 2 15.5335 120.671 70.7347
17870 1 20.0782 122.274 72.0723
17882 1 19.1647 120.687 69.4776
23483 2 20.9897 120.671 70.7347
23527 2 18.2621 122.283 70.7541
17897 1 11.8945 123.886 72.0906
17914 1 13.7095 123.909 69.5152
17954 1 10.9819 125.52 69.5322
23557 2 12.807 125.507 70.7894
17871 1 17.3507 123.886 72.0906
17895 1 14.6232 125.499 72.1077
17916 1 16.4381 125.52 69.5322
23511 2 15.5345 123.895 70.7723
17873 1 20.0794 125.499 72.1077
17875 1 19.1657 123.909 69.5152
23482 2 20.9908 123.895 70.7723
23509 2 18.2632 125.507 70.7894
17896 1 11.8957 127.112 72.1236
17901 1 13.7105 127.131 69.5481
17955 1 10.9829 128.743 69.5629
23548 2 12.808 128.731 70.82
17861 1 17.3519 127.112 72.1236
17898 1 14.6244 128.724 72.1384
17899 1 16.4391 128.743 69.5629
23510 2 15.5356 127.119 70.8053
17859 1 20.0806 128.724 72.1384
17874 1 19.1667 127.131 69.5481
23476 2 20.9919 127.119 70.8053
23512 2 18.2643 128.731 70.82
17891 1 11.8968 130.337 72.1521
17900 1 13.7115 130.354 69.5765
17953 1 10.9838 131.965 69.589
23549 2 12.809 131.955 70.8463
17860 1 17.3531 130.337 72.1521
17889 1 14.6255 131.95 72.1647
17902 1 16.44 131.965 69.589
23499 2 15.5366 130.343 70.8337
17862 1 20.0818 131.95 72.1647
17864 1 19.1677 130.354 69.5765
23475 2 20.9929 130.343 70.8337
23497 2 18.2653 131.955 70.8463
17907 1 12.7454 115.801 74.639
23570 2 10.9922 115.802 73.2011
23126 2 11.8807 114.164 75.6524
23128 2 13.7196 114.189 73.1771
23520 2 14.6094 115.778 75.6761
23521 2 16.4484 115.802 73.2011
17492 1 15.4732 114.189 74.615
23101 2 17.3369 114.164 75.6524
17878 1 18.2016 115.801 74.639
23477 2 20.0656 115.778 75.6761
17485 1 20.9294 114.189 74.615
23106 2 19.1759 114.189 73.1771
17908 1 12.7463 119.028 74.6836
23503 2 11.8819 117.392 75.6989
23522 2 13.7209 117.416 73.224
23554 2 10.9934 119.029 73.2458
17868 1 15.4739 117.414 74.6619
23478 2 17.3382 117.392 75.6989
23501 2 14.6107 119.007 75.7204
23523 2 16.4497 119.029 73.2458
17850 1 20.9301 117.414 74.6619
17866 1 18.2025 119.028 74.6836
23479 2 20.0669 119.007 75.7204
23481 2 19.1772 117.416 73.224
17893 1 12.7475 122.255 74.7236
23502 2 11.8833 120.622 75.7409
23507 2 13.7222 120.643 73.2663
23555 2 10.9947 122.257 73.2857
17867 1 15.475 120.641 74.7042
23471 2 17.3395 120.622 75.7409
23504 2 14.6121 122.236 75.7602
23505 2 16.451 122.257 73.2857
17849 1 20.9312 120.641 74.7042
17869 1 18.2038 122.255 74.7236
23469 2 20.0684 122.236 75.7602
23480 2 19.1784 120.643 73.2663
17894 1 12.749 125.483 74.7589
23491 2 11.8848 123.851 75.7784
23506 2 13.7235 123.87 73.304
23546 2 10.996 125.484 73.3211
17857 1 15.4763 123.869 74.7418
23470 2 17.341 123.851 75.7784
23489 2 14.6137 125.466 75.7954
23508 2 16.4522 125.484 73.3211
17848 1 20.9326 123.869 74.7418
17855 1 18.2052 125.483 74.7589
23472 2 20.0699 125.466 75.7954
23474 2 19.1797 123.87 73.304
17887 1 12.7505 128.711 74.7896
23490 2 11.8863 127.082 75.8113
23495 2 13.7247 127.098 73.337
23547 2 10.9972 128.711 73.3518
17856 1 15.4778 127.097 74.7748
23464 2 17.3425 127.082 75.8113
23492 2 14.6152 128.697 75.8261
23493 2 16.4535 128.711 73.3518
17847 1 20.9341 127.097 74.7748
17858 1 18.2067 128.711 74.7896
23462 2 20.0714 128.697 75.8261
23473 2 19.181 127.098 73.337
17888 1 12.7519 131.94 74.8159
23487 2 11.8878 130.312 75.8398
23494 2 13.7259 130.325 73.3655
23545 2 10.9984 131.938 73.3781
17853 1 15.4793 130.325 74.8033
23463 2 17.344 130.312 75.8398
23485 2 14.6166 131.927 75.8524
23496 2 16.4546 131.938 73.3781
17846 1 20.9356 130.325 74.8033
17851 1 18.2082 131.94 74.8159
23465 2 20.0728 131.927 75.8524
23467 2 19.1822 130.325 73.3655
5951 1 12.7017 132.328 -2.37854
12441 2 11.8131 133.893 -0.923009
12449 2 13.6243 133.907 -3.43033
12447 2 14.5419 132.325 -0.935108
5938 1 15.4287 133.895 -2.36644
12411 2 17.2693 133.893 -0.923009
12448 2 16.3533 132.341 -3.44232
5940 1 18.158 132.328 -2.37854
5892 1 20.885 133.895 -2.36644
12410 2 19.9982 132.325 -0.935108
12414 2 19.0805 133.907 -3.43033
9192 2 21.8095 132.341 -3.44232
5952 1 12.6997 135.463 -2.35548
12440 2 11.8118 137.029 -0.901999
12445 2 13.6229 137.04 -3.40947
12439 2 14.5405 135.461 -0.911974
5948 1 12.6983 138.597 -2.33672
12442 2 14.5394 138.596 -0.893077
5937 1 15.4271 137.03 -2.34559
12405 2 17.2681 137.029 -0.901999
12450 2 16.3517 135.473 -3.41938
5936 1 18.1559 135.463 -2.35548
12443 2 16.3504 138.606 -3.40059
5939 1 18.1546 138.597 -2.33672
5891 1 20.8833 137.03 -2.34559
12412 2 19.9968 135.461 -0.911974
12413 2 19.0791 137.04 -3.40947
9190 2 21.8079 135.473 -3.41938
12403 2 19.9956 138.596 -0.893077
9191 2 21.8067 138.606 -3.40059
12430 2 11.8108 140.164 -0.885202
12444 2 13.6218 140.172 -3.39276
5949 1 12.6973 141.731 -2.3221
12428 2 14.5385 141.731 -0.878376
5930 1 15.4259 140.164 -2.32889
12404 2 17.267 140.164 -0.885202
5928 1 18.1535 141.731 -2.3221
12446 2 16.3495 141.738 -3.38597
5890 1 20.8821 140.164 -2.32889
12408 2 19.078 140.172 -3.39276
12406 2 19.9947 141.731 -0.878376
9188 2 21.8057 141.738 -3.38597
12429 2 11.81 143.299 -0.8726
12434 2 13.621 143.304 -3.38022
5944 1 12.6966 144.864 -2.31165
12431 2 14.5378 144.866 -0.867873
5929 1 15.425 143.297 -2.31636
12391 2 17.2662 143.299 -0.8726
5931 1 18.1528 144.864 -2.31165
12432 2 16.3488 144.869 -3.37551
5883 1 20.8812 143.297 -2.31636
12407 2 19.0772 143.304 -3.38022
12389 2 19.994 144.866 -0.867873
9189 2 21.805 144.869 -3.37551
12422 2 11.8095 146.434 -0.864196
12433 2 13.6204 146.435 -3.37185
5945 1 12.6961 147.997 -2.30538
12420 2 14.5374 148.001 -0.86157
5916 1 15.4244 146.431 -2.30799
12390 2 17.2657 146.434 -0.864196
12435 2 16.3484 148.001 -3.36924
5914 1 18.1524 147.997 -2.30538
5882 1 20.8807 146.431 -2.30799
12394 2 19.0767 146.435 -3.37185
12392 2 19.9936 148.001 -0.86157
9187 2 21.8046 148.001 -3.36924
12421 2 11.8092 149.568 -0.859994
12423 2 13.6201 149.567 -3.36767
3263 1 12.696 151.13 -2.30329
9591 2 14.5373 151.135 -0.859469
5915 1 15.4241 149.564 -2.30381
12373 2 17.2654 149.568 -0.859994
9592 2 16.3482 151.132 -3.36715
3252 1 18.1522 151.13 -2.30329
5867 1 20.8804 149.564 -2.30381
12393 2 19.0764 149.567 -3.36767
9554 2 19.9935 151.135 -0.859469
6336 2 21.8045 151.132 -3.36715
5934 1 13.6282 133.883 0.299961
12437 2 12.7212 132.308 1.61976
12438 2 12.7197 135.447 1.64301
5933 1 16.3571 132.314 0.287831
12401 2 15.4486 133.878 1.63192
12409 2 18.1775 132.308 1.61976
5935 1 16.3556 135.452 0.311018
12399 2 18.176 135.447 1.64301
5889 1 19.0844 133.883 0.299961
12348 2 20.9048 133.878 1.63192
2878 1 21.8133 132.314 0.287831
2874 1 21.8118 135.452 0.311018
5926 1 13.6268 137.021 0.321006
12426 2 12.7185 138.586 1.66201
12400 2 15.4472 137.016 1.65304
12402 2 18.1748 138.586 1.66201
5924 1 16.3543 138.589 0.329937
5888 1 19.083 137.021 0.321006
12347 2 20.9035 137.016 1.65304
2875 1 21.8106 138.589 0.329937
5925 1 13.6257 140.157 0.337818
12427 2 12.7176 141.724 1.67677
12387 2 15.4461 140.155 1.66992
12385 2 18.1738 141.724 1.67677
5927 1 16.3534 141.726 0.344648
5881 1 19.0819 140.157 0.337818
12346 2 20.9024 140.155 1.66992
2870 1 21.8096 141.726 0.344648
5912 1 13.6249 143.294 0.350429
12418 2 12.7169 144.862 1.68731
12386 2 15.4453 143.293 1.68257
12388 2 18.1731 144.862 1.68731
5910 1 16.3527 144.862 0.355159
5880 1 19.0811 143.294 0.350429
12339 2 20.9016 143.293 1.68257
2871 1 21.8089 144.862 0.355159
5911 1 13.6243 146.431 0.358838
12419 2 12.7165 148 1.69364
12372 2 15.4448 146.431 1.691
5913 1 16.3523 147.999 0.361465
12370 2 18.1727 148 1.69364
5866 1 19.0806 146.431 0.358838
12338 2 20.901 146.431 1.691
2869 1 21.8085 147.999 0.361465
5901 1 13.624 149.567 0.363042
9581 2 12.7163 151.138 1.69574
12371 2 15.4445 149.569 1.69522
3245 1 16.3521 151.135 0.363568
9553 2 18.1726 151.138 1.69574
5865 1 19.0803 149.567 0.363042
12323 2 20.9007 149.569 1.69522
190 1 21.8084 151.135 0.363568
5922 1 11.8095 133.869 2.89853
12397 2 13.6279 133.864 4.19957
5919 1 12.7166 135.429 5.492
5920 1 14.5369 135.439 2.90965
5886 1 17.2657 133.869 2.89853
5874 1 15.4454 133.857 5.48088
5872 1 18.1728 135.429 5.492
12398 2 16.3553 135.435 4.21069
5820 1 20.9017 133.857 5.48088
12345 2 19.0841 133.864 4.19957
9160 2 21.8115 135.435 4.21069
5887 1 19.9931 135.439 2.90965
5921 1 11.8081 137.01 2.9197
12383 2 13.6265 137.006 4.22074
5904 1 12.7153 138.572 5.51104
5923 1 14.5356 138.58 2.92869
5878 1 17.2643 137.01 2.9197
5873 1 15.444 137 5.50205
5875 1 18.1715 138.572 5.51104
12381 2 16.354 138.576 4.22974
5819 1 20.9002 137 5.50205
12344 2 19.0827 137.006 4.22074
5876 1 19.9919 138.58 2.92869
9161 2 21.8102 138.576 4.22974
5908 1 11.807 140.15 2.93661
12382 2 13.6253 140.147 4.23766
5905 1 12.7143 141.715 5.52584
5906 1 14.5346 141.72 2.94347
5877 1 17.2632 140.15 2.93661
5859 1 15.4429 140.144 5.51897
5857 1 18.1705 141.715 5.52584
12384 2 16.353 141.718 4.24453
5818 1 20.8991 140.144 5.51897
12337 2 19.0816 140.147 4.23766
9152 2 21.8092 141.718 4.24453
5879 1 19.9909 141.72 2.94347
5907 1 11.8061 143.29 2.94927
12368 2 13.6245 143.289 4.25034
5909 1 14.5339 144.86 2.95402
5896 1 12.7136 144.858 5.5364
5863 1 17.2624 143.29 2.94927
5858 1 15.442 143.287 5.53165
12366 2 16.3523 144.859 4.25509
5860 1 18.1699 144.858 5.5364
5811 1 20.8983 143.287 5.53165
12336 2 19.0807 143.289 4.25034
5861 1 19.9902 144.86 2.95402
9153 2 21.8085 144.859 4.25509
5900 1 11.8056 146.429 2.95771
12367 2 13.6239 146.43 4.25878
5898 1 14.5335 147.999 2.96035
5897 1 12.7132 148.001 5.54274
5842 1 18.1694 148.001 5.54274
12369 2 16.3519 148.001 4.26142
5862 1 17.2618 146.429 2.95771
5844 1 15.4415 146.43 5.5401
9151 2 21.8081 148.001 4.26142
5864 1 19.9898 147.999 2.96035
12322 2 19.0802 146.43 4.25878
5810 1 20.8977 146.43 5.5401
12357 2 13.6237 149.571 4.263
5899 1 11.8053 149.569 2.96193
3230 1 12.7131 151.144 5.54487
3244 1 14.5334 151.139 2.96246
5843 1 15.4412 149.573 5.54433
5845 1 17.2615 149.569 2.96193
3196 1 18.1693 151.144 5.54487
9540 2 16.3518 151.142 4.26353
12321 2 19.0799 149.571 4.263
5796 1 20.8975 149.573 5.54433
6316 2 21.808 151.142 4.26353
3197 1 19.9896 151.139 2.96246
5870 1 13.6249 133.845 8.05755
12379 2 11.8072 133.851 6.77144
12377 2 14.5346 135.424 6.78252
12342 2 17.2635 133.851 6.77144
5871 1 16.3523 135.418 8.06862
5817 1 19.0812 133.845 8.05755
2830 1 21.8086 135.418 8.06862
12343 2 19.9909 135.424 6.78252
5855 1 13.6236 136.991 8.07864
12378 2 11.8058 136.996 6.79255
12380 2 14.5334 138.568 6.80152
12334 2 17.2621 136.996 6.79255
5853 1 16.3511 138.564 8.0876
5816 1 19.0798 136.991 8.07864
2831 1 21.8074 138.564 8.0876
12332 2 19.9896 138.568 6.80152
5854 1 13.6225 140.138 8.0955
12364 2 11.8047 140.141 6.80943
12362 2 14.5324 141.713 6.81629
12333 2 17.261 140.141 6.80943
5856 1 16.3502 141.711 8.10236
5809 1 19.0787 140.138 8.0955
12335 2 19.9887 141.713 6.81629
2822 1 21.8064 141.711 8.10236
5840 1 13.6217 143.284 8.10816
12363 2 11.8039 143.286 6.82209
12365 2 14.5317 144.858 6.82684
12319 2 17.2602 143.286 6.82209
5838 1 16.3495 144.857 8.1129
5808 1 19.0779 143.284 8.10816
12317 2 19.988 144.858 6.82684
2823 1 21.8057 144.857 8.1129
5839 1 13.6212 146.43 8.1166
12356 2 11.8034 146.43 6.83053
12354 2 14.5313 148.002 6.83318
12318 2 17.2596 146.43 6.83053
5841 1 16.3491 148.003 8.11925
5795 1 19.0774 146.43 8.1166
12320 2 19.9876 148.002 6.83318
2821 1 21.8054 148.003 8.11925
5829 1 13.6209 149.576 8.12085
12355 2 11.8031 149.575 6.83477
9539 2 14.5312 151.147 6.83531
12304 2 17.2594 149.575 6.83477
3181 1 16.349 151.149 8.12139
5794 1 19.0771 149.576 8.12085
9485 2 19.9875 151.147 6.83531
157 1 21.8052 151.149 8.12139
5851 1 11.8046 133.833 10.6319
12326 2 13.6228 133.827 11.9174
12376 2 12.7142 135.413 9.35543
5849 1 14.5321 135.408 10.6429
12330 2 15.443 133.839 9.34443
5814 1 17.2609 133.833 10.6319
12328 2 18.1705 135.413 9.35543
12327 2 16.3503 135.403 11.9283
12288 2 20.8993 133.839 9.34443
12285 2 19.0791 133.827 11.9174
5815 1 19.9883 135.408 10.6429
9094 2 21.8065 135.403 11.9283
5850 1 11.8033 136.982 10.6529
12311 2 13.6216 136.978 11.9382
12360 2 12.713 138.561 9.37431
5852 1 14.5309 138.557 10.6618
12329 2 15.4417 136.987 9.3654
5806 1 17.2596 136.982 10.6529
12331 2 18.1693 138.561 9.37431
12309 2 16.3492 138.554 11.947
12287 2 20.898 136.987 9.3654
12284 2 19.0778 136.978 11.9382
5804 1 19.9871 138.557 10.6618
9095 2 21.8055 138.554 11.947
5836 1 11.8023 140.132 10.6696
12310 2 13.6207 140.129 11.9548
12361 2 12.7121 141.709 9.38901
5834 1 14.53 141.707 10.6764
12315 2 15.4407 140.135 9.38219
5805 1 17.2586 140.132 10.6696
12313 2 18.1684 141.709 9.38901
12312 2 16.3484 141.705 11.9616
12286 2 20.8969 140.135 9.38219
12278 2 19.0769 140.129 11.9548
5807 1 19.9863 141.707 10.6764
9086 2 21.8046 141.705 11.9616
5835 1 11.8016 143.281 10.6822
12299 2 13.62 143.28 11.9673
12352 2 12.7115 144.857 9.39953
5837 1 14.5294 144.856 10.6869
12314 2 15.4399 143.283 9.39479
5792 1 17.2578 143.281 10.6822
12316 2 18.1677 144.857 9.39953
12297 2 16.3478 144.856 11.972
12280 2 20.8961 143.283 9.39479
12277 2 19.0762 143.28 11.9673
5790 1 19.9857 144.856 10.6869
9087 2 21.8041 144.856 11.972
5828 1 11.8011 146.431 10.6906
12298 2 13.6195 146.431 11.9757
12353 2 12.7111 148.004 9.40586
5826 1 14.5291 148.005 10.6933
12303 2 15.4394 146.431 9.40321
5791 1 17.2573 146.431 10.6906
12301 2 18.1674 148.004 9.40586
12300 2 16.3475 148.007 11.9784
12279 2 20.8956 146.431 9.40321
12271 2 19.0757 146.431 11.9757
5793 1 19.9853 148.005 10.6933
9085 2 21.8037 148.007 11.9784
5827 1 11.8009 149.58 10.6949
12292 2 13.6193 149.582 11.98
9519 2 12.711 151.152 9.408
3180 1 14.529 151.155 10.6954
12302 2 15.4392 149.578 9.40745
5781 1 17.2571 149.58 10.6949
9484 2 18.1673 151.152 9.408
9469 2 16.3474 151.157 11.9805
12272 2 20.8954 149.578 9.40745
12270 2 19.0755 149.582 11.98
3125 1 19.9852 151.155 10.6954
6254 2 21.8036 151.157 11.9805
5798 1 13.6208 133.811 15.7777
12307 2 11.8028 133.816 14.4901
5848 1 12.712 135.398 13.2161
12305 2 14.5304 135.393 14.5008
5802 1 15.4407 133.822 13.2052
12282 2 17.2591 133.816 14.4901
5799 1 16.3484 135.388 15.7884
5800 1 18.1682 135.398 13.2161
2758 1 21.8047 135.388 15.7884
5769 1 19.0771 133.811 15.7777
5772 1 20.897 133.822 13.2052
12283 2 19.9866 135.393 14.5008
5784 1 13.6198 136.966 15.7981
12306 2 11.8017 136.97 14.5105
5832 1 12.711 138.55 13.2347
12308 2 14.5294 138.547 14.5193
5801 1 15.4396 136.974 13.2259
12275 2 17.258 136.97 14.5105
5782 1 16.3475 138.544 15.8067
5803 1 18.1672 138.55 13.2347
2759 1 21.8038 138.544 15.8067
5768 1 19.0761 136.966 15.7981
5771 1 20.8958 136.974 13.2259
12273 2 19.9857 138.547 14.5193
12293 2 14.5287 141.701 14.5337
5783 1 13.6191 140.121 15.8144
12295 2 11.8009 140.124 14.527
5833 1 12.7102 141.703 13.2492
5785 1 16.3469 141.699 15.8211
5788 1 15.4387 140.127 13.2425
12274 2 17.2572 140.124 14.527
5786 1 18.1664 141.703 13.2492
12276 2 19.9849 141.701 14.5337
2750 1 21.8031 141.699 15.8211
5765 1 19.0753 140.121 15.8144
5770 1 20.8949 140.127 13.2425
12296 2 14.5282 144.855 14.544
12294 2 11.8003 143.278 14.5394
5776 1 13.6185 143.277 15.8268
5824 1 12.7096 144.855 13.2596
5774 1 16.3464 144.855 15.8314
12268 2 17.2565 143.278 14.5394
5787 1 15.438 143.279 13.2549
5789 1 18.1659 144.855 13.2596
12266 2 19.9844 144.855 14.544
5767 1 20.8942 143.279 13.2549
5764 1 19.0747 143.277 15.8268
2751 1 21.8026 144.855 15.8314
5825 1 12.7093 148.008 13.2659
12289 2 14.5279 148.009 14.5503
12291 2 11.7999 146.432 14.5477
5775 1 13.6181 146.432 15.835
5778 1 18.1656 148.008 13.2659
5777 1 16.3461 148.01 15.8377
12267 2 17.2561 146.432 14.5477
5780 1 15.4376 146.431 13.2633
2749 1 21.8024 148.01 15.8377
12269 2 19.9841 148.009 14.5503
5762 1 19.0744 146.432 15.835
5766 1 20.8938 146.431 13.2633
5773 1 13.618 149.588 15.8393
12290 2 11.7997 149.586 14.5519
9468 2 14.5278 151.163 14.5525
3159 1 12.7092 151.16 13.2681
5779 1 15.4374 149.584 13.2675
12265 2 17.256 149.586 14.5519
3124 1 18.1655 151.16 13.2681
3109 1 16.3461 151.166 15.8398
5761 1 19.0742 149.588 15.8393
5763 1 20.8936 149.584 13.2675
86 1 21.8023 151.166 15.8398
9425 2 19.9841 151.163 14.5525
6142 1 11.8012 133.8 18.3495
12648 2 12.7107 135.384 17.0727
6140 1 14.5289 135.379 18.36
12634 2 15.4393 133.805 17.0621
6119 1 17.2574 133.8 18.3495
12632 2 18.1669 135.384 17.0727
12588 2 20.8955 133.805 17.0621
6120 1 19.9851 135.379 18.36
6141 1 11.8004 136.958 18.3695
12644 2 12.7099 138.54 17.0909
6143 1 14.5282 138.537 18.3781
12633 2 15.4384 136.962 17.0823
6115 1 17.2566 136.958 18.3695
12635 2 18.1662 138.54 17.0909
12587 2 20.8946 136.962 17.0823
6113 1 19.9844 138.537 18.3781
6135 1 11.7998 140.116 18.3856
12645 2 12.7093 141.697 17.1051
6133 1 14.5276 141.696 18.3922
12626 2 15.4377 140.119 17.0985
6114 1 17.256 140.116 18.3856
12624 2 18.1656 141.697 17.1051
12586 2 20.8939 140.119 17.0985
6116 1 19.9839 141.696 18.3922
6134 1 11.7993 143.275 18.3978
12640 2 12.7089 144.854 17.1154
6136 1 14.5273 144.854 18.4024
12625 2 15.4372 143.276 17.1107
6103 1 17.2556 143.275 18.3978
12627 2 18.1651 144.854 17.1154
12579 2 20.8934 143.276 17.1107
6101 1 19.9835 144.854 18.4024
6128 1 11.799 146.433 18.406
12641 2 12.7087 148.011 17.1216
6126 1 14.5271 148.013 18.4086
6102 1 17.2553 146.433 18.406
12612 2 15.4369 146.433 17.119
12610 2 18.1649 148.011 17.1216
12578 2 20.8931 146.433 17.119
6104 1 19.9833 148.013 18.4086
6127 1 11.7989 149.592 18.4102
9791 2 12.7086 151.168 17.1237
3456 1 14.527 151.171 18.4108
6085 1 17.2551 149.592 18.4102
12611 2 15.4367 149.59 17.1232
9780 2 18.1648 151.168 17.1237
12563 2 20.893 149.59 17.1232
3430 1 19.9832 151.171 18.4108
12630 2 13.6198 133.795 19.6336
12618 2 11.8006 133.784 22.2044
6139 1 12.7096 135.37 20.931
12616 2 14.5285 135.365 22.2146
12631 2 16.3476 135.374 19.644
6111 1 15.4381 133.789 20.9207
12582 2 17.2569 133.784 22.2044
6109 1 18.1659 135.37 20.931
12585 2 19.076 133.795 19.6336
6060 1 20.8943 133.789 20.9207
12583 2 19.9848 135.365 22.2146
9378 2 21.8038 135.374 19.644
12622 2 13.6191 136.954 19.6534
12617 2 11.8002 136.946 22.2238
6131 1 12.7091 138.531 20.9487
12619 2 14.5281 138.528 22.2321
12620 2 16.347 138.534 19.6619
6110 1 15.4375 136.95 20.9403
12574 2 17.2564 136.946 22.2238
6112 1 18.1654 138.531 20.9487
12584 2 19.0754 136.954 19.6534
6059 1 20.8937 136.95 20.9403
12572 2 19.9844 138.528 22.2321
9379 2 21.8032 138.534 19.6619
12621 2 13.6186 140.114 19.6693
12604 2 11.7998 140.109 22.2395
6132 1 12.7088 141.692 20.9626
12602 2 14.5278 141.691 22.2459
12623 2 16.3465 141.694 19.6759
6099 1 15.437 140.112 20.9561
12573 2 17.2561 140.109 22.2395
6097 1 18.165 141.692 20.9626
12577 2 19.0748 140.114 19.6693
6058 1 20.8933 140.112 20.9561
12575 2 19.9841 141.691 22.2459
9374 2 21.8027 141.694 19.6759
12608 2 13.6182 143.274 19.6814
12603 2 11.7996 143.272 22.2513
6124 1 12.7085 144.854 20.9726
12605 2 14.5276 144.854 22.2558
12606 2 16.3462 144.854 19.686
6098 1 15.4367 143.273 20.9681
12559 2 17.2558 143.272 22.2513
6100 1 18.1647 144.854 20.9726
12576 2 19.0744 143.274 19.6814
6051 1 20.893 143.273 20.9681
12557 2 19.9838 144.854 22.2558
9375 2 21.8024 144.854 19.686
12607 2 13.618 146.434 19.6895
12596 2 11.7994 146.435 22.2594
6125 1 12.7083 148.015 20.9788
12594 2 14.5275 148.017 22.2619
12609 2 16.346 148.014 19.6921
6084 1 15.4365 146.435 20.9762
12558 2 17.2557 146.435 22.2594
6082 1 18.1646 148.015 20.9788
12562 2 19.0742 146.434 19.6895
6050 1 20.8928 146.435 20.9762
12560 2 19.9837 148.017 22.2619
9373 2 21.8022 148.014 19.6921
12597 2 13.6179 149.594 19.6937
12595 2 11.7993 149.598 22.2635
3450 1 12.7083 151.177 20.981
9772 2 14.5275 151.18 22.2641
6083 1 15.4364 149.596 20.9804
12541 2 17.2556 149.598 22.2635
9773 2 16.346 151.174 19.6943
3429 1 18.1645 151.177 20.981
12561 2 19.0741 149.594 19.6937
6035 1 20.8927 149.596 20.9804
9725 2 19.9837 151.18 22.2641
6526 2 21.8022 151.174 19.6943
6107 1 13.6191 133.779 23.4911
12615 2 12.7099 135.356 24.7844
12570 2 15.4381 133.773 24.7744
6108 1 16.347 135.361 23.5012
12568 2 18.1661 135.356 24.7844
6057 1 19.0753 133.779 23.4911
12516 2 20.8943 133.773 24.7744
3057 1 21.8032 135.361 23.5012
6095 1 13.6187 136.943 23.5103
12600 2 12.7097 138.522 24.8016
12569 2 15.4379 136.939 24.7935
6093 1 16.3467 138.525 23.5185
12571 2 18.1659 138.522 24.8016
6056 1 19.075 136.943 23.5103
12515 2 20.8941 136.939 24.7935
3058 1 21.8029 138.525 23.5185
6094 1 13.6185 140.107 23.5259
12601 2 12.7095 141.688 24.8152
12555 2 15.4377 140.105 24.8088
6096 1 16.3465 141.689 23.5322
12553 2 18.1658 141.688 24.8152
6049 1 19.0747 140.107 23.5259
12514 2 20.8939 140.105 24.8088
3050 1 21.8027 141.689 23.5322
6080 1 13.6183 143.271 23.5376
12592 2 12.7094 144.854 24.825
12554 2 15.4376 143.271 24.8205
6078 1 16.3463 144.854 23.5421
12556 2 18.1657 144.854 24.825
6048 1 19.0745 143.271 23.5376
12507 2 20.8938 143.271 24.8205
3051 1 21.8026 144.854 23.5421
6079 1 13.6182 146.436 23.5456
12593 2 12.7094 148.02 24.831
12538 2 18.1656 148.02 24.831
6081 1 16.3462 148.018 23.5482
12540 2 15.4375 146.437 24.8284
3049 1 21.8025 148.018 23.5482
12506 2 20.8937 146.437 24.8284
6034 1 19.0744 146.436 23.5456
6069 1 13.6181 149.601 23.5498
9758 2 12.7093 151.186 24.8332
12539 2 15.4375 149.603 24.8325
9724 2 18.1656 151.186 24.8332
3418 1 16.3462 151.183 23.5504
12492 2 20.8937 149.603 24.8325
6033 1 19.0743 149.601 23.5498
377 1 21.8025 151.183 23.5504
6091 1 11.8005 133.768 26.0607
6089 1 14.5285 135.352 26.0706
12566 2 13.6197 133.763 27.3436
6088 1 12.7105 135.343 28.6391
6054 1 17.2567 133.768 26.0607
6042 1 15.4386 133.758 28.6295
12567 2 16.3479 135.347 27.3534
6040 1 18.1668 135.343 28.6391
9334 2 21.8041 135.347 27.3534
6055 1 19.9848 135.352 26.0706
5994 1 20.8948 133.758 28.6295
12513 2 19.076 133.763 27.3436
6090 1 11.8004 136.935 26.0796
6092 1 14.5284 138.519 26.0876
12551 2 13.6198 136.931 27.3623
6072 1 12.7106 138.513 28.6559
6046 1 17.2566 136.935 26.0796
6041 1 15.4387 136.928 28.648
12549 2 16.3479 138.516 27.3703
6043 1 18.1669 138.513 28.6559
9335 2 21.8041 138.516 27.3703
6044 1 19.9847 138.519 26.0876
5993 1 20.8949 136.928 28.648
12512 2 19.076 136.931 27.3623
6076 1 11.8003 140.102 26.0948
6074 1 14.5284 141.686 26.1011
12550 2 13.6198 140.1 27.3774
6073 1 12.7107 141.683 28.6691
6045 1 17.2565 140.102 26.0948
6027 1 15.4388 140.098 28.663
12552 2 16.3479 141.685 27.3836
6025 1 18.167 141.683 28.6691
9326 2 21.8041 141.685 27.3836
6047 1 19.9846 141.686 26.1011
5992 1 20.8951 140.098 28.663
12505 2 19.076 140.1 27.3774
6075 1 11.8002 143.27 26.1064
6077 1 14.5283 144.854 26.1108
12536 2 13.6198 143.269 27.3889
6064 1 12.7108 144.854 28.6787
6031 1 17.2565 143.27 26.1064
6026 1 15.4389 143.268 28.6744
12534 2 16.3479 144.854 27.3933
6028 1 18.167 144.854 28.6787
9327 2 21.8041 144.854 27.3933
6029 1 19.9846 144.854 26.1108
5985 1 20.8951 143.268 28.6744
12504 2 19.076 143.269 27.3889
6068 1 11.8002 146.437 26.1143
6066 1 14.5283 148.021 26.1168
12535 2 13.6198 146.438 27.3967
6065 1 12.7108 148.024 28.6847
6030 1 17.2564 146.437 26.1143
6013 1 15.4389 146.439 28.6822
12537 2 16.3479 148.023 27.3992
6011 1 18.1671 148.024 28.6847
9325 2 21.8041 148.023 27.3992
6032 1 19.9845 148.021 26.1168
5984 1 20.8952 146.439 28.6822
12491 2 19.076 146.438 27.3967
6067 1 11.8002 149.605 26.1184
12525 2 13.6198 149.607 27.4008
3417 1 14.5283 151.189 26.119
3399 1 12.7108 151.195 28.6869
6014 1 17.2564 149.605 26.1184
6012 1 15.4389 149.61 28.6862
9709 2 16.3479 151.192 27.4014
3364 1 18.1671 151.195 28.6869
5973 1 20.8952 149.61 28.6862
12490 2 19.076 149.607 27.4008
3365 1 19.9845 151.189 26.119
6493 2 21.8041 151.192 27.4014
6038 1 13.621 133.747 31.1973
12547 2 11.8019 133.752 29.9119
12544 2 12.7129 135.329 32.4888
12545 2 14.5301 135.338 29.9215
12498 2 15.4408 133.742 32.4793
12510 2 17.2581 133.752 29.9119
6039 1 16.3493 135.334 31.2068
12496 2 18.1692 135.329 32.4888
2998 1 21.8055 135.334 31.2068
5991 1 19.0772 133.747 31.1973
12468 2 20.8971 133.742 32.4793
12511 2 19.9864 135.338 29.9215
6023 1 13.6213 136.92 31.2155
12546 2 11.8021 136.924 29.9303
12528 2 12.7133 138.504 32.5052
12548 2 14.5303 138.51 29.9382
12497 2 15.4413 136.916 32.4974
12502 2 17.2584 136.924 29.9303
6021 1 16.3496 138.507 31.2233
12499 2 18.1696 138.504 32.5052
2999 1 21.8058 138.507 31.2233
5990 1 19.0776 136.92 31.2155
12467 2 20.8975 136.916 32.4974
12500 2 19.9866 138.51 29.9382
6022 1 13.6216 140.094 31.2303
12532 2 11.8023 140.096 29.9452
12529 2 12.7136 141.679 32.5181
12530 2 14.5305 141.682 29.9513
12484 2 15.4416 140.091 32.5121
12501 2 17.2585 140.096 29.9452
6024 1 16.3498 141.68 31.2364
12482 2 18.1698 141.679 32.5181
2990 1 21.8061 141.68 31.2364
5983 1 19.0778 140.094 31.2303
12466 2 20.8978 140.091 32.5121
12503 2 19.9867 141.682 29.9513
6009 1 13.6218 143.267 31.2416
12531 2 11.8024 143.268 29.9565
12520 2 12.7138 144.854 32.5275
12533 2 14.5306 144.854 29.9608
12483 2 15.4418 143.266 32.5233
12488 2 17.2587 143.268 29.9565
6007 1 16.35 144.854 31.2459
12485 2 18.17 144.854 32.5275
2991 1 21.8062 144.854 31.2459
5982 1 19.078 143.267 31.2416
12463 2 20.8981 143.266 32.5233
12486 2 19.9868 144.854 29.9608
6008 1 13.6219 146.441 31.2492
12524 2 11.8025 146.44 29.9642
12521 2 12.7139 148.029 32.5334
12522 2 14.5307 148.026 29.9667
12476 2 15.442 146.441 32.5309
12487 2 17.2588 146.44 29.9642
6010 1 16.3501 148.028 31.2517
12474 2 18.1701 148.029 32.5334
2989 1 21.8063 148.028 31.2517
5972 1 19.0781 146.441 31.2492
12462 2 20.8982 146.441 32.5309
12489 2 19.9869 148.026 29.9667
6000 1 13.6219 149.614 31.2533
12523 2 11.8025 149.612 29.9683
9687 2 12.7139 151.204 32.5355
9708 2 14.5307 151.198 29.9689
12475 2 15.442 149.617 32.5349
12477 2 17.2588 149.612 29.9683
9652 2 18.1702 151.204 32.5355
3349 1 16.3501 151.201 31.2539
5971 1 19.0782 149.614 31.2533
12459 2 20.8983 149.617 32.5349
326 1 21.8063 151.201 31.2539
9653 2 19.9869 151.198 29.9689
6019 1 11.8039 133.737 33.7641
12494 2 13.6241 133.731 35.0456
6017 1 14.5324 135.325 33.7735
5988 1 17.2602 133.737 33.7641
12495 2 16.3526 135.32 35.055
9262 2 21.8088 135.32 35.055
12465 2 19.0804 133.731 35.0456
5989 1 19.9886 135.325 33.7735
6020 1 14.5328 138.501 33.7899
6018 1 11.8045 136.913 33.7821
12480 2 13.6247 136.909 35.0635
12478 2 16.3531 138.498 35.0712
5980 1 17.2607 136.913 33.7821
9263 2 21.8093 138.498 35.0712
5978 1 19.9891 138.501 33.7899
12464 2 19.081 136.909 35.0635
6003 1 14.5332 141.677 33.8027
6005 1 11.8049 140.089 33.7967
12479 2 13.6252 140.087 35.0781
12481 2 16.3535 141.676 35.084
5979 1 17.2611 140.089 33.7967
9254 2 21.8097 141.676 35.084
5981 1 19.9894 141.677 33.8027
12461 2 19.0814 140.087 35.0781
6006 1 14.5334 144.854 33.8121
12472 2 13.6255 143.265 35.0892
6004 1 11.8052 143.266 33.8079
12470 2 16.3538 144.854 35.0934
5969 1 17.2614 143.266 33.8079
9255 2 21.81 144.854 35.0934
5967 1 19.9897 144.854 33.8121
12460 2 19.0818 143.265 35.0892
5999 1 11.8054 146.442 33.8155
12471 2 13.6257 146.443 35.0967
5997 1 14.5335 148.031 33.8179
5968 1 17.2616 146.442 33.8155
12473 2 16.3539 148.032 35.0992
9253 2 21.8101 148.032 35.0992
12458 2 19.082 146.443 35.0967
5970 1 19.9898 148.031 33.8179
5998 1 11.8054 149.619 33.8195
12469 2 13.6258 149.621 35.1007
3348 1 14.5336 151.207 33.8201
5962 1 17.2617 149.619 33.8195
12457 2 19.0821 149.621 35.1007
3299 1 19.9898 151.207 33.8201
12670 2 11.8081 133.721 37.6109
17811 1 13.628 133.715 38.8948
6016 1 12.716 135.316 36.3393
12668 2 14.5366 135.311 37.6202
12659 2 17.2643 133.721 37.6109
18165 1 16.3566 135.306 38.904
5976 1 15.4438 133.726 36.33
5974 1 18.1723 135.316 36.3393
5958 1 20.9 133.726 36.33
17781 1 19.0843 133.715 38.8948
12660 2 19.9928 135.311 37.6202
15352 1 21.8128 135.306 38.904
12669 2 11.8088 136.901 37.6287
18166 1 13.6288 136.898 38.9125
6001 1 12.7166 138.495 36.3555
12671 2 14.5372 138.492 37.6364
12656 2 17.265 136.901 37.6287
18167 1 16.3573 138.489 38.9201
5975 1 15.4445 136.905 36.3478
5977 1 18.1729 138.495 36.3555
18137 1 19.0851 136.898 38.9125
5957 1 20.9007 136.905 36.3478
12654 2 19.9935 138.492 37.6364
15350 1 21.8135 138.489 38.9201
12666 2 11.8094 140.082 37.6431
18162 1 13.6295 140.08 38.9269
6002 1 12.7171 141.674 36.3682
12664 2 14.5377 141.673 37.6491
12655 2 17.2656 140.082 37.6431
18160 1 16.3578 141.672 38.9328
5965 1 15.445 140.085 36.3623
5963 1 18.1733 141.674 36.3682
18136 1 19.0857 140.08 38.9269
5956 1 20.9012 140.085 36.3623
12657 2 19.9939 141.673 37.6491
15351 1 21.8141 141.672 38.9328
12665 2 11.8098 143.264 37.6542
18161 1 13.6299 143.263 38.9379
5995 1 12.7174 144.854 36.3775
12667 2 14.538 144.854 37.6584
12652 2 17.266 143.264 37.6542
18163 1 16.3582 144.854 38.9421
5964 1 15.4454 143.264 36.3733
5966 1 18.1736 144.854 36.3775
18131 1 19.0861 143.263 38.9379
5955 1 20.9016 143.264 36.3733
12650 2 19.9943 144.854 37.6584
15348 1 21.8144 144.854 38.9421
12663 2 11.81 146.445 37.6617
18152 1 13.6302 146.446 38.9454
5996 1 12.7176 148.034 36.3833
12661 2 14.5382 148.035 37.6641
12651 2 17.2663 146.445 37.6617
18150 1 16.3584 148.037 38.9478
5961 1 15.4456 146.444 36.3809
5959 1 18.1738 148.034 36.3833
18130 1 19.0864 146.446 38.9454
5954 1 20.9019 146.444 36.3809
12653 2 19.9944 148.035 37.6641
15349 1 21.8146 148.037 38.9478
12662 2 11.8101 149.626 37.6656
18151 1 13.6303 149.629 38.9493
12649 2 17.2664 149.626 37.6656
5960 1 15.4457 149.624 36.3849
18117 1 19.0865 149.629 38.9493
5953 1 20.9019 149.624 36.3849
23791 2 12.7212 135.302 40.1845
17809 1 11.813 133.704 41.4585
18164 1 14.5415 135.297 41.4677
17761 1 17.2692 133.704 41.4585
23423 2 15.4489 133.71 40.1752
23782 2 18.1775 135.302 40.1845
18133 1 19.9978 135.297 41.4677
23375 2 20.9051 133.71 40.1752
23792 2 12.722 138.486 40.2005
18158 1 11.8138 136.89 41.4762
18156 1 14.5423 138.483 41.4838
23780 2 15.4497 136.894 40.1929
18134 1 17.2701 136.89 41.4762
23778 2 18.1782 138.486 40.2005
18135 1 19.9986 138.483 41.4838
23742 2 20.906 136.894 40.1929
23788 2 12.7225 141.67 40.2132
18157 1 11.8145 140.076 41.4905
18159 1 14.5429 141.669 41.4965
23779 2 15.4504 140.078 40.2073
18128 1 17.2708 140.076 41.4905
23781 2 18.1787 141.67 40.2132
18126 1 19.9991 141.669 41.4965
23741 2 20.9066 140.078 40.2073
23789 2 12.7229 144.854 40.2224
18148 1 11.815 143.261 41.5015
18146 1 14.5433 144.854 41.5057
18127 1 17.2712 143.261 41.5015
23772 2 15.4508 143.262 40.2183
23770 2 18.1791 144.854 40.2224
18129 1 19.9995 144.854 41.5057
23740 2 20.9071 143.262 40.2183
23785 2 12.7231 148.039 40.2282
18147 1 11.8153 146.447 41.509
18149 1 14.5435 148.04 41.5114
18116 1 17.2715 146.447 41.509
23771 2 15.4511 146.446 40.2257
23773 2 18.1793 148.039 40.2282
18114 1 19.9997 148.04 41.5114
23733 2 20.9074 146.446 40.2257
18141 1 11.8154 149.633 41.5129
18115 1 17.2717 149.633 41.5129
23758 2 15.4512 149.631 40.2297
23732 2 20.9075 149.631 40.2297
23409 2 13.6342 133.699 42.7383
18154 1 12.7272 135.288 44.0304
23407 2 11.8201 133.688 45.3004
23774 2 14.5487 135.283 45.3097
23775 2 16.3628 135.292 42.7476
17759 1 15.4548 133.693 44.0211
23354 2 17.2764 133.688 45.3004
18132 1 18.1834 135.288 44.0304
23373 2 19.0904 133.699 42.7383
23735 2 20.005 135.283 45.3097
17711 1 20.911 133.693 44.0211
20970 2 21.819 135.292 42.7476
23776 2 13.6351 136.886 42.7561
18155 1 12.728 138.477 44.0465
23764 2 11.8211 136.878 45.3182
23762 2 14.5496 138.473 45.3259
23777 2 16.3636 138.48 42.7637
18124 1 15.4557 136.882 44.0388
23736 2 17.2773 136.878 45.3182
18122 1 18.1842 138.477 44.0465
20966 2 21.8198 138.48 42.7637
23739 2 19.0913 136.886 42.7561
18082 1 20.912 136.882 44.0388
23737 2 20.0058 138.473 45.3259
23768 2 13.6358 140.073 42.7705
18144 1 12.7286 141.665 44.0592
23763 2 11.8218 140.069 45.3327
23766 2 16.3641 141.667 42.7764
18123 1 15.4564 140.071 44.0532
23728 2 17.278 140.069 45.3327
23765 2 14.5502 141.664 45.3386
18125 1 18.1848 141.665 44.0592
20967 2 21.8204 141.667 42.7764
23738 2 19.092 140.073 42.7705
18081 1 20.9127 140.071 44.0532
23726 2 20.0064 141.664 45.3386
23767 2 13.6362 143.261 42.7814
18145 1 12.729 144.854 44.0684
23753 2 11.8223 143.259 45.3436
23769 2 16.3645 144.854 42.7856
18112 1 15.457 143.26 44.0642
23727 2 17.2785 143.259 45.3436
23751 2 14.5506 144.854 45.3478
18110 1 18.1853 144.854 44.0684
20963 2 21.8208 144.854 42.7856
23731 2 19.0925 143.261 42.7814
18080 1 20.9132 143.26 44.0642
23729 2 20.0068 144.854 45.3478
23757 2 13.6366 146.448 42.7889
18140 1 12.7292 148.043 44.0741
23752 2 11.8226 146.45 45.3511
23755 2 16.3648 148.042 42.7913
18111 1 15.4573 146.449 44.0717
23716 2 17.2788 146.45 45.3511
23754 2 14.5508 148.045 45.3535
18113 1 18.1855 148.043 44.0741
20964 2 21.821 148.042 42.7913
23730 2 19.0928 146.448 42.7889
18073 1 20.9135 146.449 44.0717
23714 2 20.007 148.045 45.3535
23756 2 13.6367 149.636 42.7928
23746 2 11.8227 149.64 45.355
18098 1 15.4574 149.638 44.0756
23715 2 17.279 149.64 45.355
23717 2 19.0929 149.636 42.7928
18072 1 20.9136 149.638 44.0756
18153 1 10.9135 135.278 46.592
23760 2 12.7354 135.273 47.8708
17743 1 11.8281 133.671 49.1431
17745 1 13.6411 133.682 46.5826
18118 1 14.5567 135.269 49.1526
18119 1 16.3697 135.278 46.592
17692 1 17.2843 133.671 49.1431
23352 2 15.463 133.676 47.8614
18075 1 20.0129 135.269 49.1526
23734 2 18.1916 135.273 47.8708
17709 1 19.0973 133.682 46.5826
23313 2 20.9193 133.676 47.8614
18104 1 11.829 136.866 49.1612
18120 1 13.642 136.874 46.6005
18142 1 10.9143 138.47 46.6082
23761 2 12.7362 138.467 47.8871
18076 1 17.2852 136.866 49.1612
18102 1 14.5575 138.464 49.1689
18121 1 16.3705 138.47 46.6082
23724 2 15.4639 136.87 47.8794
18077 1 20.0137 138.464 49.1689
18079 1 19.0983 136.874 46.6005
23687 2 20.9202 136.87 47.8794
23722 2 18.1924 138.467 47.8871
18103 1 11.8297 140.061 49.1757
18108 1 13.6427 140.066 46.615
18143 1 10.9149 141.662 46.6209
23749 2 12.7368 141.661 47.8998
18068 1 17.2859 140.061 49.1757
18105 1 14.5581 141.659 49.1817
18106 1 16.3712 141.662 46.6209
23723 2 15.4646 140.064 47.8939
18066 1 20.0143 141.659 49.1817
18078 1 19.099 140.066 46.615
23686 2 20.9209 140.064 47.8939
23725 2 18.193 141.661 47.8998
18093 1 11.8302 143.257 49.1868
18107 1 13.6433 143.258 46.626
18138 1 10.9153 144.854 46.6302
23750 2 12.7372 144.854 47.9091
18067 1 17.2864 143.257 49.1868
18091 1 14.5585 144.854 49.191
18109 1 16.3716 144.854 46.6302
23712 2 15.4651 143.257 47.9049
18069 1 20.0147 144.854 49.191
18071 1 19.0995 143.258 46.626
23685 2 20.9214 143.257 47.9049
23710 2 18.1935 144.854 47.9091
18092 1 11.8305 146.452 49.1943
18097 1 13.6436 146.45 46.6335
18139 1 10.9156 148.047 46.6359
23745 2 12.7374 148.048 47.9148
18056 1 17.2868 146.452 49.1943
18094 1 14.5587 148.05 49.1967
18095 1 16.3718 148.047 46.6359
23711 2 15.4655 146.451 47.9124
18054 1 20.015 148.05 49.1967
18070 1 19.0998 146.45 46.6335
23678 2 20.9217 146.451 47.9124
23713 2 18.1937 148.048 47.9148
18086 1 11.8307 149.647 49.1982
18096 1 13.6437 149.643 46.6374
18055 1 17.2869 149.647 49.1982
23699 2 15.4656 149.645 47.9163
18057 1 19.1 149.643 46.6374
23677 2 20.9219 149.645 47.9163
18100 1 12.7443 135.259 51.7121
23759 2 10.9227 135.263 50.4309
23340 2 13.6503 133.665 50.4213
23719 2 16.3789 135.263 50.4309
17690 1 15.4719 133.659 51.7025
18074 1 18.2005 135.259 51.7121
17660 1 20.9282 133.659 51.7025
23311 2 19.1066 133.665 50.4213
18101 1 12.745 138.457 51.7286
23720 2 13.6512 136.862 50.4395
23747 2 10.9234 138.46 50.4473
18064 1 15.4728 136.858 51.7208
23721 2 16.3797 138.46 50.4473
18032 1 20.929 136.858 51.7208
18062 1 18.2013 138.457 51.7286
23684 2 19.1074 136.862 50.4395
18089 1 12.7456 141.656 51.7415
23708 2 13.6519 140.059 50.4541
23748 2 10.924 141.657 50.4601
18063 1 15.4735 140.056 51.7355
23706 2 16.3803 141.657 50.4601
18031 1 20.9297 140.056 51.7355
18065 1 18.2019 141.656 51.7415
23683 2 19.1081 140.059 50.4541
18090 1 12.746 144.854 51.7508
23707 2 13.6524 143.256 50.4652
23743 2 10.9245 144.854 50.4694
18052 1 15.474 143.255 51.7466
23709 2 16.3807 144.854 50.4694
18030 1 20.9302 143.255 51.7466
18050 1 18.2023 144.854 51.7508
23676 2 19.1086 143.256 50.4652
18085 1 12.7463 148.053 51.7565
23698 2 13.6527 146.453 50.4727
23744 2 10.9247 148.051 50.4751
18051 1 15.4743 146.453 51.7541
23696 2 16.3809 148.051 50.4751
18024 1 20.9305 146.453 51.7541
18053 1 18.2025 148.053 51.7565
23675 2 19.109 146.453 50.4727
23697 2 13.6529 149.65 50.4767
18041 1 15.4744 149.652 51.7581
18023 1 20.9307 149.652 51.7581
23666 2 19.1091 149.65 50.4767
18099 1 10.9325 135.249 54.2706
23700 2 12.7554 135.243 55.5479
17680 1 13.6602 133.648 54.2609
23338 2 11.8383 133.653 52.9802
18059 1 16.3887 135.249 54.2706
23718 2 14.5668 135.253 52.9899
23300 2 15.4831 133.642 55.5381
23302 2 17.2945 133.653 52.9802
23679 2 18.2116 135.243 55.5479
23680 2 20.0231 135.253 52.9899
17658 1 19.1164 133.648 54.2609
23293 2 20.9393 133.642 55.5381
18060 1 13.661 136.849 54.2794
18087 1 10.9332 138.45 54.2873
23701 2 12.7561 138.447 55.5647
23704 2 11.8391 136.854 52.9986
18061 1 16.3895 138.45 54.2873
23669 2 15.4838 136.845 55.5568
23681 2 17.2953 136.854 52.9986
23702 2 14.5676 138.454 53.0065
18029 1 19.1172 136.849 54.2794
23657 2 20.9401 136.845 55.5568
23667 2 18.2123 138.447 55.5647
23682 2 20.0238 138.454 53.0065
18048 1 13.6617 140.051 54.2943
18088 1 10.9338 141.652 54.3003
23690 2 12.7566 141.65 55.5778
23703 2 11.8398 140.054 53.0134
18046 1 16.39 141.652 54.3003
23668 2 15.4845 140.048 55.5717
23673 2 17.296 140.054 53.0134
23705 2 14.5682 141.654 53.0194
18028 1 19.1179 140.051 54.2943
23656 2 20.9407 140.048 55.5717
23670 2 18.2129 141.65 55.5778
23671 2 20.0244 141.654 53.0194
18047 1 13.6621 143.253 54.3055
18083 1 10.9342 144.854 54.3097
23691 2 12.757 144.853 55.5872
23694 2 11.8403 143.254 53.0246
18049 1 16.3904 144.854 54.3097
23661 2 15.485 143.252 55.5829
23672 2 17.2965 143.254 53.0246
23692 2 14.5686 144.854 53.0288
18022 1 19.1184 143.253 54.3055
23655 2 20.9412 143.252 55.5829
23659 2 18.2133 144.853 55.5872
23674 2 20.0248 144.854 53.0288
18040 1 13.6625 146.455 54.313
18084 1 10.9344 148.056 54.3154
23688 2 12.7573 148.057 55.5929
23693 2 11.8406 146.454 53.0321
18038 1 16.3907 148.056 54.3154
23660 2 15.4853 146.455 55.5905
23665 2 17.2968 146.454 53.0321
23695 2 14.5688 148.054 53.0345
23663 2 20.025 148.054 53.0345
23662 2 18.2135 148.057 55.5929
23654 2 20.9415 146.455 55.5905
18021 1 19.1187 146.455 54.313
23689 2 11.8407 149.654 53.036
18039 1 13.6626 149.657 54.3169
23664 2 17.297 149.654 53.036
23658 2 15.4854 149.659 55.5944
23653 2 20.9417 149.659 55.5944
18016 1 19.1188 149.657 54.3169
23952 2 10.9445 135.233 58.1049
17678 1 11.849 133.636 56.8183
23619 2 13.6722 133.63 58.095
23945 2 16.4007 135.233 58.1049
18058 1 14.5776 135.238 56.8282
17653 1 17.3053 133.636 56.8183
18025 1 20.0338 135.238 56.8282
23589 2 19.1284 133.63 58.095
23946 2 13.673 136.836 58.1139
23950 2 10.9452 138.44 58.1219
18044 1 11.8498 136.841 56.8371
23947 2 16.4014 138.44 58.1219
18026 1 17.306 136.841 56.8371
18042 1 14.5783 138.443 56.8451
23917 2 19.1292 136.836 58.1139
18027 1 20.0345 138.443 56.8451
23942 2 13.6736 140.043 58.129
23951 2 10.9457 141.646 58.1351
18043 1 11.8504 140.046 56.8521
23940 2 16.4019 141.646 58.1351
18019 1 17.3067 140.046 56.8521
18045 1 14.5788 141.648 56.8582
23916 2 19.1298 140.043 58.129
18017 1 20.035 141.648 56.8582
23941 2 13.674 143.25 58.1403
23948 2 10.9461 144.853 58.1446
18036 1 11.8509 143.251 56.8634
23943 2 16.4023 144.853 58.1446
18018 1 17.3071 143.251 56.8634
18034 1 14.5792 144.853 56.8676
23911 2 19.1303 143.25 58.1403
18020 1 20.0354 144.853 56.8676
23932 2 13.6743 146.456 58.1479
18035 1 11.8512 146.456 56.871
18015 1 17.3074 146.456 56.871
23910 2 19.1306 146.456 58.1479
23949 2 10.9463 148.06 58.1503
23931 2 13.6745 149.663 58.1518
18033 1 11.8514 149.661 56.8749
23930 2 16.4026 148.06 58.1503
18037 1 14.5794 148.058 56.8734
18014 1 17.3076 149.661 56.8749
18013 1 20.0357 148.058 56.8734
23897 2 19.1307 149.663 58.1518
18311 1 12.767 135.228 59.3848
18310 1 10.9569 135.217 61.9406
17961 1 13.6847 133.612 61.9305
23617 2 11.8619 133.617 60.651
17975 1 15.4947 133.624 59.3749
18295 1 16.4131 135.217 61.9406
23944 2 14.5904 135.223 60.661
23569 2 17.3182 133.617 60.651
18302 1 18.2232 135.228 59.3848
17927 1 20.9509 133.624 59.3749
23913 2 20.0467 135.223 60.661
17925 1 19.1409 133.612 61.9305
18312 1 12.7676 138.436 59.4019
18296 1 13.6854 136.823 61.9498
18306 1 10.9576 138.429 61.9579
23938 2 11.8626 136.828 60.6701
18300 1 15.4954 136.832 59.3939
18297 1 16.4138 138.429 61.9579
23914 2 17.3189 136.828 60.6701
23936 2 14.5911 138.432 60.6782
18262 1 20.9517 136.832 59.3939
18298 1 18.2239 138.436 59.4019
18259 1 19.1416 136.823 61.9498
23915 2 20.0473 138.432 60.6782
18308 1 12.7682 141.645 59.4152
18288 1 13.686 140.035 61.965
18307 1 10.9581 141.641 61.9712
23937 2 11.8632 140.037 60.6853
18299 1 15.496 140.04 59.409
18286 1 16.4143 141.641 61.9712
23908 2 17.3195 140.037 60.6853
23939 2 14.5916 141.642 60.6915
18261 1 20.9523 140.04 59.409
18301 1 18.2244 141.645 59.4152
18258 1 19.1422 140.035 61.965
23906 2 20.0478 141.642 60.6915
18309 1 12.7686 144.853 59.4246
18287 1 13.6864 143.247 61.9765
18303 1 10.9585 144.852 61.9808
23928 2 11.8637 143.247 60.6967
18292 1 15.4965 143.249 59.4204
18289 1 16.4147 144.852 61.9808
23907 2 17.3199 143.247 60.6967
23926 2 14.592 144.852 60.701
18260 1 20.9527 143.249 59.4204
18290 1 18.2248 144.853 59.4246
18251 1 19.1427 143.247 61.9765
23909 2 20.0482 144.852 60.701
18277 1 13.6867 146.458 61.9841
23927 2 11.864 146.457 60.7043
18291 1 15.4968 146.457 59.428
23896 2 17.3202 146.457 60.7043
18253 1 20.953 146.457 59.428
18250 1 19.143 146.458 61.9841
18305 1 12.7688 148.061 59.4304
18304 1 10.9587 148.064 61.9865
18276 1 13.6869 149.67 61.988
23921 2 11.8642 149.667 60.7082
18275 1 16.415 148.064 61.9865
23929 2 14.5922 148.062 60.7068
18278 1 15.4969 149.665 59.4319
23895 2 17.3204 149.667 60.7082
18293 1 18.225 148.061 59.4304
23894 2 20.0485 148.062 60.7068
18252 1 20.9532 149.665 59.4319
18237 1 19.1431 149.67 61.988
23933 2 10.9714 135.201 65.7699
23934 2 12.7807 135.212 63.2161
17959 1 11.8751 133.6 64.4857
23553 2 13.6991 133.593 65.7596
18294 1 14.6036 135.207 64.4959
23899 2 16.4276 135.201 65.7699
17906 1 17.3313 133.6 64.4857
23567 2 15.5084 133.605 63.2059
18255 1 20.0598 135.207 64.4959
23912 2 18.2369 135.212 63.2161
23517 2 19.1554 133.593 65.7596
23519 2 20.9646 133.605 63.2059
18284 1 11.8758 136.815 64.5051
23900 2 13.6999 136.81 65.7791
23922 2 10.9721 138.418 65.7873
23935 2 12.7813 138.425 63.2334
18256 1 17.3321 136.815 64.5051
18282 1 14.6043 138.422 64.5133
23901 2 16.4283 138.418 65.7873
23904 2 15.5091 136.819 63.2252
18257 1 20.0605 138.422 64.5133
23859 2 19.1561 136.81 65.7791
23862 2 20.9654 136.819 63.2252
23902 2 18.2375 138.425 63.2334
18283 1 11.8764 140.029 64.5205
23888 2 13.7005 140.026 65.7946
23923 2 10.9726 141.634 65.8008
23924 2 12.7818 141.639 63.2468
18248 1 17.3327 140.029 64.5205
18285 1 14.6048 141.637 64.5268
23886 2 16.4289 141.634 65.8008
23903 2 15.5097 140.032 63.2406
18246 1 20.061 141.637 64.5268
23858 2 19.1567 140.026 65.7946
23861 2 20.966 140.032 63.2406
23905 2 18.2381 141.639 63.2468
18273 1 11.8769 143.244 64.532
23887 2 13.701 143.243 65.8061
23918 2 10.973 144.851 65.8104
23925 2 12.7822 144.852 63.2564
18247 1 17.3331 143.244 64.532
18271 1 14.6052 144.852 64.5363
23889 2 16.4293 144.851 65.8104
23892 2 15.5102 143.245 63.2521
18249 1 20.0614 144.852 64.5363
23851 2 19.1572 143.243 65.8061
23860 2 20.9664 143.245 63.2521
23890 2 18.2385 144.852 63.2564
18272 1 11.8772 146.459 64.5397
23877 2 13.7013 146.459 65.8138
18236 1 17.3334 146.459 64.5397
23891 2 15.5105 146.458 63.2597
23850 2 19.1575 146.459 65.8138
23853 2 20.9667 146.458 63.2597
23919 2 10.9733 148.068 65.8162
23920 2 12.7825 148.065 63.2621
18266 1 11.8774 149.674 64.5435
23876 2 13.7014 149.676 65.8176
18274 1 14.6054 148.067 64.5421
23875 2 16.4295 148.068 65.8162
18235 1 17.3336 149.674 64.5435
23878 2 15.5106 149.672 63.2636
18234 1 20.0617 148.067 64.5421
23893 2 18.2387 148.065 63.2621
23837 2 19.1577 149.676 65.8176
23852 2 20.9669 149.672 63.2636
18280 1 12.7944 135.197 67.0516
23551 2 11.8902 133.58 68.3112
23898 2 14.6188 135.19 68.3216
17904 1 15.5221 133.588 67.0413
23500 2 17.3465 133.58 68.3112
18254 1 18.2506 135.197 67.0516
23855 2 20.075 135.19 68.3216
17865 1 20.9783 133.588 67.0413
18281 1 12.795 138.416 67.0692
23884 2 11.891 136.8 68.3309
18244 1 15.5228 136.807 67.0609
23856 2 17.3472 136.8 68.3309
23882 2 14.6195 138.41 68.3392
18207 1 20.9791 136.807 67.0609
18242 1 18.2513 138.416 67.0692
23857 2 20.0757 138.41 68.3392
18269 1 12.7956 141.634 67.0827
23883 2 11.8917 140.02 68.3465
18243 1 15.5235 140.025 67.0764
23848 2 17.3479 140.02 68.3465
23885 2 14.62 141.63 68.3528
18206 1 20.9797 140.025 67.0764
18245 1 18.2518 141.634 67.0827
23846 2 20.0763 141.63 68.3528
18270 1 12.796 144.852 67.0923
23873 2 11.8922 143.24 68.3581
18232 1 15.5239 143.243 67.088
23847 2 17.3484 143.24 68.3581
23871 2 14.6205 144.85 68.3624
18205 1 20.9802 143.243 67.088
18230 1 18.2523 144.852 67.0923
23849 2 20.0767 144.85 68.3624
23872 2 11.8925 146.46 68.3658
18231 1 15.5243 146.461 67.0956
23836 2 17.3487 146.46 68.3658
18198 1 20.9805 146.461 67.0956
18265 1 12.7963 148.07 67.098
23866 2 11.8927 149.68 68.3696
23874 2 14.6207 148.07 68.3682
18219 1 15.5245 149.68 67.0995
23835 2 17.3489 149.68 68.3696
18233 1 18.2525 148.07 67.098
23834 2 20.077 148.07 68.3682
18197 1 20.9807 149.68 67.0995
18279 1 10.9847 135.186 69.6109
23880 2 12.8099 135.178 70.8682
17890 1 11.8979 133.562 72.1763
17892 1 13.7124 133.575 69.6005
18238 1 14.6265 135.175 72.1867
18239 1 16.4409 135.186 69.6109
17854 1 17.3542 133.562 72.1763
23498 2 15.5376 133.566 70.8577
18200 1 20.0828 135.175 72.1867
23854 2 18.2662 135.178 70.8682
17863 1 19.1686 133.575 69.6005
23468 2 20.9938 133.566 70.8577
18224 1 11.8989 136.788 72.1961
18240 1 13.7132 136.797 69.6202
18267 1 10.9854 138.408 69.6286
23881 2 12.8107 138.401 70.8859
18201 1 17.3551 136.788 72.1961
18222 1 14.6274 138.4 72.2045
18241 1 16.4417 138.408 69.6286
23844 2 15.5384 136.79 70.8775
18202 1 20.0836 138.4 72.2045
18204 1 19.1694 136.797 69.6202
23812 2 20.9947 136.79 70.8775
23842 2 18.2669 138.401 70.8859
18223 1 11.8996 140.013 72.2119
18228 1 13.7139 140.019 69.6359
18268 1 10.986 141.63 69.6422
23869 2 12.8113 141.624 70.8996
18193 1 17.3559 140.013 72.2119
18225 1 14.6281 141.625 72.2182
18226 1 16.4423 141.63 69.6422
23843 2 15.5391 140.013 70.8932
18191 1 20.0843 141.625 72.2182
18203 1 19.1701 140.019 69.6359
23811 2 20.9954 140.013 70.8932
23845 2 18.2675 141.624 70.8996
18214 1 11.9002 143.238 72.2236
18227 1 13.7144 143.24 69.6475
18263 1 10.9865 144.851 69.6519
23870 2 12.8118 144.847 70.9093
18192 1 17.3565 143.238 72.2236
18212 1 14.6286 144.85 72.2279
18229 1 16.4427 144.851 69.6519
23832 2 15.5397 143.236 70.9049
18194 1 20.0848 144.85 72.2279
18196 1 19.1706 143.24 69.6475
23810 2 20.9959 143.236 70.9049
23830 2 18.268 144.847 70.9093
18213 1 11.9006 146.463 72.2313
18218 1 13.7148 146.462 69.6552
18185 1 17.3569 146.463 72.2313
23831 2 15.54 146.459 70.9126
18195 1 19.171 146.462 69.6552
23804 2 20.9963 146.459 70.9126
18264 1 10.9867 148.073 69.6576
23865 2 12.812 148.07 70.9151
18209 1 11.9009 149.687 72.2352
18217 1 13.7149 149.684 69.6591
18216 1 16.443 148.073 69.6576
18215 1 14.6289 148.075 72.2338
18184 1 17.3571 149.687 72.2352
23821 2 15.5402 149.682 70.9165
23833 2 18.2683 148.07 70.9151
18183 1 20.0851 148.075 72.2338
18186 1 19.1712 149.684 69.6591
23803 2 20.9965 149.682 70.9165
18220 1 12.7532 135.168 74.8379
23879 2 10.9994 135.165 73.4001
23486 2 11.8891 133.542 75.864
23488 2 13.727 133.552 73.3896
23838 2 14.6178 135.157 75.8745
23839 2 16.4556 135.165 73.4001
17852 1 15.4807 133.554 74.8274
23461 2 17.3453 133.542 75.864
18199 1 18.2095 135.168 74.8379
23805 2 20.0741 135.157 75.8745
17845 1 20.937 133.554 74.8274
23466 2 19.1832 133.552 73.3896
18221 1 12.7544 138.398 74.8558
23824 2 11.8902 136.772 75.8839
23840 2 13.728 136.778 73.4095
23867 2 11.0002 138.392 73.4179
18189 1 15.4819 136.783 74.8474
23806 2 17.3465 136.772 75.8839
23822 2 14.6189 138.387 75.8924
23841 2 16.4565 138.392 73.4179
18177 1 20.9382 136.783 74.8474
18187 1 18.2106 138.398 74.8558
23807 2 20.0751 138.387 75.8924
23809 2 19.1842 136.778 73.4095
18210 1 12.7553 141.627 74.8695
23823 2 11.8912 140.002 75.8998
23828 2 13.7287 140.005 73.4253
23868 2 11.0009 141.618 73.4317
18188 1 15.483 140.012 74.8631
23799 2 17.3474 140.002 75.8998
23825 2 14.6197 141.617 75.9062
23826 2 16.4572 141.618 73.4317
18176 1 20.9392 140.012 74.8631
18190 1 18.2115 141.627 74.8695
23797 2 20.0759 141.617 75.9062
23808 2 19.185 140.005 73.4253
18211 1 12.7559 144.856 74.8793
23816 2 11.8919 143.232 75.9116
23827 2 13.7293 143.231 73.437
23863 2 11.0014 144.844 73.4414
18181 1 15.4837 143.241 74.8749
23798 2 17.3481 143.232 75.9116
23814 2 14.6203 144.847 75.916
23829 2 16.4577 144.844 73.4414
18175 1 20.94 143.241 74.8749
18179 1 18.2121 144.856 74.8793
23800 2 20.0765 144.847 75.916
23802 2 19.1856 143.231 73.437
23815 2 11.8924 146.462 75.9194
23820 2 13.7297 146.457 73.4448
18180 1 15.4843 146.471 74.8827
23795 2 17.3486 146.462 75.9194
18174 1 20.9405 146.471 74.8827
23801 2 19.186 146.457 73.4448
23864 2 11.0017 148.07 73.4473
18208 1 12.7563 148.085 74.8851
23813 2 11.8926 149.691 75.9233
23819 2 13.7299 149.683 73.4487
23818 2 16.458 148.07 73.4473
23817 2 14.6206 148.076 75.9219
18178 1 15.4845 149.7 74.8866
23794 2 17.3489 149.691 75.9233
23793 2 20.0769 148.076 75.9219
18182 1 18.2125 148.085 74.8851
18173 1 20.9408 149.7 74.8866
23796 2 19.1862 149.683 73.4487
