ITEM: TIMESTEP
0
ITEM: NUMBER OF ATOMS
23952
ITEM: BOX BOUNDS pp pp ss
0.0000000000000000e+00 2.1824953608198122e+01
0.0000000000000000e+00 1.5120771408893131e+02
-4.0801162962028874e+00 7.5931819214235091e+01
ITEM: ATOMS id type x y z
6321 2 0.896713 1.52763 -0.859994
6329 2 2.70766 1.52427 -3.36767
192 1 1.78364 3.0904 -2.30538
6319 2 3.62493 3.09481 -0.86157
178 1 4.51165 1.52394 -2.30381
6291 2 6.35295 1.52763 -0.859994
6330 2 5.43589 3.08989 -3.36924
176 1 7.23988 3.0904 -2.30538
132 1 9.96789 1.52394 -2.30381
6294 2 8.1639 1.52427 -3.36767
6292 2 9.08117 3.09481 -0.86157
9598 2 10.8921 3.08989 -3.36924
6320 2 0.896977 4.66198 -0.864196
6325 2 2.70794 4.6555 -3.37185
188 1 1.78408 6.22335 -2.31165
6322 2 3.62533 6.22915 -0.867873
177 1 4.51194 4.65687 -2.30799
6285 2 6.35322 4.66198 -0.864196
6323 2 5.4363 6.22112 -3.37551
179 1 7.24032 6.22335 -2.31165
131 1 9.96818 4.65687 -2.30799
6293 2 8.16418 4.6555 -3.37185
6283 2 9.08157 6.22915 -0.867873
9599 2 10.8925 6.22112 -3.37551
6310 2 0.897505 7.79634 -0.8726
6324 2 2.70849 7.78677 -3.38022
189 1 1.78481 9.35639 -2.3221
6308 2 3.62599 9.36355 -0.878376
170 1 4.51253 7.78986 -2.31636
6284 2 6.35374 7.79634 -0.8726
6326 2 5.43698 9.35244 -3.38597
168 1 7.24105 9.35639 -2.3221
130 1 9.96877 7.78986 -2.31636
6288 2 8.16473 7.78677 -3.38022
6286 2 9.08222 9.36355 -0.878376
9596 2 10.8932 9.35244 -3.38597
6309 2 0.898294 10.9308 -0.885202
6314 2 2.70931 10.9181 -3.39276
184 1 1.78585 12.4896 -2.33672
6311 2 3.6269 12.4981 -0.893077
169 1 4.51341 10.923 -2.32889
6271 2 6.35453 10.9308 -0.885202
6312 2 5.43794 12.4839 -3.40059
171 1 7.24208 12.4896 -2.33672
123 1 9.96965 10.923 -2.32889
6287 2 8.16555 10.9181 -3.39276
6269 2 9.08314 12.4981 -0.893077
9597 2 10.8942 12.4839 -3.40059
6302 2 0.899339 14.0654 -0.902
6313 2 2.71041 14.0497 -3.40947
185 1 1.78723 15.6231 -2.35548
6300 2 3.62807 15.6328 -0.911974
156 1 4.5146 14.0563 -2.34559
6270 2 6.35558 14.0654 -0.902
6315 2 5.43919 15.6156 -3.41938
154 1 7.24347 15.6231 -2.35548
122 1 9.97084 14.0563 -2.34559
6274 2 8.16665 14.0497 -3.40947
6272 2 9.08431 15.6328 -0.911974
9595 2 10.8954 15.6156 -3.41938
6301 2 0.90062 17.2003 -0.92301
6303 2 2.71183 17.1815 -3.43033
575 1 1.78927 18.757 -2.37854
6735 2 3.62945 18.7678 -0.935108
155 1 4.51627 17.1899 -2.36644
6253 2 6.35686 17.2003 -0.92301
6736 2 5.44079 18.7475 -3.44232
564 1 7.24551 18.757 -2.37854
107 1 9.97251 17.1899 -2.36644
6273 2 8.16807 17.1815 -3.43033
6698 2 9.08569 18.7678 -0.935108
10008 2 10.897 18.7475 -3.44232
174 1 2.71156 1.52819 0.363042
6318 2 1.804 3.09972 1.69364
6281 2 4.53202 1.53088 1.69522
175 1 5.43978 3.09621 0.361465
6279 2 7.26024 3.09972 1.69364
129 1 8.1678 1.52819 0.363042
6228 2 9.98826 1.53088 1.69522
3258 1 10.896 3.09621 0.361465
166 1 2.71184 4.66423 0.358837
6306 2 1.80441 6.23737 1.68731
6280 2 4.53229 4.66854 1.691
164 1 5.4402 6.23225 0.355159
6282 2 7.26065 6.23737 1.68731
128 1 8.16808 4.66423 0.358837
6227 2 9.98853 4.66854 1.691
3259 1 10.8964 6.23225 0.355159
165 1 2.71239 7.80029 0.350429
6307 2 1.80509 9.37505 1.67677
6267 2 4.53284 7.80621 1.68257
167 1 5.44088 9.36834 0.344648
6265 2 7.26133 9.37505 1.67677
121 1 8.16862 7.80029 0.350429
6226 2 9.98907 7.80621 1.68257
3254 1 10.8971 9.36834 0.344648
152 1 2.71321 10.9364 0.337817
6298 2 1.80605 12.5128 1.66201
6266 2 4.53366 10.9439 1.66992
150 1 5.44184 12.5046 0.329937
6268 2 7.26229 12.5128 1.66201
120 1 8.16945 10.9364 0.337817
6219 2 9.98989 10.9439 1.66992
3255 1 10.8981 12.5046 0.329937
151 1 2.71431 14.0727 0.321006
6299 2 1.80727 15.6508 1.64301
6252 2 4.53475 14.0818 1.65304
153 1 5.44308 15.641 0.311018
6250 2 7.26351 15.6508 1.64301
106 1 8.17054 14.0727 0.321006
6218 2 9.99098 14.0818 1.65304
3253 1 10.8993 15.641 0.311018
141 1 2.71568 17.2093 0.29996
6725 2 1.80875 18.7889 1.61976
6251 2 4.5361 17.2198 1.63192
557 1 5.4446 18.7778 0.28783
6697 2 7.26498 18.7889 1.61976
105 1 8.17192 17.2093 0.29996
6203 2 9.99233 17.2198 1.63192
3646 1 10.9008 18.7778 0.28783
162 1 0.892815 1.5321 2.96193
160 1 3.62104 3.10177 2.96035
6277 2 2.71119 1.5348 4.263
159 1 1.80074 3.10822 5.54279
126 1 6.34905 1.5321 2.96193
114 1 4.52875 1.53692 5.54437
6278 2 5.43941 3.10528 4.26142
112 1 7.25698 3.10822 5.54279
127 1 9.07728 3.10177 2.96035
60 1 9.98499 1.53692 5.54437
6225 2 8.16743 1.5348 4.263
9568 2 10.8957 3.10528 4.26142
161 1 0.893094 4.67143 2.95771
163 1 3.62146 6.2411 2.95402
6263 2 2.71147 4.67575 4.25878
144 1 1.80117 6.2508 5.53647
118 1 6.34933 4.67143 2.95771
113 1 4.52904 4.67951 5.54016
6261 2 5.43983 6.24621 4.25509
115 1 7.25741 6.2508 5.53647
116 1 9.0777 6.2411 2.95402
59 1 9.98528 4.67951 5.54016
6224 2 8.16771 4.67575 4.25878
9569 2 10.8961 6.24621 4.25509
148 1 0.893654 7.81077 2.94927
146 1 3.62216 9.38045 2.94347
6262 2 2.71203 7.81667 4.25034
145 1 1.80188 9.39335 5.52591
117 1 6.34989 7.81077 2.94927
99 1 4.52961 7.82208 5.53172
6264 2 5.44053 9.38714 4.24453
97 1 7.25812 9.39335 5.52591
119 1 9.0784 9.38045 2.94347
58 1 9.98585 7.82208 5.53172
6217 2 8.16827 7.81667 4.25034
9560 2 10.8968 9.38714 4.24453
147 1 0.894497 10.9501 2.93661
149 1 3.62314 12.5199 2.92869
6248 2 2.71287 10.9576 4.23766
136 1 1.80289 12.5359 5.51111
103 1 6.35073 10.9501 2.93661
98 1 4.53047 10.9646 5.51904
6246 2 5.44152 12.5281 4.22974
100 1 7.25913 12.5359 5.51111
101 1 9.07938 12.5199 2.92869
51 1 9.98671 10.9646 5.51904
6216 2 8.16911 10.9576 4.23766
9561 2 10.8978 12.5281 4.22974
140 1 0.895623 14.0896 2.9197
138 1 3.62441 15.6594 2.90965
6247 2 2.714 14.0986 4.22074
137 1 1.80419 15.6785 5.49204
102 1 6.35186 14.0896 2.9197
84 1 4.53162 14.1072 5.50211
6249 2 5.44279 15.6692 4.21069
82 1 7.26043 15.6785 5.49204
9559 2 10.899 15.6692 4.21069
6202 2 8.17024 14.0986 4.22074
50 1 9.98786 14.1072 5.50211
104 1 9.08065 15.6594 2.90965
542 1 1.80578 18.8212 5.4687
556 1 3.62595 18.7992 2.88635
6237 2 2.71541 17.2397 4.19957
139 1 0.897029 17.2293 2.89853
508 1 7.26202 18.8212 5.4687
6684 2 5.44434 18.8104 4.18738
83 1 4.53307 17.2499 5.48091
85 1 6.35327 17.2293 2.89853
9988 2 10.9006 18.8104 4.18738
509 1 9.08219 18.7992 2.88635
6201 2 8.17165 17.2397 4.19957
36 1 9.98931 17.2499 5.48091
110 1 2.70846 1.54163 8.12093
6259 2 0.890681 1.53935 6.83482
6257 2 3.61891 3.11145 6.83325
6222 2 6.34692 1.53935 6.83482
111 1 5.43668 3.11454 8.11937
57 1 8.16469 1.54163 8.12093
6223 2 9.07515 3.11145 6.83325
3214 1 10.8929 3.11454 8.11937
95 1 2.70874 4.68743 8.11674
6258 2 0.890966 4.68353 6.83062
6260 2 3.61933 6.25561 6.82694
6214 2 6.3472 4.68353 6.83062
93 1 5.43711 6.26031 8.11307
56 1 8.16498 4.68743 8.11674
6212 2 9.07557 6.25561 6.82694
3215 1 10.8933 6.26031 8.11307
94 1 2.70931 7.83318 8.10834
6244 2 0.891533 7.82767 6.8222
6242 2 3.62004 9.39972 6.81641
6213 2 6.34777 7.82767 6.8222
96 1 5.43782 9.40603 8.10255
49 1 8.16555 7.83318 8.10834
6215 2 9.07628 9.39972 6.81641
3206 1 10.8941 9.40603 8.10255
80 1 2.71017 10.9789 8.0957
6243 2 0.892386 10.9718 6.80955
6245 2 3.62104 12.5438 6.80164
6199 2 6.34862 10.9718 6.80955
78 1 5.43883 12.5517 8.08779
48 1 8.16641 10.9789 8.0957
6197 2 9.07728 12.5438 6.80164
3207 1 10.8951 12.5517 8.08779
79 1 2.71132 14.1245 8.07882
6236 2 0.89353 14.1159 6.79266
6234 2 3.62233 15.6879 6.78261
6198 2 6.34977 14.1159 6.79266
81 1 5.44013 15.6973 8.06878
35 1 8.16756 14.1245 8.07882
6200 2 9.07857 15.6879 6.78261
3205 1 10.8964 15.6973 8.06878
69 1 2.71278 17.2701 8.05768
6235 2 0.894971 17.2599 6.77151
6683 2 3.62392 18.832 6.75934
6184 2 6.35121 17.2599 6.77151
493 1 5.44174 18.8428 8.04551
34 1 8.16901 17.2701 8.05768
3613 1 10.898 18.8428 8.04551
6629 2 9.08016 18.832 6.75934
91 1 0.888425 1.54634 10.695
6206 2 2.70686 1.54868 11.9801
6256 2 1.79872 3.11767 9.40601
89 1 3.61665 3.12083 10.6935
6210 2 4.52673 1.54398 9.40757
54 1 6.34466 1.54634 10.695
6208 2 7.25496 3.11767 9.40601
6207 2 5.43508 3.12395 11.9786
6168 2 9.98297 1.54398 9.40757
6165 2 8.1631 1.54868 11.9801
55 1 9.07289 3.12083 10.6935
9502 2 10.8913 3.12395 11.9786
90 1 0.888704 4.69531 10.6909
6191 2 2.70713 4.6992 11.976
6240 2 1.79914 6.26501 9.39974
92 1 3.61706 6.26977 10.6872
6209 2 4.52701 4.69135 9.4034
46 1 6.34494 4.69531 10.6909
6211 2 7.25537 6.26501 9.39974
6189 2 5.43548 6.27443 11.9724
6167 2 9.98325 4.69135 9.4034
6164 2 8.16337 4.6992 11.976
44 1 9.0733 6.26977 10.6872
9503 2 10.8917 6.27443 11.9724
6241 2 1.79983 9.41227 9.38927
76 1 0.889251 7.8442 10.6825
6190 2 2.70765 7.84962 11.9677
74 1 3.61775 9.41859 10.6768
6195 2 4.52757 7.83865 9.39503
6193 2 7.25607 9.41227 9.38927
45 1 6.34549 7.8442 10.6825
6192 2 5.43613 9.42478 11.962
6166 2 9.98381 7.83865 9.39503
6158 2 8.16389 7.84962 11.9677
47 1 9.07399 9.41859 10.6768
9494 2 10.8924 9.42478 11.962
6232 2 1.80081 12.5594 9.37458
75 1 0.890076 10.993 10.67
6179 2 2.70844 10.9999 11.9553
77 1 3.61871 12.5673 10.6621
6194 2 4.5284 10.9859 9.38245
6196 2 7.25705 12.5594 9.37458
32 1 6.34631 10.993 10.67
6177 2 5.43705 12.575 11.9475
6160 2 9.98464 10.9859 9.38245
6157 2 8.16468 10.9999 11.9553
30 1 9.07495 12.5673 10.6621
9495 2 10.8933 12.575 11.9475
6233 2 1.80208 15.7065 9.35566
68 1 0.891189 14.1416 10.6532
6178 2 2.7095 14.15 11.9386
66 1 3.61998 15.7158 10.6433
6183 2 4.52953 14.133 9.36565
6181 2 7.25832 15.7065 9.35566
31 1 6.34743 14.1416 10.6532
6180 2 5.43826 15.725 11.9287
6159 2 9.98577 14.133 9.36565
6151 2 8.16574 14.15 11.9386
33 1 9.07621 15.7158 10.6433
9493 2 10.8945 15.725 11.9287
67 1 0.892603 17.29 10.6322
6172 2 2.71086 17.2998 11.9178
6663 2 1.80366 18.8534 9.33252
492 1 3.62155 18.8642 10.6202
6182 2 4.53095 17.28 9.34462
21 1 6.34884 17.29 10.6322
6628 2 7.2599 18.8534 9.33252
6613 2 5.43977 18.8747 11.9058
6152 2 9.98719 17.28 9.34462
6150 2 8.1671 17.2998 11.9178
437 1 9.07778 18.8642 10.6202
9926 2 10.896 18.8747 11.9058
38 1 2.70555 1.55588 15.8395
6187 2 0.887307 1.55344 14.5521
88 1 1.79692 3.12715 13.2662
6185 2 3.61552 3.13027 14.5506
42 1 4.52494 1.55108 13.2677
6162 2 6.34355 1.55344 14.5521
39 1 5.43375 3.1335 15.838
40 1 7.25316 3.12715 13.2662
9 1 8.16178 1.55588 15.8395
12 1 9.98118 1.55108 13.2677
6163 2 9.07176 3.13027 14.5506
3142 1 10.89 3.1335 15.838
24 1 2.70577 4.71109 15.8355
6186 2 0.88755 4.70708 14.5481
72 1 1.7973 6.2792 13.2601
6188 2 3.61588 6.28385 14.5445
41 1 4.5252 4.70319 13.2637
6155 2 6.34379 4.70708 14.5481
22 1 5.43409 6.28865 15.832
43 1 7.25354 6.2792 13.2601
8 1 8.16201 4.71109 15.8355
11 1 9.98144 4.70319 13.2637
6153 2 9.07211 6.28385 14.5445
3143 1 10.8903 6.28865 15.832
23 1 2.70622 7.86616 15.8274
6175 2 0.888023 7.86058 14.5399
6173 2 3.61647 9.43727 14.5343
73 1 1.79794 9.43111 13.2497
28 1 4.52571 7.85518 13.2554
6154 2 6.34426 7.86058 14.5399
26 1 7.25418 9.43111 13.2497
25 1 5.43464 9.44361 15.8218
5 1 8.16246 7.86616 15.8274
10 1 9.98195 7.85518 13.2554
6156 2 9.07271 9.43727 14.5343
3134 1 10.8909 9.44361 15.8218
6174 2 0.888735 11.0139 14.5276
16 1 2.70689 11.021 15.8152
6176 2 3.61731 12.5905 14.5199
64 1 1.79883 12.5828 13.2353
6148 2 6.34497 11.0139 14.5276
27 1 4.52647 11.007 13.243
29 1 7.25507 12.5828 13.2353
14 1 5.43543 12.5983 15.8076
3135 1 10.8917 12.5983 15.8076
6146 2 9.07354 12.5905 14.5199
7 1 9.98271 11.007 13.243
4 1 8.16313 11.021 15.8152
65 1 1.80001 15.7343 13.2166
6169 2 3.61841 15.7434 14.5014
6171 2 0.889702 14.167 14.5112
15 1 2.7078 14.1756 15.7989
18 1 7.25624 15.7343 13.2166
6147 2 6.34594 14.167 14.5112
20 1 4.5275 14.1586 13.2264
6149 2 9.07464 15.7434 14.5014
2 1 8.16404 14.1756 15.7989
6 1 9.98374 14.1586 13.2264
13 1 2.70898 17.3298 15.7785
6170 2 0.890941 17.3197 14.4906
6612 2 3.61979 18.8959 14.4788
471 1 1.80148 18.8854 13.1938
19 1 4.52882 17.3099 13.2057
6145 2 6.34718 17.3197 14.4906
17 1 5.43648 15.7527 15.7892
436 1 7.25771 18.8854 13.1938
3133 1 10.8927 15.7527 15.7892
1 1 8.16522 17.3298 15.7785
3 1 9.98506 17.3099 13.2057
6569 2 9.07603 18.8959 14.4788
382 1 0.886481 1.56074 18.4105
6528 2 1.79628 3.13664 17.122
380 1 3.61467 3.1399 18.4091
6514 2 4.52432 1.55826 17.1235
359 1 6.34272 1.56074 18.4105
6512 2 7.25252 3.13664 17.122
6468 2 9.98056 1.55826 17.1235
360 1 9.07091 3.1399 18.4091
381 1 0.886671 4.71903 18.4066
6524 2 1.79659 6.2933 17.116
383 1 3.61495 6.29811 18.4031
6513 2 4.52453 4.71499 17.1195
355 1 6.34291 4.71903 18.4066
6515 2 7.25283 6.2933 17.116
6467 2 9.98077 4.71499 17.1195
353 1 9.07119 6.29811 18.4031
375 1 0.887039 7.87715 18.3986
6525 2 1.79709 9.44977 17.1059
6506 2 4.52493 7.87156 17.1115
354 1 6.34328 7.87715 18.3986
6504 2 7.25333 9.44977 17.1059
6466 2 9.98117 7.87156 17.1115
374 1 0.887596 11.035 18.3866
373 1 3.61541 9.45613 18.3931
6505 2 4.52555 11.0279 17.0994
343 1 6.34383 11.035 18.3866
356 1 9.07165 9.45613 18.3931
6459 2 9.98178 11.0279 17.0994
6520 2 1.79781 12.606 17.0918
368 1 0.888356 14.1926 18.3706
376 1 3.61607 12.6139 18.3791
342 1 6.34459 14.1926 18.3706
6492 2 4.52638 14.1839 17.0832
6507 2 7.25405 12.606 17.0918
341 1 9.07231 12.6139 18.3791
6458 2 9.98262 14.1839 17.0832
6521 2 1.79876 15.7618 17.0736
367 1 0.889342 17.3497 18.3506
366 1 3.61694 15.7712 18.3611
325 1 6.34558 17.3497 18.3506
6491 2 4.52745 17.3396 17.063
6490 2 7.255 15.7618 17.0736
344 1 9.07318 15.7712 18.3611
6443 2 9.98369 17.3396 17.063
6510 2 2.70544 1.56314 19.6941
6498 2 0.886927 1.56807 22.2639
379 1 1.79595 3.14634 20.9793
6496 2 3.61509 3.14952 22.2625
351 1 4.52401 1.56565 20.9808
6462 2 6.34317 1.56807 22.2639
6511 2 5.43362 3.14305 19.6926
349 1 7.25218 3.14634 20.9793
6465 2 8.16168 1.56314 19.6941
300 1 9.98025 1.56565 20.9808
9786 2 10.8899 3.14305 19.6926
6463 2 9.07133 3.14952 22.2625
6502 2 2.70561 4.72294 19.6902
6497 2 0.887046 4.73093 22.2601
350 1 4.52415 4.727 20.9769
6454 2 6.34328 4.73093 22.2601
6464 2 8.16185 4.72294 19.6902
299 1 9.98039 4.727 20.9769
6501 2 2.70593 7.88257 19.6823
371 1 1.79616 6.30762 20.9735
6484 2 0.887277 7.89361 22.2524
6499 2 3.61527 6.3123 22.2568
6500 2 5.43387 6.30278 19.6867
339 1 4.52443 7.88818 20.9691
6453 2 6.34352 7.89361 22.2524
352 1 7.2524 6.30762 20.9735
6457 2 8.16217 7.88257 19.6823
298 1 9.98067 7.88818 20.9691
6452 2 9.07151 6.3123 22.2568
9787 2 10.8901 6.30278 19.6867
6488 2 2.70642 11.0419 19.6704
372 1 1.79651 9.46867 20.9637
6483 2 0.887628 11.056 22.2408
6482 2 3.61556 9.47486 22.2471
6503 2 5.43427 9.46229 19.6769
338 1 4.52486 11.0491 20.9574
6439 2 6.34387 11.056 22.2408
337 1 7.25274 9.46867 20.9637
6456 2 8.16266 11.0419 19.6704
291 1 9.98109 11.0491 20.9574
6455 2 9.07179 9.47486 22.2471
9782 2 10.8905 9.46229 19.6769
6487 2 2.70709 14.201 19.6546
364 1 1.79701 12.6294 20.95
6476 2 0.888112 14.2181 22.2253
6485 2 3.61597 12.6371 22.2335
6486 2 5.43485 12.6215 19.663
324 1 4.52544 14.2096 20.9417
6438 2 6.34435 14.2181 22.2253
340 1 7.25324 12.6294 20.95
6442 2 8.16333 14.201 19.6546
290 1 9.98168 14.2096 20.9417
6437 2 9.07221 12.6371 22.2335
9783 2 10.8911 12.6215 19.663
6477 2 2.70796 17.3595 19.6348
365 1 1.79767 15.7897 20.9324
6475 2 0.888749 17.3796 22.2059
6474 2 3.61653 15.7989 22.2161
6489 2 5.43562 15.7803 19.6452
323 1 4.5262 17.3697 20.9221
6421 2 6.34499 17.3796 22.2059
322 1 7.25391 15.7897 20.9324
6441 2 8.1642 17.3595 19.6348
275 1 9.98244 17.3697 20.9221
6440 2 9.07277 15.7989 22.2161
9781 2 10.8919 15.7803 19.6452
347 1 2.70568 1.57061 23.5502
6450 2 4.52504 1.57306 24.833
297 1 8.16192 1.57061 23.5502
6396 2 9.98128 1.57306 24.833
335 1 2.70577 4.73502 23.5465
6495 2 1.79695 3.15603 24.8316
348 1 5.43383 3.15283 23.5488
6449 2 4.52511 4.73897 24.8293
6448 2 7.25319 3.15603 24.8316
296 1 8.16201 4.73502 23.5465
6395 2 9.98135 4.73897 24.8293
3441 1 10.8901 3.15283 23.5488
334 1 2.70596 7.89924 23.5388
6480 2 1.79705 6.32187 24.826
333 1 5.43397 6.31716 23.5431
6435 2 4.52525 7.90471 24.8218
6451 2 7.25329 6.32187 24.826
289 1 8.16219 7.89924 23.5388
6394 2 9.98149 7.90471 24.8218
3442 1 10.8902 6.31716 23.5431
320 1 2.70623 11.0632 23.5273
6481 2 1.79722 9.48748 24.8165
336 1 5.4342 9.48126 23.5336
6434 2 4.52545 11.0702 24.8104
6433 2 7.25346 9.48748 24.8165
288 1 8.16247 11.0632 23.5273
6387 2 9.98169 11.0702 24.8104
3434 1 10.8904 9.48126 23.5336
319 1 2.70662 14.2268 23.512
6472 2 1.79747 12.6528 24.8033
6436 2 7.2537 12.6528 24.8033
6420 2 4.52574 14.2353 24.7952
318 1 5.43453 12.645 23.5201
3435 1 10.8908 12.645 23.5201
6386 2 9.98198 14.2353 24.7952
274 1 8.16286 14.2268 23.512
6473 2 1.7978 15.8176 24.7862
309 1 2.70713 17.3898 23.4928
6418 2 7.25404 15.8176 24.7862
6419 2 4.52613 17.3998 24.7763
321 1 5.43498 15.8084 23.5029
3433 1 10.8912 15.8084 23.5029
6372 2 9.98236 17.3998 24.7763
273 1 8.16337 17.3898 23.4928
331 1 0.887756 1.57562 26.1189
6446 2 2.70735 1.5781 27.4013
294 1 6.34399 1.57562 26.1189
282 1 4.52651 1.58068 28.6868
234 1 9.98275 1.58068 28.6868
6393 2 8.16359 1.5781 27.4013
330 1 0.887799 4.74308 26.1152
329 1 3.61589 3.15937 26.1175
328 1 1.79839 3.16595 28.6855
6431 2 2.70737 4.74706 27.3977
286 1 6.34404 4.74308 26.1152
281 1 4.5265 4.75119 28.6832
6447 2 5.43548 3.16259 27.4
280 1 7.25463 3.16595 28.6855
295 1 9.07213 3.15937 26.1175
233 1 9.98274 4.75119 28.6832
6392 2 8.16361 4.74706 27.3977
9742 2 10.8917 3.16259 27.4
316 1 0.887881 7.91036 26.1078
332 1 3.61595 6.32675 26.112
312 1 1.79838 6.33639 28.68
6430 2 2.7074 7.91585 27.3903
285 1 6.34412 7.91036 26.1078
267 1 4.52649 7.92153 28.6759
6429 2 5.4355 6.33148 27.3945
283 1 7.25461 6.33639 28.68
284 1 9.07219 6.32675 26.112
232 1 9.98273 7.92153 28.6759
6385 2 8.16364 7.91585 27.3903
9743 2 10.8917 6.33148 27.3945
315 1 0.888009 11.0774 26.0965
314 1 3.61606 9.49391 26.1026
313 1 1.79836 9.50662 28.6708
6416 2 2.70746 11.0844 27.3792
271 1 6.34425 11.0774 26.0965
266 1 4.52647 11.0916 28.6649
6432 2 5.43555 9.50016 27.3852
265 1 7.2546 9.50662 28.6708
287 1 9.0723 9.49391 26.1026
225 1 9.98271 11.0916 28.6649
6384 2 8.1637 11.0844 27.3792
9734 2 10.8918 9.50016 27.3852
308 1 0.888191 14.244 26.0815
317 1 3.61621 12.6607 26.0895
304 1 1.79834 12.6765 28.658
6415 2 2.70755 14.2526 27.3643
270 1 6.34443 14.244 26.0815
253 1 4.52645 14.2614 28.6502
6414 2 5.43562 12.6685 27.3722
268 1 7.25458 12.6765 28.658
269 1 9.07245 12.6607 26.0895
224 1 9.98269 14.2614 28.6502
6371 2 8.16379 14.2526 27.3643
9735 2 10.8919 12.6685 27.3722
307 1 0.888441 17.4101 26.0628
306 1 3.61643 15.8271 26.0726
305 1 1.79832 15.8461 28.6414
6405 2 2.70768 17.4202 27.3458
254 1 6.34468 17.4101 26.0628
252 1 4.52644 17.4306 28.6319
6417 2 5.43573 15.8365 27.3555
251 1 7.25456 15.8461 28.6414
272 1 9.07266 15.8271 26.0726
213 1 9.98268 17.4306 28.6319
6370 2 8.16392 17.4202 27.3458
9733 2 10.892 15.8365 27.3555
278 1 2.7095 1.58578 31.2539
6423 2 1.80148 0.000720295 32.5359
6427 2 0.890107 1.58317 29.9688
6378 2 4.52959 1.58829 32.5355
6390 2 6.34635 1.58317 29.9688
6388 2 7.25772 0.000720295 32.5359
231 1 8.16574 1.58578 31.2539
6348 2 9.98583 1.58829 32.5355
263 1 2.70944 4.75935 31.2503
6424 2 1.80144 3.17585 32.5342
6426 2 0.890077 4.7552 29.9653
6425 2 3.61822 3.1692 29.9675
279 1 5.4376 3.17258 31.2526
6377 2 4.52952 4.76338 32.532
6382 2 6.34632 4.7552 29.9653
6376 2 7.25768 3.17585 32.5342
230 1 8.16568 4.75935 31.2503
6347 2 9.98576 4.76338 32.532
6391 2 9.07445 3.1692 29.9675
3382 1 10.8938 3.17258 31.2526
262 1 2.70933 7.93277 31.2432
6408 2 1.80133 6.35088 32.5289
6412 2 0.89002 7.92706 29.958
6428 2 3.61817 6.34115 29.9621
261 1 5.43751 6.34608 31.2472
6364 2 4.52937 7.93833 32.5249
6381 2 6.34626 7.92706 29.958
6379 2 7.25757 6.35088 32.5289
223 1 8.16557 7.93277 31.2432
6346 2 9.98561 7.93833 32.5249
6380 2 9.07441 6.34115 29.9621
3383 1 10.8938 6.34608 31.2472
249 1 2.70918 11.106 31.2323
6409 2 1.80116 9.52574 32.52
6411 2 0.889937 11.0987 29.9471
6410 2 3.6181 9.51291 29.953
264 1 5.43738 9.5194 31.2382
6363 2 4.52916 11.1131 32.5141
6368 2 6.34618 11.0987 29.9471
6362 2 7.2574 9.52574 32.52
222 1 8.16542 11.106 31.2323
6343 2 9.9854 11.1131 32.5141
6383 2 9.07434 9.51291 29.953
3374 1 10.8936 9.5194 31.2382
248 1 2.70897 14.2788 31.2179
6400 2 1.80091 12.7003 32.5074
6404 2 0.889833 14.27 29.9325
6413 2 3.61801 12.6844 29.9403
247 1 5.4372 12.6924 31.2256
6356 2 4.52888 14.2875 32.4998
6367 2 6.34607 14.27 29.9325
6365 2 7.25715 12.7003 32.5074
212 1 8.16521 14.2788 31.2179
6342 2 9.98512 14.2875 32.4998
6366 2 9.07425 12.6844 29.9403
3375 1 10.8934 12.6924 31.2256
240 1 2.70872 17.4513 31.2
6401 2 1.8006 15.8746 32.4914
6403 2 0.889715 17.4408 29.9144
6402 2 3.61789 15.8555 29.9239
250 1 5.43697 15.8651 31.2094
6355 2 4.52854 17.4616 32.482
6357 2 6.34595 17.4408 29.9144
6354 2 7.25684 15.8746 32.4914
211 1 8.16496 17.4513 31.2
6339 2 9.98478 17.4616 32.482
6369 2 9.07413 15.8555 29.9239
3373 1 10.8932 15.8651 31.2094
259 1 0.892985 1.59092 33.8201
6374 2 2.71335 1.59344 35.1013
276 1 3.62112 0.00257617 33.8205
228 1 6.34922 1.59092 33.8201
6373 2 5.44149 0.00433633 35.1017
227 1 9.07736 0.00257617 33.8205
6345 2 8.16959 1.59344 35.1013
9686 2 10.8977 0.00433633 35.1017
258 1 0.892886 4.76755 33.8166
6360 2 2.71324 4.77161 35.0979
257 1 3.62107 3.17925 33.8188
220 1 6.34912 4.76755 33.8166
6375 2 5.44143 3.18254 35.1
229 1 9.0773 3.17925 33.8188
6344 2 8.16948 4.77161 35.0979
9670 2 10.8977 3.18254 35.1
260 1 3.62092 6.35583 33.8136
245 1 0.892699 7.94407 33.8096
6359 2 2.71302 7.94967 35.0908
6358 2 5.44126 6.36066 35.0948
219 1 6.34894 7.94407 33.8096
6341 2 8.16926 7.94967 35.0908
218 1 9.07716 6.35583 33.8136
9671 2 10.8975 6.36066 35.0948
243 1 3.62069 9.53225 33.8047
6352 2 2.7127 11.1276 35.0802
244 1 0.89242 11.1204 33.7989
6361 2 5.44099 9.53864 35.086
209 1 6.34866 11.1204 33.7989
6340 2 8.16894 11.1276 35.0802
221 1 9.07693 9.53225 33.8047
9662 2 10.8972 9.53864 35.086
246 1 3.62037 12.7084 33.7922
6351 2 2.71227 14.3052 35.0661
239 1 0.892049 14.2964 33.7847
6350 2 5.44062 12.7164 35.0736
208 1 6.34829 14.2964 33.7847
6338 2 8.16851 14.3052 35.0661
207 1 9.0766 12.7084 33.7922
9663 2 10.8969 12.7164 35.0736
238 1 0.891583 17.4721 33.767
6349 2 2.71173 17.4825 35.0486
237 1 3.61995 15.8843 33.7763
202 1 6.34782 17.4721 33.767
6353 2 5.44013 15.8939 35.0578
9661 2 10.8964 15.8939 35.0578
210 1 9.07619 15.8843 33.7763
6337 2 8.16797 17.4825 35.0486
6550 2 0.897654 1.59862 37.6663
12857 1 2.71781 1.60128 38.95
255 1 1.80514 0.00620625 36.3858
6552 2 3.6258 0.00797179 37.6666
6539 2 6.35389 1.59862 37.6663
12856 1 5.44595 0.00985227 38.9503
216 1 4.53324 1.59609 36.3855
226 1 7.26138 0.00620625 36.3858
6538 2 9.08203 0.00797179 37.6666
12822 1 8.17405 1.60128 38.95
198 1 9.98948 1.59609 36.3855
15684 1 10.9022 0.00985227 38.9503
6549 2 0.897509 4.77989 37.6629
12853 1 2.71765 4.78411 38.9466
256 1 1.80507 3.18596 36.3842
6548 2 3.62572 3.18927 37.665
6536 2 6.35375 4.77989 37.6629
12858 1 5.44586 3.1927 38.9487
215 1 4.5331 4.77581 36.3821
214 1 7.26131 3.18596 36.3842
6540 2 9.08196 3.18927 37.665
12821 1 8.17388 4.78411 38.9466
197 1 9.98934 4.77581 36.3821
15682 1 10.9021 3.1927 38.9487
6546 2 0.897232 7.96108 37.6559
12852 1 2.71734 7.96686 38.9396
241 1 1.80487 6.36564 36.379
6551 2 3.62551 6.3705 37.6598
6535 2 6.35347 7.96108 37.6559
12851 1 5.44563 6.3755 38.9436
205 1 4.53285 7.95543 36.3751
217 1 7.26111 6.36564 36.379
6534 2 9.08174 6.3705 37.6598
12816 1 8.17357 7.96686 38.9396
196 1 9.98909 7.95543 36.3751
15683 1 10.9019 6.3755 38.9436
6545 2 0.896821 11.1421 37.6454
12842 1 2.71688 11.1495 38.9292
242 1 1.80456 9.54518 36.3702
6544 2 3.62516 9.55162 37.6511
6532 2 6.35306 11.1421 37.6454
12854 1 5.44525 9.5582 38.9349
204 1 4.53247 11.1349 36.3645
203 1 7.26079 9.54518 36.3702
6537 2 9.0814 9.55162 37.6511
12815 1 8.17312 11.1495 38.9292
195 1 9.98871 11.1349 36.3645
15680 1 10.9015 9.5582 38.9349
6543 2 0.89627 14.323 37.6314
12841 1 2.71626 14.332 38.9152
235 1 1.80411 12.7245 36.3579
6547 2 3.62468 12.7326 37.6388
6531 2 6.35251 14.323 37.6314
12840 1 5.44471 12.7408 38.9226
201 1 4.53196 14.3141 36.3505
206 1 7.26035 12.7245 36.3579
6530 2 9.08092 12.7326 37.6388
12802 1 8.1725 14.332 38.9152
194 1 9.9882 14.3141 36.3505
15681 1 10.9009 12.7408 38.9226
6542 2 0.895573 17.5036 37.614
12831 1 2.71548 17.5143 38.8979
236 1 1.80354 15.9037 36.3422
6541 2 3.62406 15.9133 37.6231
6529 2 6.35181 17.5036 37.614
12843 1 5.44401 15.9231 38.907
200 1 4.53131 17.4931 36.333
199 1 7.25977 15.9037 36.3422
6533 2 9.0803 15.9133 37.6231
12801 1 8.17172 17.5143 38.8979
193 1 9.98755 17.4931 36.333
15679 1 10.9003 15.9231 38.907
18479 2 1.81066 0.0116194 40.2306
12849 1 0.902948 1.60649 41.5135
12855 1 3.6311 0.0135071 41.5139
18466 2 4.53876 1.60383 40.2303
12819 1 6.35919 1.60649 41.5135
18468 2 7.2669 0.0116194 40.2306
12818 1 9.08734 0.0135071 41.5139
18420 2 9.995 1.60383 40.2303
18480 2 1.81057 3.19603 40.2291
12848 1 0.902766 4.79245 41.5102
12847 1 3.631 3.19948 41.5123
18465 2 4.53859 4.78822 40.2269
12813 1 6.359 4.79245 41.5102
18464 2 7.26681 3.19603 40.2291
12820 1 9.08723 3.19948 41.5123
18419 2 9.99483 4.78822 40.2269
18476 2 1.81033 6.3804 40.2239
12838 1 0.90242 7.97837 41.5033
12850 1 3.63073 6.38542 41.5072
18458 2 4.53827 7.97255 40.22
12812 1 6.35866 7.97837 41.5033
18467 2 7.26657 6.3804 40.2239
12811 1 9.08697 6.38542 41.5072
18418 2 9.99451 7.97255 40.22
18477 2 1.80993 9.56468 40.2152
12837 1 0.901906 11.1642 41.4928
12836 1 3.6303 9.57129 41.4985
18457 2 4.53779 11.1568 40.2095
12799 1 6.35814 11.1642 41.4928
18456 2 7.26617 9.56468 40.2152
12814 1 9.08654 9.57129 41.4985
18411 2 9.99403 11.1568 40.2095
18472 2 1.80937 12.7489 40.203
12830 1 0.901218 14.3499 41.4789
12839 1 3.6297 12.7571 41.4863
12798 1 6.35746 14.3499 41.4789
18444 2 4.53715 14.3409 40.1956
18459 2 7.26561 12.7489 40.203
12797 1 9.08594 12.7571 41.4863
18410 2 9.99339 14.3409 40.1956
18473 2 1.80865 15.9329 40.1874
12829 1 0.900346 17.5356 41.4616
12828 1 3.62892 15.9428 41.4707
12781 1 6.35658 17.5356 41.4616
18443 2 4.53634 17.5248 40.1783
18442 2 7.26488 15.9329 40.1874
12800 1 9.08516 15.9428 41.4707
18395 2 9.99258 17.5248 40.1783
18462 2 2.7242 1.60905 42.7934
12845 1 1.81683 0.0171637 44.0766
18450 2 0.910242 1.61428 45.3556
18461 2 5.45235 0.015272 42.7938
18460 2 3.63839 0.0189231 45.356
12809 1 4.54491 1.61172 44.0762
18414 2 6.36648 1.61428 45.3556
12817 1 7.27307 0.0171637 44.0766
18417 2 8.18044 1.60905 42.7934
12756 1 10.0012 1.61172 44.0762
18413 2 9.09463 0.0189231 45.356
21298 2 10.9086 0.015272 42.7938
18454 2 2.72402 4.79659 42.79
12846 1 1.81672 3.20628 44.075
18449 2 0.910049 4.80499 45.3522
18463 2 5.45225 3.20282 42.7922
12808 1 4.54472 4.80084 44.0728
18406 2 6.36629 4.80499 45.3522
18448 2 3.63829 3.20964 45.3544
12807 1 7.27296 3.20628 44.075
18416 2 8.18026 4.79659 42.79
12755 1 10.001 4.80084 44.0728
18415 2 9.09452 3.20964 45.3544
21294 2 10.9085 3.20282 42.7922
18453 2 2.72367 7.98409 42.7831
12834 1 1.81644 6.39539 44.0698
18436 2 0.909682 7.9957 45.3453
18452 2 5.45198 6.39035 42.787
12795 1 4.54435 7.98994 44.0659
18405 2 6.36592 7.9957 45.3453
18451 2 3.63801 6.40035 45.3492
12810 1 7.27268 6.39539 44.0698
18409 2 8.17991 7.98409 42.7831
12754 1 10.0006 7.98994 44.0659
18404 2 9.09425 6.40035 45.3492
21295 2 10.9082 6.39035 42.787
18440 2 2.72315 11.1715 42.7727
12835 1 1.81598 9.58447 44.0611
18435 2 0.909139 11.1864 45.3348
18455 2 5.45155 9.57782 42.7783
12794 1 4.54381 11.179 44.0555
18391 2 6.36538 11.1864 45.3348
18434 2 3.63755 9.59104 45.3405
12793 1 7.27222 9.58447 44.0611
18408 2 8.17938 11.1715 42.7727
12747 1 10 11.179 44.0555
18407 2 9.09379 9.59104 45.3405
21290 2 10.9078 9.57782 42.7783
18439 2 2.72245 14.3589 42.7588
12826 1 1.81535 12.7735 44.0489
18428 2 0.908417 14.3771 45.3208
18437 2 3.63692 12.7817 45.3282
18438 2 5.45094 12.7652 42.7662
12780 1 4.54308 14.368 44.0415
18390 2 6.36466 14.3771 45.3208
12796 1 7.27159 12.7735 44.0489
18394 2 8.17869 14.3589 42.7588
12746 1 9.99932 14.368 44.0415
18389 2 9.09316 12.7817 45.3282
21291 2 10.9072 12.7652 42.7662
18429 2 2.72157 17.5462 42.7414
12827 1 1.81452 15.9625 44.0333
18427 2 0.90751 17.5677 45.3034
18426 2 3.63611 15.9724 45.3125
18441 2 5.45015 15.9526 42.7505
12779 1 4.54216 17.557 44.0242
18374 2 6.36375 17.5677 45.3034
12778 1 7.27076 15.9625 44.0333
18393 2 8.17781 17.5462 42.7414
12731 1 9.9984 17.557 44.0242
18392 2 9.09234 15.9724 45.3125
21289 2 10.9064 15.9526 42.7505
12787 1 0.918176 1.62221 49.1987
12805 1 2.73124 1.61696 46.6379
12844 1 0.00315532 0.0208158 46.6383
18446 2 1.82504 0.0225664 47.9172
12750 1 6.37441 1.62221 49.1987
12803 1 3.64633 0.0244574 49.1991
12804 1 5.45939 0.0208158 46.6383
18402 2 4.55312 1.61952 47.9168
12749 1 9.10257 0.0244574 49.1991
12753 1 8.18748 1.61696 46.6379
18354 2 10.0094 1.61952 47.9168
18412 2 7.28127 0.0225664 47.9172
12786 1 0.917978 4.81773 49.1953
12791 1 2.73104 4.80927 46.6345
12832 1 0.00304571 3.21311 46.6367
18447 2 1.82493 3.21647 47.9156
12742 1 6.37422 4.81773 49.1953
12785 1 3.64622 3.21996 49.1974
12806 1 5.45928 3.21311 46.6367
18401 2 4.55293 4.81344 47.9134
12751 1 9.10246 3.21996 49.1974
12752 1 8.18728 4.80927 46.6345
18353 2 10.0092 4.81344 47.9134
18400 2 7.28117 3.21647 47.9156
12772 1 0.917604 8.01328 49.1883
12790 1 2.73067 8.00158 46.6276
12833 1 0.00275819 6.40542 46.6315
18432 2 1.82465 6.4104 47.9104
12741 1 6.37384 8.01328 49.1883
12788 1 3.64593 6.4155 49.1922
12789 1 5.459 6.40542 46.6315
18387 2 4.55256 8.00737 47.9065
12740 1 9.10217 6.4155 49.1922
12745 1 8.18691 8.00158 46.6276
18352 2 10.0088 8.00737 47.9065
18403 2 7.28088 6.4104 47.9104
12771 1 0.917053 11.2089 49.1777
12776 1 2.73011 11.1939 46.6171
12824 1 0.002292 9.59773 46.6228
18433 2 1.82419 9.60434 47.9016
12727 1 6.37329 11.2089 49.1777
12770 1 3.64547 9.61106 49.1834
12792 1 5.45853 9.59773 46.6228
18386 2 4.55201 11.2013 47.8959
12743 1 9.10171 9.61106 49.1834
12744 1 8.18635 11.1939 46.6171
18345 2 10.0082 11.2013 47.8959
18385 2 7.28043 9.60434 47.9016
12764 1 0.916327 14.4045 49.1635
12775 1 2.72937 14.3862 46.6031
12825 1 0.00164484 12.79 46.6105
18424 2 1.82355 12.7983 47.8893
12726 1 6.37257 14.4045 49.1635
12773 1 3.64483 12.8067 49.171
12774 1 5.45788 12.79 46.6105
18373 2 4.55129 14.3953 47.8818
12725 1 9.10107 12.8067 49.171
12730 1 8.18561 14.3862 46.6031
18344 2 10.0075 14.3953 47.8818
18388 2 7.27979 12.7983 47.8893
12763 1 0.915425 17.6002 49.1458
12765 1 2.72845 17.5786 46.5855
12823 1 0.000812925 15.9824 46.5947
18425 2 1.82274 15.9923 47.8734
12712 1 6.37166 17.6002 49.1458
12762 1 3.64402 16.0024 49.1551
12777 1 5.45705 15.9824 46.5947
18372 2 4.55039 17.5893 47.8642
12728 1 9.10026 16.0024 49.1551
12729 1 8.18468 17.5786 46.5855
18333 2 10.0066 17.5893 47.8642
18371 2 7.27898 15.9923 47.8734
12783 1 1.83387 0.0280829 51.7589
18398 2 2.74037 1.62476 50.4771
18445 2 0.012285 0.0261962 50.4775
12738 1 4.56196 1.62745 51.7585
18397 2 5.46852 0.0261962 50.4775
12696 1 10.0182 1.62745 51.7585
12748 1 7.29011 0.0280829 51.7589
18351 2 8.19661 1.62476 50.4771
12784 1 1.83376 3.22683 51.7572
18383 2 2.74018 4.8219 50.4737
18430 2 0.01218 3.22333 50.4758
12737 1 4.56177 4.82621 51.755
18399 2 5.46842 3.22333 50.4758
12695 1 10.018 4.82621 51.755
12736 1 7.29 3.22683 51.7572
18350 2 8.19642 4.8219 50.4737
12768 1 1.83349 6.42561 51.7519
18382 2 2.73982 8.01909 50.4666
18431 2 0.0119011 6.42049 50.4706
12723 1 4.5614 8.02502 51.7479
18381 2 5.46814 6.42049 50.4706
12694 1 10.0176 8.02502 51.7479
12739 1 7.28972 6.42561 51.7519
18343 2 8.19605 8.01909 50.4666
12769 1 1.83304 9.62445 51.743
18369 2 2.73928 11.2163 50.456
18422 2 0.0114503 9.61769 50.4617
12722 1 4.56087 11.2239 51.7372
18384 2 5.46769 9.61769 50.4617
12688 1 10.0171 11.2239 51.7372
12721 1 7.28927 9.62445 51.743
18342 2 8.19552 11.2163 50.456
12760 1 1.83242 12.8234 51.7305
18368 2 2.73858 14.4136 50.4417
18423 2 0.0108304 12.815 50.4493
12711 1 4.56017 14.4229 51.7229
18367 2 5.46707 12.815 50.4493
12687 1 10.0164 14.4229 51.7229
12724 1 7.28866 12.8234 51.7305
18332 2 8.19482 14.4136 50.4417
12761 1 1.83164 16.0224 51.7144
18360 2 2.73771 17.6111 50.4238
18421 2 0.0100442 16.0123 50.4332
12710 1 4.55931 17.622 51.7049
18370 2 5.46628 16.0123 50.4332
12680 1 10.0156 17.622 51.7049
12709 1 7.28788 16.0224 51.7144
18331 2 8.19395 17.6111 50.4238
12734 1 2.75011 1.63268 54.3173
12782 1 0.0220203 0.0316876 54.3177
18375 2 1.84485 0.0333949 55.5951
18379 2 0.928233 1.62999 53.0364
12733 1 5.47826 0.0316876 54.3177
18336 2 4.57294 1.63521 55.5947
18348 2 6.38447 1.62999 53.0364
18396 2 3.65638 0.0298072 53.0368
12693 1 8.20635 1.63268 54.3173
18318 2 10.0292 1.63521 55.5947
18346 2 7.30109 0.0333949 55.5951
18347 2 9.11262 0.0298072 53.0368
12719 1 2.74993 4.83472 54.3138
12766 1 0.0219201 3.23369 54.316
18376 2 1.84475 3.23704 55.5934
18378 2 0.928047 4.83039 53.0329
12735 1 5.47816 3.23369 54.316
18335 2 4.57276 4.83889 55.5912
18340 2 6.38429 4.83039 53.0329
18377 2 3.65628 3.23019 53.0351
12692 1 8.20616 4.83472 54.3138
18317 2 10.029 4.83889 55.5912
18334 2 7.30099 3.23704 55.5934
18349 2 9.11252 3.23019 53.0351
12718 1 2.74958 8.03681 54.3066
12767 1 0.0216517 6.43576 54.3107
18361 2 1.84449 6.44075 55.588
18365 2 0.927693 8.03085 53.0258
12717 1 5.47789 6.43576 54.3107
18325 2 4.57242 8.04263 55.584
18339 2 6.38393 8.03085 53.0258
18380 2 3.65601 6.43061 53.0298
12686 1 8.20581 8.03681 54.3066
18316 2 10.0287 8.04263 55.584
18337 2 7.30073 6.44075 55.588
18338 2 9.11225 6.43061 53.0298
12707 1 2.74907 11.239 54.2958
12758 1 0.0212204 9.63789 54.3017
18362 2 1.84407 9.64454 55.579
18364 2 0.927177 11.2314 53.015
12720 1 5.47746 9.63789 54.3017
18324 2 4.57193 11.2465 55.573
18329 2 6.38342 11.2314 53.015
18363 2 3.65557 9.6311 53.0209
12685 1 8.2053 11.239 54.2958
18315 2 10.0282 11.2465 55.573
18323 2 7.30031 9.64454 55.579
18341 2 9.11181 9.6311 53.0209
12706 1 2.7484 14.4413 54.2812
12759 1 0.0206338 12.8401 54.289
18355 2 1.8435 12.8485 55.5662
18359 2 0.926504 14.432 53.0006
12705 1 5.47687 12.8401 54.289
18321 2 4.57129 14.4505 55.5584
18328 2 6.38274 14.432 53.0006
18366 2 3.65498 12.8317 53.0082
12679 1 8.20464 14.4413 54.2812
18314 2 10.0275 14.4505 55.5584
18326 2 7.29974 12.8485 55.5662
18327 2 9.11122 12.8317 53.0082
18358 2 0.925685 17.6328 52.9824
18356 2 1.8428 16.0525 55.5496
12757 1 0.019902 16.0425 54.2726
12700 1 2.7476 17.6438 54.263
18357 2 3.65423 16.0324 52.9919
18322 2 6.38192 17.6328 52.9824
18320 2 4.57052 17.6547 55.5399
12708 1 5.47614 16.0425 54.2726
18330 2 9.11047 16.0324 52.9919
18319 2 7.29904 16.0525 55.5496
18313 2 10.0268 17.6547 55.5399
12678 1 8.20384 17.6438 54.263
18665 2 2.76201 1.64041 58.1521
18672 2 0.0339164 0.036955 58.1525
12715 1 0.93887 1.6379 56.8752
18664 2 5.49015 0.036955 58.1525
12690 1 6.39511 1.6379 56.8752
12732 1 3.66702 0.0352681 56.8756
18630 2 8.21825 1.64041 58.1521
12689 1 9.12325 0.0352681 56.8756
18661 2 2.76184 4.84738 58.1485
18670 2 0.0338255 3.24389 58.1507
12714 1 0.938694 4.84322 56.8716
18666 2 5.49006 3.24389 58.1507
12683 1 6.39493 4.84322 56.8716
12713 1 3.66692 3.24056 56.8739
18629 2 8.21808 4.84738 58.1485
12691 1 9.12316 3.24056 56.8739
18660 2 2.76151 8.05443 58.1412
18671 2 0.0335745 6.45089 58.1453
12703 1 0.938357 8.04862 56.8643
18659 2 5.48981 6.45089 58.1453
12682 1 6.3946 8.04862 56.8643
12716 1 3.66666 6.44591 56.8684
18624 2 8.21775 8.05443 58.1412
12681 1 9.1229 6.44591 56.8684
18650 2 2.76104 11.2616 58.1301
18668 2 0.0331713 9.65799 58.1361
12702 1 0.93787 11.2541 56.8533
18662 2 5.48941 9.65799 58.1361
12676 1 6.39411 11.2541 56.8533
12701 1 3.66625 9.65136 56.8593
18623 2 8.21727 11.2616 58.1301
12684 1 9.12249 9.65136 56.8593
18649 2 2.76043 14.4689 58.1152
18669 2 0.032628 12.8652 58.1231
12699 1 0.937246 14.4598 56.8386
18648 2 5.48887 12.8652 58.1231
12675 1 6.39348 14.4598 56.8386
12704 1 3.66569 12.8569 56.8464
18610 2 8.21667 14.4689 58.1152
12674 1 9.12193 12.8569 56.8464
18639 2 2.75971 17.6765 58.0965
18667 2 0.0319611 16.0727 58.1063
12698 1 0.936501 17.6657 56.82
18651 2 5.4882 16.0727 58.1063
12673 1 6.39274 17.6657 56.82
12697 1 3.66501 16.0627 56.8298
18609 2 8.21595 17.6765 58.0965
12677 1 9.12124 16.0627 56.8298
13031 1 1.85637 0.0388248 59.4325
13014 1 2.77441 1.6483 61.9881
13030 1 0.0463147 0.0423727 61.9886
18657 2 0.951678 1.64558 60.7084
13018 1 4.58447 1.64311 59.4321
13013 1 5.50255 0.0423727 61.9886
18627 2 6.40792 1.64558 60.7084
18663 2 3.67982 0.0404827 60.7089
12972 1 10.0407 1.64311 59.4321
13020 1 7.31261 0.0388248 59.4325
12969 1 8.23065 1.6483 61.9881
18626 2 9.13606 0.0404827 60.7089
13032 1 1.85628 3.24741 59.4307
13006 1 2.77424 4.86022 61.9844
13026 1 0.0462281 3.25425 61.9868
18656 2 0.951511 4.85584 60.7048
13017 1 4.5843 4.85172 59.4285
13015 1 5.50247 3.25425 61.9868
18621 2 6.40775 4.85584 60.7048
18655 2 3.67973 3.2507 60.7071
12971 1 10.0405 4.85172 59.4285
13016 1 7.31252 3.24741 59.4307
12968 1 8.23048 4.86022 61.9844
18628 2 9.13597 3.2507 60.7071
13028 1 1.85603 6.45607 59.4252
13005 1 2.77392 8.07224 61.977
13027 1 0.0459834 6.46622 61.9812
18646 2 0.95119 8.06619 60.6973
13010 1 4.58397 8.06043 59.4211
13004 1 5.50222 6.46622 61.9812
18620 2 6.40743 8.06619 60.6973
18658 2 3.67949 6.461 60.7015
12970 1 10.0402 8.06043 59.4211
13019 1 7.31227 6.45607 59.4252
12961 1 8.23016 8.07224 61.977
18619 2 9.13573 6.461 60.7015
13029 1 1.85564 9.66484 59.416
12992 1 2.77346 11.2844 61.9657
13022 1 0.0455903 9.67831 61.9718
18645 2 0.950727 11.2767 60.6861
13009 1 4.5835 11.2693 59.4099
13007 1 5.50183 9.67831 61.9718
18607 2 6.40697 11.2767 60.6861
18644 2 3.67909 9.67142 60.6922
12963 1 10.0397 11.2693 59.4099
13008 1 7.31187 9.66484 59.416
12960 1 8.2297 11.2844 61.9657
18622 2 9.13533 9.67142 60.6922
13024 1 1.8551 12.8738 59.4029
12991 1 2.77288 14.4968 61.9505
13023 1 0.0450644 12.8906 61.9586
18638 2 0.950139 14.4874 60.671
12996 1 4.58291 14.4783 59.395
12990 1 5.5013 12.8906 61.9586
18606 2 6.40638 14.4874 60.671
18647 2 3.67857 12.882 60.6791
12962 1 10.0391 14.4783 59.395
13011 1 7.31134 12.8738 59.4029
12946 1 8.22912 14.4968 61.9505
18605 2 9.13481 12.882 60.6791
13025 1 1.85445 16.0829 59.386
12981 1 2.7722 17.7094 61.9314
13021 1 0.0444277 16.103 61.9414
18637 2 0.949447 17.6983 60.652
12995 1 4.5822 17.6876 59.3761
12993 1 5.50067 16.103 61.9414
18589 2 6.40569 17.6983 60.652
18636 2 3.67792 16.0928 60.662
12947 1 10.0384 17.6876 59.3761
12994 1 7.31069 16.0829 59.386
12945 1 8.22843 17.7094 61.9314
18608 2 9.13416 16.0928 60.662
13002 1 0.964889 1.65357 64.5436
18613 2 2.78896 1.65575 65.8177
18652 2 0.0608629 0.0473783 65.8182
18653 2 1.87007 0.0439687 63.2642
12966 1 6.42113 1.65357 64.5436
13012 1 3.69303 0.0459923 64.5441
18612 2 5.5171 0.0473783 65.8182
18617 2 4.59817 1.65071 63.2637
12965 1 9.14927 0.0459923 64.5441
18561 2 8.2452 1.65575 65.8177
18564 2 10.0544 1.65071 63.2637
18625 2 7.32631 0.0439687 63.2642
13001 1 0.964723 4.86878 64.5399
18599 2 2.78879 4.87256 65.8139
18640 2 0.0607785 3.26414 65.8163
18654 2 1.86998 3.25747 63.2623
12958 1 6.42096 4.86878 64.5399
13000 1 3.69295 3.26116 64.5422
18614 2 5.51702 3.26414 65.8163
18616 2 4.598 4.86425 63.26
12967 1 9.14918 3.26116 64.5422
18560 2 8.24503 4.87256 65.8139
18563 2 10.0542 4.86425 63.26
18615 2 7.32622 3.25747 63.2623
12988 1 0.964399 8.0841 64.5323
18598 2 2.78847 8.08949 65.8063
18641 2 0.0605306 6.48101 65.8106
18642 2 1.86974 6.47106 63.2567
12957 1 6.42064 8.0841 64.5323
13003 1 3.6927 6.47642 64.5366
18597 2 5.51677 6.48101 65.8106
18603 2 4.59768 8.07791 63.2525
12956 1 9.14894 6.47642 64.5366
18553 2 8.24471 8.08949 65.8063
18562 2 10.0539 8.07791 63.2525
18618 2 7.32598 6.47106 63.2567
12987 1 0.963931 11.2996 64.5209
18584 2 2.78799 11.3066 65.7948
18632 2 0.0601282 9.69802 65.8011
18643 2 1.86935 9.68479 63.2473
12943 1 6.42017 11.2996 64.5209
12986 1 3.6923 9.69182 64.5271
18600 2 5.51637 9.69802 65.8011
18602 2 4.59722 11.2917 63.2411
12959 1 9.14854 9.69182 64.5271
18552 2 8.24423 11.3066 65.7948
18555 2 10.0535 11.2917 63.2411
18601 2 7.32559 9.68479 63.2473
12980 1 0.963339 14.5153 64.5055
18583 2 2.78739 14.5239 65.7794
18633 2 0.0595861 12.9152 65.7876
18634 2 1.86882 12.8987 63.234
12942 1 6.41958 14.5153 64.5055
12989 1 3.69177 12.9074 64.5137
18582 2 5.51582 12.9152 65.7876
18588 2 4.59663 14.5057 63.2258
12941 1 9.14801 12.9074 64.5137
18538 2 8.24363 14.5239 65.7794
18554 2 10.0529 14.5057 63.2258
18604 2 7.32506 12.8987 63.234
12979 1 0.962648 17.7312 64.4861
18573 2 2.78668 17.7415 65.7599
18631 2 0.0589255 16.1327 65.7701
18635 2 1.86818 16.1128 63.2167
12926 1 6.41889 17.7312 64.4861
12978 1 3.69112 16.1232 64.4963
18585 2 5.51516 16.1327 65.7701
18587 2 4.59595 17.72 63.2065
12944 1 9.14736 16.1232 64.4963
18537 2 8.24292 17.7415 65.7599
18539 2 10.0522 17.72 63.2065
18586 2 7.32442 16.1128 63.2167
12998 1 1.88388 0.0500745 67.0999
18595 2 0.98019 1.66055 68.3696
12954 1 4.61198 1.65929 67.0995
18558 2 6.43643 1.66055 68.3696
18611 2 3.70833 0.0505576 68.3701
12906 1 10.0682 1.65929 67.0995
12964 1 7.34012 0.0500745 67.0999
18557 2 9.16457 0.0505576 68.3701
12999 1 1.88379 3.26852 67.098
18594 2 0.980017 4.88059 68.3658
12953 1 4.61181 4.87778 67.0956
18550 2 6.43626 4.88059 68.3658
18593 2 3.70824 3.27055 68.3682
12905 1 10.068 4.87778 67.0956
12952 1 7.34003 3.26852 67.098
18559 2 9.16448 3.27055 68.3682
12984 1 1.88354 6.48707 67.0923
18580 2 0.979675 8.10076 68.3581
12939 1 4.61147 8.09639 67.088
18549 2 6.43591 8.10076 68.3581
18596 2 3.70799 6.49065 68.3624
12904 1 10.0677 8.09639 67.088
12955 1 7.33978 6.48707 67.0923
18548 2 9.16422 6.49065 68.3624
12985 1 1.88313 9.70576 67.0827
18579 2 0.979175 11.3211 68.3465
12938 1 4.61098 11.3152 67.0764
18535 2 6.43541 11.3211 68.3465
18578 2 3.70756 9.71091 68.3528
12897 1 10.0672 11.3152 67.0764
12937 1 7.33937 9.70576 67.0827
18551 2 9.1638 9.71091 68.3528
12976 1 1.88257 12.9246 67.0692
18572 2 0.978533 14.5417 68.3309
12925 1 4.61036 14.5342 67.0609
18534 2 6.43477 14.5417 68.3309
18581 2 3.70699 12.9314 68.3392
12896 1 10.0666 14.5342 67.0609
12940 1 7.33881 12.9246 67.0692
18533 2 9.16323 12.9314 68.3392
12977 1 1.88189 16.1438 67.0516
18571 2 0.977771 17.7626 68.3112
12924 1 4.60963 17.7534 67.0413
18520 2 6.43401 17.7626 68.3112
18570 2 3.70628 16.1521 68.3216
12885 1 10.0659 17.7534 67.0413
12923 1 7.33812 16.1438 67.0516
18536 2 9.16252 16.1521 68.3216
12931 1 0.988375 1.66926 72.2352
12950 1 2.80246 1.66423 69.6591
12997 1 0.0743644 0.0533766 69.6596
18591 2 1.89965 0.052885 70.917
12900 1 6.44461 1.66926 72.2352
12948 1 3.71652 0.0567216 72.2357
12949 1 5.5306 0.0533766 69.6596
18546 2 4.62775 1.66446 70.9165
12899 1 9.17276 0.0567216 72.2357
12903 1 8.2587 1.66423 69.6591
18504 2 10.084 1.66446 70.9165
18556 2 7.35589 0.052885 70.917
12930 1 0.988171 4.89439 72.2313
12935 1 2.80228 4.886 69.6552
12982 1 0.0742728 3.2751 69.6576
18592 2 1.89956 3.27605 70.9151
12892 1 6.44441 4.89439 72.2313
12929 1 3.71642 3.28181 72.2338
12951 1 5.53051 3.2751 69.6576
18545 2 4.62756 4.88768 70.9126
12901 1 9.17266 3.28181 72.2338
12902 1 8.25852 4.886 69.6552
18503 2 10.0838 4.88768 70.9126
18544 2 7.3558 3.27605 70.9151
12917 1 0.987767 8.11966 72.2236
12934 1 2.80192 8.1079 69.6475
12983 1 0.0740003 6.49693 69.6519
18576 2 1.89928 6.49934 70.9093
12891 1 6.44401 8.11966 72.2236
12932 1 3.71611 6.50701 72.2279
12933 1 5.53024 6.49693 69.6519
18531 2 4.6272 8.11104 70.9049
12890 1 9.17235 6.50701 72.2279
12895 1 8.25816 8.1079 69.6475
18502 2 10.0834 8.11104 70.9049
18547 2 7.35552 6.49934 70.9093
12916 1 0.987168 11.3451 72.2119
12921 1 2.80139 11.33 69.6359
12974 1 0.0735537 9.71891 69.6422
18577 2 1.89883 9.7228 70.8996
12881 1 6.44341 11.3451 72.2119
12915 1 3.71561 9.73235 72.2182
12936 1 5.52979 9.71891 69.6422
18530 2 4.62666 11.3346 70.8932
12893 1 9.17185 9.73235 72.2182
12894 1 8.25763 11.33 69.6359
18496 2 10.0829 11.3346 70.8932
18529 2 7.35507 9.7228 70.8996
12911 1 0.986387 14.5707 72.1961
12920 1 2.80071 14.5523 69.6202
12975 1 0.0729455 12.9411 69.6286
18568 2 1.89821 12.9465 70.8859
12880 1 6.44263 14.5707 72.1961
12918 1 3.71492 12.9579 72.2045
12919 1 5.52918 12.9411 69.6286
18519 2 4.62596 14.5585 70.8775
12879 1 9.17116 12.9579 72.2045
12884 1 8.25694 14.5523 69.6202
18495 2 10.0822 14.5585 70.8775
18532 2 7.35445 12.9465 70.8859
12910 1 0.985443 17.7966 72.1763
12912 1 2.79989 17.7748 69.6005
12973 1 0.0721948 16.1635 69.6109
18569 2 1.89744 16.1705 70.8682
12874 1 6.44168 17.7966 72.1763
12909 1 3.71405 16.1836 72.1867
12922 1 5.52843 16.1635 69.6109
18518 2 4.62512 17.7826 70.8577
12882 1 9.17029 16.1836 72.1867
12883 1 8.25613 17.7748 69.6005
18488 2 10.0814 17.7826 70.8577
18517 2 7.35368 16.1705 70.8682
12927 1 1.84396 0.0654968 74.8871
18523 2 0.980136 1.67556 75.9233
18542 2 2.81744 1.66777 73.4487
18590 2 0.0893456 0.0546334 73.4492
12888 1 4.57204 1.68021 74.8866
18498 2 6.43637 1.67556 75.9233
18540 2 3.70829 0.0605853 75.9238
18541 2 5.54558 0.0546334 73.4492
12870 1 10.0283 1.68021 74.8866
12898 1 7.30019 0.0654968 74.8871
18497 2 9.16452 0.0605853 75.9238
18501 2 8.27368 1.66777 73.4487
12928 1 1.84382 3.29493 74.8851
18522 2 0.979898 4.90558 75.9194
18527 2 2.81724 4.89411 73.4448
18574 2 0.0892453 3.28092 73.4473
12887 1 4.57178 4.90966 74.8827
18491 2 6.43614 4.90558 75.9194
18521 2 3.70817 3.29056 75.9219
18543 2 5.54548 3.28092 73.4473
12869 1 10.028 4.90966 74.8827
12886 1 7.30006 3.29493 74.8851
18499 2 9.1644 3.29056 75.9219
18500 2 8.27348 4.89411 73.4448
12913 1 1.84343 6.52441 74.8793
18511 2 0.979421 8.13571 75.9116
18526 2 2.81684 8.12061 73.437
18575 2 0.0889455 6.50733 73.4414
12877 1 4.57126 8.13917 74.8749
18490 2 6.43566 8.13571 75.9116
18524 2 3.70781 6.52063 75.916
18525 2 5.54518 6.50733 73.4414
12868 1 10.0275 8.13917 74.8749
12889 1 7.29967 6.52441 74.8793
18489 2 9.16405 6.52063 75.916
18494 2 8.27308 8.12061 73.437
12914 1 1.84278 9.75393 74.8695
18510 2 0.978709 11.366 75.8998
18515 2 2.81625 11.3473 73.4253
18566 2 0.0884495 9.73394 73.4317
12876 1 4.57048 11.3687 74.8631
18484 2 6.43495 11.366 75.8998
18509 2 3.70721 9.75083 75.9062
18528 2 5.54469 9.73394 73.4317
12867 1 10.0267 11.3687 74.8631
12875 1 7.29902 9.75393 74.8695
18492 2 9.16345 9.75083 75.9062
18493 2 8.27249 11.3473 73.4253
12907 1 1.84188 12.9835 74.8558
18507 2 0.977769 14.5965 75.8839
18514 2 2.81547 14.5744 73.4095
18567 2 0.0877641 12.9608 73.4179
12873 1 4.56947 14.5982 74.8474
18483 2 6.43401 14.5965 75.8839
18512 2 3.70639 12.9812 75.8924
18513 2 5.544 12.9608 73.4179
12866 1 10.0257 14.5982 74.8474
12878 1 7.29812 12.9835 74.8558
18482 2 9.16262 12.9812 75.8924
18487 2 8.27171 14.5744 73.4095
12908 1 1.84076 16.213 74.8379
18506 2 0.976618 17.8271 75.864
18508 2 2.81453 17.8018 73.3896
18565 2 0.086902 16.188 73.4001
12872 1 4.56824 17.8277 74.8274
18481 2 6.43286 17.8271 75.864
18505 2 3.70534 16.2118 75.8745
18516 2 5.54314 16.188 73.4001
12865 1 10.0245 17.8277 74.8274
12871 1 7.297 16.213 74.8379
18485 2 9.16158 16.2118 75.8745
18486 2 8.27077 17.8018 73.3896
6729 2 0.902099 20.3355 -0.948255
6737 2 2.7136 20.3138 -3.45534
576 1 1.79199 21.8916 -2.40582
6727 2 3.63103 21.9034 -0.962428
562 1 4.51868 20.3242 -2.39168
6699 2 6.35834 20.3355 -0.948255
6738 2 5.44273 21.8803 -3.46936
560 1 7.24823 21.8916 -2.40582
516 1 9.97492 20.3242 -2.39168
6702 2 8.16984 20.3138 -3.45534
6700 2 9.08727 21.9034 -0.962428
10006 2 10.899 21.8803 -3.46936
6728 2 0.903779 23.4715 -0.977614
6733 2 2.71571 23.447 -3.48438
572 1 1.79525 25.0273 -2.43711
6730 2 3.63281 25.0398 -0.993795
561 1 4.52167 23.4593 -2.42097
6693 2 6.36002 23.4715 -0.977614
6731 2 5.44499 25.014 -3.50037
563 1 7.25149 25.0273 -2.43711
515 1 9.97791 23.4593 -2.42097
6701 2 8.17194 23.447 -3.48438
6691 2 9.08905 25.0398 -0.993795
10007 2 10.9012 25.014 -3.50037
6718 2 0.905637 26.6083 -1.01095
6732 2 2.71812 26.5813 -3.51731
573 1 1.7991 28.1642 -2.47228
6716 2 3.63474 28.1771 -1.02905
554 1 4.52522 26.5955 -2.45423
6692 2 6.36188 26.6083 -1.01095
6734 2 5.44755 28.149 -3.53517
552 1 7.25533 28.1642 -2.47228
514 1 9.98146 26.5955 -2.45423
6696 2 8.17436 26.5813 -3.51731
6694 2 9.09098 28.1771 -1.02905
10004 2 10.9038 28.149 -3.53517
6717 2 0.907639 29.7463 -1.04807
6722 2 2.72082 29.7171 -3.55392
568 1 1.80355 31.3028 -2.5111
6719 2 3.6368 31.3158 -1.06797
553 1 4.52937 29.7333 -2.49126
6679 2 6.36388 29.7463 -1.04807
6720 2 5.4504 31.2857 -3.57352
555 1 7.25979 31.3028 -2.5111
507 1 9.9856 29.7333 -2.49126
6695 2 8.17706 29.7171 -3.55392
6677 2 9.09304 31.3158 -1.06797
10005 2 10.9066 31.2857 -3.57352
6710 2 0.909745 32.8857 -1.08869
6721 2 2.72381 32.8548 -3.59392
569 1 1.80864 34.4435 -2.55323
540 1 4.53414 32.8729 -2.53178
6678 2 6.36598 32.8857 -1.08869
6708 2 3.63894 34.4561 -1.1102
6723 2 5.45352 34.4245 -3.61506
538 1 7.26488 34.4435 -2.55323
506 1 9.99038 32.8729 -2.53178
6682 2 8.18005 32.8548 -3.59392
6680 2 9.09518 34.4561 -1.1102
10003 2 10.9098 34.4245 -3.61506
6709 2 0.911916 36.027 -1.13241
6711 2 2.72705 35.9949 -3.63688
959 1 1.81434 37.5866 -2.5982
7152 2 0.000642023 37.566 -3.65931
539 1 4.53954 36.0147 -2.57539
6661 2 6.36815 36.027 -1.13241
7143 2 3.64113 37.5985 -1.15527
7144 2 5.45688 37.566 -3.65931
948 1 7.27058 37.5866 -2.5982
491 1 9.99578 36.0147 -2.57539
6681 2 8.18329 35.9949 -3.63688
7106 2 9.09737 37.5985 -1.15527
558 1 2.71734 20.3463 0.274643
6726 2 1.81047 21.9275 1.5923
6689 2 4.53769 20.3582 1.60655
559 1 5.44639 21.915 0.260421
6687 2 7.2667 21.9275 1.5923
513 1 8.17358 20.3463 0.274643
6636 2 9.99393 20.3582 1.60655
3642 1 10.9026 21.915 0.260421
550 1 2.71927 23.4839 0.24518
6714 2 1.81242 25.0667 1.56072
6688 2 4.53953 23.497 1.57701
548 1 5.44844 25.053 0.228935
6690 2 7.26866 25.0667 1.56072
512 1 8.1755 23.4839 0.24518
6635 2 9.99577 23.497 1.57701
3643 1 10.9047 25.053 0.228935
549 1 2.72144 26.6223 0.211708
6715 2 1.81458 28.2065 1.5252
6675 2 4.54159 26.6365 1.54344
551 1 5.45073 28.1919 0.193524
6673 2 7.27082 28.2065 1.5252
505 1 8.17768 26.6223 0.211708
6634 2 9.99783 26.6365 1.54344
3638 1 10.907 28.1919 0.193524
536 1 2.72384 29.7618 0.174413
6706 2 1.81692 31.3474 1.48595
6674 2 4.54385 29.7768 1.50602
534 1 5.45323 31.3321 0.154414
6676 2 7.27316 31.3474 1.48595
504 1 8.18007 29.7618 0.174413
6627 2 10.0001 29.7768 1.50602
3639 1 10.9095 31.3321 0.154414
535 1 2.72643 32.9027 0.133574
6707 2 1.81939 34.4895 1.44331
6660 2 4.54626 32.9183 1.46503
537 1 5.4559 34.4737 0.111946
490 1 8.18266 32.9027 0.133574
6626 2 10.0025 32.9183 1.46503
6658 2 7.27563 34.4895 1.44331
3637 1 10.9121 34.4737 0.111946
525 1 2.72917 36.0453 0.0895941
958 1 0.00246625 37.6173 0.0665913
7133 2 1.82196 37.6333 1.39774
6659 2 4.54879 36.0612 1.42086
941 1 5.4587 37.6173 0.0665913
489 1 8.18541 36.0453 0.0895941
6611 2 10.005 36.0612 1.42086
7105 2 7.2782 37.6333 1.39774
546 1 0.89871 20.3693 2.8731
544 1 3.62777 21.9394 2.8588
6685 2 2.7171 20.381 4.17415
543 1 1.80767 21.9641 5.44111
510 1 6.35495 20.3693 2.8731
498 1 4.53481 20.3926 5.45543
6686 2 5.44617 21.9518 4.15986
496 1 7.26391 21.9641 5.44111
511 1 9.08401 21.9394 2.8588
444 1 9.99105 20.3926 5.45543
6633 2 8.17334 20.381 4.17415
9976 2 10.9024 21.9518 4.15986
545 1 0.900659 23.5096 2.84346
547 1 3.62985 25.0799 2.82711
6671 2 2.71906 23.5226 4.14454
528 1 1.80986 25.1071 5.40934
502 1 6.3569 23.5096 2.84346
497 1 4.53685 23.5356 5.42574
6669 2 5.44826 25.0935 4.12819
499 1 7.2661 25.1071 5.40934
500 1 9.08609 25.0799 2.82711
443 1 9.99309 23.5356 5.42574
6632 2 8.1753 23.5226 4.14454
9977 2 10.9045 25.0935 4.12819
532 1 0.902865 26.6505 2.80976
530 1 3.63218 28.2212 2.79143
6670 2 2.72129 26.6646 4.11085
529 1 1.81233 28.2505 5.37352
501 1 6.3591 26.6505 2.80976
483 1 4.53918 26.6788 5.39193
6672 2 5.45062 28.2357 4.09253
481 1 7.26857 28.2505 5.37352
503 1 9.08841 28.2212 2.79143
442 1 9.99542 26.6788 5.39193
6625 2 8.17753 26.6646 4.11085
9968 2 10.9069 28.2357 4.09253
531 1 0.905303 29.7921 2.77215
533 1 3.63472 31.3632 2.75196
6656 2 2.72376 29.8071 4.07326
520 1 1.81506 31.3943 5.33385
487 1 6.36154 29.7921 2.77215
482 1 4.54178 29.8224 5.35415
6654 2 5.4532 31.3786 4.05308
484 1 7.2713 31.3943 5.33385
485 1 9.09096 31.3632 2.75196
435 1 9.99802 29.8224 5.35415
6624 2 8.18 29.8071 4.07326
9969 2 10.9094 31.3786 4.05308
524 1 0.90794 32.9346 2.73091
522 1 3.63744 34.5064 2.70905
6655 2 2.72645 32.9503 4.03203
521 1 1.81801 34.5388 5.29063
486 1 6.36418 32.9346 2.73091
468 1 4.54463 32.9665 5.31266
6657 2 5.45598 34.5223 4.01017
466 1 7.27425 34.5388 5.29063
488 1 9.09368 34.5064 2.70905
434 1 10.0009 32.9665 5.31266
6610 2 8.18269 32.9503 4.03203
9967 2 10.9122 34.5223 4.01017
523 1 0.910733 36.0784 2.68643
6645 2 2.7293 36.0945 3.98755
926 1 1.82114 37.684 5.2443
7132 2 0.00265909 37.667 3.96424
469 1 6.36697 36.0784 2.68643
467 1 4.54768 36.1113 5.26782
940 1 3.64029 37.6508 2.66314
7092 2 5.4589 37.667 3.96424
420 1 10.0039 36.1113 5.26782
6609 2 8.18554 36.0945 3.98755
893 1 9.09653 37.6508 2.66314
892 1 7.27738 37.684 5.2443
494 1 2.71454 20.4156 8.03228
6667 2 0.896712 20.4041 6.74612
6665 2 3.62582 21.9761 6.73185
6630 2 6.35295 20.4041 6.74612
495 1 5.44367 21.9883 8.018
3598 1 10.8999 21.9883 8.018
441 1 8.17078 20.4156 8.03228
6631 2 9.08205 21.9761 6.73185
479 1 2.71663 23.561 8.00267
6666 2 0.898756 23.5482 6.71653
6668 2 3.62801 25.1204 6.70019
6622 2 6.35499 23.5482 6.71653
477 1 5.44591 25.1338 7.98631
3599 1 10.9022 25.1338 7.98631
440 1 8.17287 23.561 8.00267
6620 2 9.08425 25.1204 6.70019
478 1 2.71904 26.7065 7.96892
6652 2 0.901101 26.6925 6.68284
6649 2 1.81033 28.2933 9.23811
6650 2 3.6305 28.2647 6.6645
6621 2 6.35734 26.6925 6.68284
480 1 5.44848 28.2792 7.95053
6601 2 7.26657 28.2933 9.23811
3590 1 10.9047 28.2792 7.95053
433 1 8.17528 26.7065 7.96892
6623 2 9.08674 28.2647 6.6645
464 1 2.72176 29.8519 7.93117
6651 2 0.903737 29.837 6.6452
6640 2 1.81321 31.4396 9.19868
6653 2 3.63328 31.4094 6.62497
6602 2 4.53985 29.8665 9.21887
6607 2 6.35998 29.837 6.6452
462 1 5.45136 31.4247 7.91085
6604 2 7.26945 31.4396 9.19868
3591 1 10.9076 31.4247 7.91085
432 1 8.178 29.8519 7.93117
6568 2 9.99609 29.8665 9.21887
6605 2 9.08951 31.4094 6.62497
463 1 2.72478 32.9975 7.88963
6644 2 0.906638 32.9818 6.60385
6641 2 1.81639 34.5858 9.15561
6642 2 3.63629 34.5544 6.58189
6591 2 4.54288 33.0127 9.17758
6606 2 6.36288 32.9818 6.60385
465 1 5.45452 34.5703 7.86754
6589 2 7.27263 34.5858 9.15561
3589 1 10.9108 34.5703 7.86754
419 1 8.18102 32.9975 7.88963
6567 2 9.99912 33.0127 9.17758
6608 2 9.09253 34.5544 6.58189
453 1 2.72807 36.1432 7.84463
6643 2 0.909764 36.1271 6.55914
925 1 0.00166765 37.7162 7.82098
7071 2 1.81984 37.7321 9.10927
6590 2 4.54621 36.159 9.13282
6592 2 6.366 36.1271 6.55914
877 1 5.45791 37.7162 7.82098
7091 2 3.63952 37.6999 6.53567
418 1 8.1843 36.1432 7.84463
6560 2 10.0024 36.159 9.13282
7036 2 7.27608 37.7321 9.10927
7037 2 9.09575 37.6999 6.53567
6664 2 1.80555 22.0002 9.30517
475 1 0.894333 20.4382 10.607
6614 2 2.71253 20.4494 11.8928
473 1 3.62344 22.0123 10.5929
6618 2 4.53269 20.4268 9.31937
6616 2 7.26179 22.0002 9.30517
438 1 6.35057 20.4382 10.607
6615 2 5.4416 22.0241 11.8787
6576 2 9.98892 20.4268 9.31937
6573 2 8.16877 20.4494 11.8928
439 1 9.07968 22.0123 10.5929
9910 2 10.8978 22.0241 11.8787
6648 2 1.80778 25.1468 9.27367
474 1 0.896395 23.5862 10.5776
6599 2 2.71452 23.5986 11.8636
476 1 3.62568 25.1601 10.5614
6617 2 4.53474 23.5735 9.28993
6619 2 7.26401 25.1468 9.27367
430 1 6.35263 23.5862 10.5776
6597 2 5.44377 25.1731 11.8475
6575 2 9.99098 23.5735 9.28993
6572 2 8.17076 23.5986 11.8636
428 1 9.08191 25.1601 10.5614
9911 2 10.9 25.1731 11.8475
460 1 0.898805 26.7339 10.5441
6598 2 2.71687 26.7474 11.8304
458 1 3.62826 28.3076 10.5259
6603 2 4.53713 26.7201 9.25639
429 1 6.35504 26.7339 10.5441
6600 2 5.4463 28.3216 11.8123
6574 2 9.99337 26.7201 9.25639
6566 2 8.17311 26.7474 11.8304
431 1 9.0845 28.3076 10.5259
9902 2 10.9025 28.3216 11.8123
459 1 0.901568 29.8812 10.5066
6587 2 2.71958 29.8957 11.7932
461 1 3.6312 31.4547 10.4864
416 1 6.35781 29.8812 10.5066
6585 2 5.44919 31.4697 11.7731
6565 2 8.17581 29.8957 11.7932
414 1 9.08744 31.4547 10.4864
9903 2 10.9054 31.4697 11.7731
452 1 0.904681 33.0281 10.4652
6586 2 2.72265 33.0435 11.7522
450 1 3.63448 34.6015 10.4432
415 1 6.36092 33.0281 10.4652
6588 2 5.45245 34.6172 11.7303
6559 2 8.17889 33.0435 11.7522
417 1 9.09072 34.6015 10.4432
9901 2 10.9087 34.6172 11.7303
451 1 0.908118 36.1748 10.4203
6580 2 2.72609 36.1907 11.7076
405 1 6.36436 36.1748 10.4203
876 1 3.63807 37.7481 10.3966
7021 2 5.45605 37.7642 11.684
6558 2 8.18233 36.1907 11.7076
10334 2 10.9123 37.7642 11.684
821 1 9.0943 37.7481 10.3966
422 1 2.71044 20.4834 15.754
6595 2 0.892476 20.472 14.466
472 1 1.80327 22.0361 13.1668
6593 2 3.62148 22.0479 14.4521
421 1 5.43779 18.9067 15.7667
426 1 4.53045 20.4608 13.1808
6570 2 6.34871 20.472 14.466
424 1 7.25951 22.0361 13.1668
3542 1 10.894 18.9067 15.7667
393 1 8.16668 20.4834 15.754
396 1 9.98669 20.4608 13.1808
6571 2 9.07772 22.0479 14.4521
408 1 2.71222 23.6365 15.7254
6594 2 0.894334 23.6238 14.4373
456 1 1.80541 25.1863 13.1357
6596 2 3.62351 25.1994 14.4214
423 1 5.43941 22.06 15.7402
425 1 4.53241 23.6113 13.1518
6563 2 6.35057 23.6238 14.4373
427 1 7.26164 25.1863 13.1357
3526 1 10.8956 22.06 15.7402
392 1 8.16846 23.6365 15.7254
395 1 9.98865 23.6113 13.1518
6561 2 9.07975 25.1994 14.4214
407 1 2.71436 26.7887 15.6929
6583 2 0.896547 26.7749 14.4045
457 1 1.80792 28.3359 13.1006
6581 2 3.62592 28.3501 14.3866
406 1 5.44136 25.2127 15.7097
412 1 4.53473 26.7612 13.1187
6562 2 6.35279 26.7749 14.4045
410 1 7.26415 28.3359 13.1006
3527 1 10.8976 25.2127 15.7097
389 1 8.1706 26.7887 15.6929
394 1 9.99097 26.7612 13.1187
6564 2 9.08215 28.3501 14.3866
6582 2 0.899146 29.9252 14.3677
400 1 2.7169 29.94 15.6563
448 1 1.81082 31.4848 13.0615
6584 2 3.62872 31.5 14.3479
6556 2 6.35538 29.9252 14.3677
411 1 4.53744 29.9104 13.0815
409 1 5.4437 28.3645 15.6751
413 1 7.26706 31.4848 13.0615
3518 1 10.8999 28.3645 15.6751
391 1 9.99367 29.9104 13.0815
388 1 8.17314 29.94 15.6563
6554 2 9.08496 31.5 14.3479
6579 2 0.902158 33.0745 14.3272
399 1 2.71988 33.0902 15.616
449 1 1.81412 34.6329 13.0187
6577 2 3.63194 34.6488 14.3055
6555 2 6.3584 33.0745 14.3272
404 1 4.54054 33.0589 13.0406
398 1 5.44645 31.5153 15.6366
402 1 7.27036 34.6329 13.0187
6557 2 9.08818 34.6488 14.3055
3519 1 10.9027 31.5153 15.6366
390 1 9.99678 33.0589 13.0406
386 1 8.17611 33.0902 15.616
6578 2 0.905596 36.2229 14.283
397 1 2.72332 36.2391 15.5719
7020 2 3.63559 37.7967 14.2596
855 1 1.81781 37.7801 12.9723
6553 2 6.36183 36.2229 14.283
403 1 4.54404 36.2066 12.9959
401 1 5.44966 34.6648 15.5944
820 1 7.27405 37.7801 12.9723
385 1 8.17956 36.2391 15.5719
3517 1 10.9059 34.6648 15.5944
387 1 10.0003 36.2066 12.9959
6977 2 9.09183 37.7967 14.2596
6935 2 1.79997 18.9172 17.0514
766 1 0.890581 20.5061 18.3266
768 1 3.61805 18.928 18.3391
6922 2 4.5288 20.4946 17.0388
743 1 6.34682 20.5061 18.3266
6924 2 7.25621 18.9172 17.0514
742 1 9.07428 18.928 18.3391
6876 2 9.98504 20.4946 17.0388
6936 2 1.80146 22.0719 17.0252
765 1 0.892112 23.6619 18.2986
764 1 3.61943 22.0841 18.3131
6921 2 4.53044 23.649 17.0106
739 1 6.34835 23.6619 18.2986
6920 2 7.2577 22.0719 17.0252
744 1 9.07566 22.0841 18.3131
6875 2 9.98668 23.649 17.0106
6932 2 1.80327 25.2259 16.995
759 1 0.893981 26.8166 18.2667
767 1 3.62112 25.2394 18.2832
6914 2 4.53244 26.8026 16.9784
738 1 6.35022 26.8166 18.2667
6923 2 7.25951 25.2259 16.995
737 1 9.07736 25.2394 18.2832
6874 2 9.98867 26.8026 16.9784
6933 2 1.80546 28.3789 16.9608
758 1 0.896245 29.9702 18.231
757 1 3.62318 28.3936 18.2493
6913 2 4.53482 29.955 16.9423
727 1 6.35248 29.9702 18.231
6912 2 7.26169 28.3789 16.9608
740 1 9.07942 28.3936 18.2493
6867 2 9.99106 29.955 16.9423
6928 2 1.80806 31.5308 16.9229
752 1 0.898967 33.1224 18.1914
760 1 3.62566 31.5465 18.2117
726 1 6.35521 33.1224 18.1914
6900 2 4.53765 33.1062 16.9024
6915 2 7.26429 31.5308 16.9229
725 1 9.0819 31.5465 18.2117
6866 2 9.99389 33.1062 16.9024
6929 2 1.81112 34.6813 16.8811
751 1 0.902211 36.2728 18.1481
750 1 3.62864 34.6978 18.1702
709 1 6.35845 36.2728 18.1481
6899 2 4.54096 36.256 16.8589
6898 2 7.26736 34.6813 16.8811
728 1 9.08488 34.6978 18.1702
6851 2 9.9972 36.256 16.8589
6918 2 2.70906 20.5174 19.6111
762 1 1.79853 18.9495 20.9108
6906 2 0.889566 20.5405 22.1827
6916 2 3.61725 18.9601 22.1948
6917 2 5.4366 18.9386 19.6234
735 1 4.52717 20.5291 20.8986
6870 2 6.3458 20.5405 22.1827
741 1 7.25477 18.9495 20.9108
6873 2 8.1653 20.5174 19.6111
684 1 9.98341 20.5291 20.8986
6869 2 9.07349 18.9601 22.1948
10198 2 10.8928 18.9386 19.6234
6910 2 2.71043 23.6746 19.5835
763 1 1.79962 22.1084 20.8854
6905 2 0.890603 23.7005 22.1558
6904 2 3.61817 22.1206 22.1697
6919 2 5.43783 22.0961 19.5978
734 1 4.52838 23.6876 20.8713
6862 2 6.34684 23.7005 22.1558
733 1 7.25586 22.1084 20.8854
6872 2 8.16667 23.6746 19.5835
683 1 9.98462 23.6876 20.8713
6871 2 9.07441 22.1206 22.1697
10194 2 10.8941 22.0961 19.5978
6909 2 2.71211 26.8307 19.552
755 1 1.80098 25.2665 20.8562
6892 2 0.891911 26.8594 22.1251
6907 2 3.61934 25.2801 22.1409
6908 2 5.43935 25.2528 19.5682
723 1 4.5299 26.8451 20.8402
6861 2 6.34815 26.8594 22.1251
736 1 7.25722 25.2665 20.8562
6865 2 8.16835 26.8307 19.552
682 1 9.98614 26.8451 20.8402
6860 2 9.07558 25.2801 22.1409
10195 2 10.8956 25.2528 19.5682
6896 2 2.71418 29.9856 19.5167
756 1 1.80267 28.4233 20.8232
6891 2 0.89356 30.0169 22.0908
6890 2 3.62081 28.4383 22.1084
6911 2 5.44121 28.4083 19.5349
722 1 4.53179 30.0012 20.8053
6847 2 6.3498 30.0169 22.0908
721 1 7.25891 28.4233 20.8232
6864 2 8.17042 29.9856 19.5167
675 1 9.98802 30.0012 20.8053
6863 2 9.07705 28.4383 22.1084
10190 2 10.8975 28.4083 19.5349
6895 2 2.7167 33.1389 19.4777
748 1 1.80477 31.5786 20.7865
6884 2 0.895641 33.1727 22.0528
6893 2 3.62266 31.5951 22.0722
6894 2 5.4435 31.5624 19.4977
708 1 4.53412 33.1556 20.7667
6846 2 6.35188 33.1727 22.0528
724 1 7.26101 31.5786 20.7865
6850 2 8.17293 33.1389 19.4777
674 1 9.99036 33.1556 20.7667
6845 2 9.0789 31.5951 22.0722
10191 2 10.8997 31.5624 19.4977
6885 2 2.71974 36.2904 19.435
749 1 1.80738 34.7321 20.7461
6883 2 0.898261 36.3265 22.0111
6882 2 3.62499 34.7499 22.0324
6897 2 5.44627 34.7149 19.4568
707 1 4.53701 36.308 20.7245
6829 2 6.3545 36.3265 22.0111
706 1 7.26361 34.7321 20.7461
6849 2 8.17598 36.2904 19.435
659 1 9.99325 36.308 20.7245
6848 2 9.08123 34.7499 22.0324
10189 2 10.9025 34.7149 19.4568
731 1 2.70779 20.5522 23.4699
6902 2 1.79824 18.9819 24.7654
730 1 5.43556 18.9711 23.4818
6858 2 4.52663 20.5637 24.7537
6868 2 7.25448 18.9819 24.7654
681 1 8.16403 20.5522 23.4699
6804 2 9.98287 20.5637 24.7537
3833 1 10.8918 18.9711 23.4818
719 1 2.70865 23.7137 23.4433
6903 2 1.79882 22.1454 24.741
732 1 5.43631 22.1331 23.4571
6857 2 4.5273 23.7267 24.7274
6856 2 7.25506 22.1454 24.741
680 1 8.16489 23.7137 23.4433
6803 2 9.98354 23.7267 24.7274
3825 1 10.8926 22.1331 23.4571
718 1 2.70975 26.874 23.413
6888 2 1.79959 25.3079 24.7129
717 1 5.43728 25.294 23.4286
6843 2 4.52818 26.8887 24.6975
6859 2 7.25583 25.3079 24.7129
673 1 8.16599 26.874 23.413
6802 2 9.98441 26.8887 24.6975
3826 1 10.8935 25.294 23.4286
704 1 2.71116 30.033 23.3791
6889 2 1.80059 28.4691 24.6813
720 1 5.43853 28.4537 23.3965
6842 2 4.52933 30.0492 24.6641
6841 2 7.25683 28.4691 24.6813
672 1 8.1674 30.033 23.3791
6795 2 9.98557 30.0492 24.6641
3818 1 10.8948 28.4537 23.3965
692 1 0.891991 33.226 25.9159
703 1 2.713 33.1901 23.3417
6880 2 1.80193 31.6288 24.6461
654 1 6.34823 33.226 25.9159
702 1 5.44014 31.6118 23.3608
6828 2 4.53087 33.2079 24.6273
6844 2 7.25816 31.6288 24.6461
658 1 8.16924 33.1901 23.3417
6794 2 9.98711 33.2079 24.6273
3819 1 10.8964 31.6118 23.3608
691 1 0.893698 36.384 25.8762
693 1 2.71537 36.3451 23.3006
6881 2 1.8037 34.7865 24.6075
690 1 3.62089 34.8053 25.8965
638 1 6.34994 36.384 25.8762
705 1 5.44223 34.7679 23.3216
6827 2 4.53291 36.3644 24.5869
6826 2 7.25993 34.7865 24.6075
656 1 9.07713 34.8053 25.8965
657 1 8.17161 36.3451 23.3006
6780 2 9.98915 36.3644 24.5869
3817 1 10.8985 34.7679 23.3216
715 1 0.888782 20.5756 26.0404
729 1 3.61672 18.993 26.0521
711 1 1.79833 19.015 28.6214
6854 2 2.70787 20.5873 27.3237
678 1 6.34502 20.5756 26.0404
666 1 4.52646 20.5992 28.61
6853 2 5.43588 19.0038 27.3352
676 1 7.25457 19.015 28.6214
677 1 9.07296 18.993 26.0521
618 1 9.9827 20.5992 28.61
6801 2 8.16411 20.5873 27.3237
10165 2 10.8921 19.0038 27.3352
714 1 0.889247 23.7402 26.0145
713 1 3.61712 22.158 26.0279
712 1 1.79837 22.1833 28.5978
6839 2 2.70815 23.7534 27.2981
670 1 6.34549 23.7402 26.0145
665 1 4.52653 23.7671 28.5847
6855 2 5.43611 22.1705 27.3113
664 1 7.25461 22.1833 28.5978
679 1 9.07335 22.158 26.0279
617 1 9.98277 23.7671 28.5847
6800 2 8.16439 23.7534 27.2981
10150 2 10.8924 22.1705 27.3113
700 1 0.889885 26.9037 25.9851
716 1 3.61766 25.3221 26.0002
696 1 1.79848 25.3506 28.5708
6838 2 2.70856 26.9186 27.269
669 1 6.34612 26.9037 25.9851
651 1 4.52669 26.9339 28.5561
6837 2 5.43645 25.3362 27.284
667 1 7.25471 25.3506 28.5708
668 1 9.0739 25.3221 26.0002
616 1 9.98293 26.9339 28.5561
6793 2 8.1648 26.9186 27.269
10151 2 10.8927 25.3362 27.284
699 1 0.890766 30.0657 25.9522
698 1 3.61841 28.4849 25.969
697 1 1.7987 28.5168 28.5405
6824 2 2.70918 30.0823 27.2366
655 1 6.347 30.0657 25.9522
650 1 4.527 30.0994 28.5241
6840 2 5.43696 28.5007 27.2532
649 1 7.25494 28.5168 28.5405
671 1 9.07465 28.4849 25.969
609 1 9.98324 30.0994 28.5241
6792 2 8.16541 30.0823 27.2366
10142 2 10.8932 28.5007 27.2532
701 1 3.61945 31.6461 25.9344
688 1 1.79912 31.6815 28.507
6823 2 2.71009 33.2444 27.2009
637 1 4.52756 33.2632 28.489
6822 2 5.43771 31.6636 27.2192
652 1 7.25536 31.6815 28.507
653 1 9.07569 31.6461 25.9344
608 1 9.98379 33.2632 28.489
6779 2 8.16632 33.2444 27.2009
10143 2 10.8939 31.6636 27.2192
689 1 1.79984 34.8443 28.4702
6813 2 2.71142 36.4042 27.1618
636 1 4.52848 36.4249 28.4507
6825 2 5.43881 34.8246 27.1818
635 1 7.25608 34.8443 28.4702
597 1 9.98472 36.4249 28.4507
6778 2 8.16766 36.4042 27.1618
10141 2 10.895 34.8246 27.1818
662 1 2.70844 20.6232 31.1786
6831 2 1.80022 19.0484 32.4718
6835 2 0.889595 20.6111 29.8928
6852 2 3.61777 19.026 29.904
661 1 5.4367 19.0373 31.1897
6786 2 4.52813 20.6351 32.4608
6798 2 6.34583 20.6111 29.8928
6796 2 7.25646 19.0484 32.4718
615 1 8.16467 20.6232 31.1786
6756 2 9.98437 20.6351 32.4608
6797 2 9.07401 19.026 29.904
3782 1 10.8929 19.0373 31.1897
647 1 2.70813 23.7944 31.1538
6832 2 1.79979 22.2217 32.4489
6834 2 0.889494 23.7806 29.8678
6833 2 3.61766 22.1959 29.8807
663 1 5.4364 22.2089 31.1666
6785 2 4.52768 23.808 32.4363
6790 2 6.34573 23.7806 29.8678
6784 2 7.25603 22.2217 32.4489
614 1 8.16436 23.7944 31.1538
6755 2 9.98392 23.808 32.4363
6799 2 9.0739 22.1959 29.8807
3766 1 10.8926 22.2089 31.1666
646 1 2.70782 26.9647 31.1259
6816 2 1.79932 25.3942 32.4228
6820 2 0.889445 26.9491 29.8394
6836 2 3.61758 25.365 29.854
645 1 5.43609 25.3796 31.1403
6772 2 4.5272 26.9801 32.4086
6789 2 6.34568 26.9491 29.8394
6787 2 7.25556 25.3942 32.4228
607 1 8.16406 26.9647 31.1259
6754 2 9.98344 26.9801 32.4086
6788 2 9.07382 25.365 29.854
3767 1 10.8923 25.3796 31.1403
633 1 2.70757 30.1338 31.0948
6817 2 1.79884 28.5658 32.3935
6819 2 0.889504 30.1164 29.8079
6818 2 3.61758 28.5329 29.8241
648 1 5.43581 28.5494 31.1107
6771 2 4.52673 30.1512 32.3778
6776 2 6.34574 30.1164 29.8079
6770 2 7.25508 28.5658 32.3935
606 1 8.16381 30.1338 31.0948
6751 2 9.98296 30.1512 32.3778
6791 2 9.07381 28.5329 29.8241
3758 1 10.892 28.5494 31.1107
632 1 2.70744 33.3016 31.0607
6808 2 1.79839 31.7363 32.3612
6812 2 0.889749 33.2821 29.7732
6821 2 3.61772 31.6995 29.791
631 1 5.43561 31.7179 31.0781
6764 2 4.52632 33.321 32.344
6775 2 6.34599 33.2821 29.7732
6773 2 7.25463 31.7363 32.3612
596 1 8.16368 33.3016 31.0607
6750 2 9.98256 33.321 32.344
6774 2 9.07395 31.6995 29.791
3759 1 10.8918 31.7179 31.0781
624 1 2.70754 36.4674 31.0236
6809 2 1.79806 34.9053 32.326
6811 2 0.8903 36.4459 29.7354
6810 2 3.6181 34.8643 29.7547
634 1 5.43557 34.8848 31.0425
6763 2 4.52608 36.4891 32.3073
6765 2 6.34654 36.4459 29.7354
6762 2 7.25429 34.9053 32.326
595 1 8.16378 36.4674 31.0236
6747 2 9.98232 36.4891 32.3073
6777 2 9.07433 34.8643 29.7547
3757 1 10.8918 34.8848 31.0425
643 1 0.891024 20.6473 33.746
6782 2 2.71108 20.6594 35.0276
660 1 3.61943 19.0598 33.7569
612 1 6.34726 20.6473 33.746
6781 2 5.43954 19.071 35.0385
611 1 9.07567 19.0598 33.7569
6753 2 8.16732 20.6594 35.0276
10094 2 10.8958 19.071 35.0385
642 1 0.890377 23.822 33.7217
6768 2 2.71032 23.8358 35.0035
641 1 3.61883 22.2347 33.7343
604 1 6.34662 23.822 33.7217
6783 2 5.43883 22.2477 35.016
613 1 9.07507 22.2347 33.7343
6752 2 8.16656 23.8358 35.0035
10078 2 10.8951 22.2477 35.016
644 1 3.61814 25.4091 33.7084
629 1 0.889656 26.9959 33.6943
6767 2 2.70946 27.0116 34.9762
6766 2 5.43802 25.4238 34.9902
603 1 6.34589 26.9959 33.6943
6749 2 8.1657 27.0116 34.9762
602 1 9.07438 25.4091 33.7084
10079 2 10.8943 25.4238 34.9902
627 1 3.61739 28.5826 33.6795
6760 2 2.70852 30.1867 34.946
628 1 0.888888 30.169 33.6639
6769 2 5.43712 28.5992 34.9614
593 1 6.34513 30.169 33.6639
6748 2 8.16476 30.1867 34.946
605 1 9.07363 28.5826 33.6795
10070 2 10.8934 28.5992 34.9614
630 1 3.61662 31.7551 33.6476
6759 2 2.70754 33.3608 34.9129
623 1 0.888117 33.3409 33.6306
6758 2 5.43615 31.7738 34.9298
592 1 6.34436 33.3409 33.6306
6746 2 8.16378 33.3608 34.9129
591 1 9.07286 31.7551 33.6476
10071 2 10.8924 31.7738 34.9298
621 1 3.61587 34.9264 33.6129
6757 2 2.70657 36.5337 34.877
622 1 0.887417 36.5114 33.5946
6761 2 5.43517 34.9474 34.8953
586 1 6.34366 36.5114 33.5946
6745 2 8.16281 36.5337 34.877
594 1 9.07211 34.9264 33.6129
10069 2 10.8914 34.9474 34.8953
6958 2 0.894726 20.6839 37.5933
13217 1 2.71453 20.6963 38.8773
639 1 1.80282 19.0825 36.3231
6960 2 3.62329 19.0938 37.604
6947 2 6.35096 20.6839 37.5933
13216 1 5.44315 19.1053 38.888
600 1 4.53053 20.6717 36.3123
610 1 7.25906 19.0825 36.3231
6946 2 9.07953 19.0938 37.604
13182 1 8.17077 20.6963 38.8773
582 1 9.98677 20.6717 36.3123
16044 1 10.8994 19.1053 38.888
6957 2 0.893724 23.8639 37.5693
13213 1 2.71339 23.8781 38.8534
640 1 1.80197 22.2609 36.3007
6956 2 3.62236 22.2739 37.5817
6944 2 6.34996 23.8639 37.5693
13218 1 5.4421 22.2872 38.8657
599 1 4.5296 23.8499 36.2883
598 1 7.2582 22.2609 36.3007
6948 2 9.0786 22.2739 37.5817
13181 1 8.16963 23.8781 38.8534
581 1 9.98584 23.8499 36.2883
16042 1 10.8983 22.2872 38.8657
6954 2 0.892566 27.0435 37.5423
13212 1 2.71206 27.0596 38.8265
625 1 1.80097 25.4388 36.2751
6959 2 3.62128 25.4537 37.5562
6943 2 6.3488 27.0435 37.5423
13211 1 5.44087 25.4689 38.8403
589 1 4.52853 27.0276 36.2612
601 1 7.25721 25.4388 36.2751
6942 2 9.07752 25.4537 37.5562
13176 1 8.1683 27.0596 38.8265
580 1 9.98477 27.0276 36.2612
16043 1 10.8971 25.4689 38.8403
6953 2 0.891257 30.2226 37.5124
13202 1 2.71054 30.2409 38.7967
626 1 1.79983 28.6163 36.2466
6952 2 3.62005 28.6331 37.5277
6940 2 6.3475 30.2226 37.5124
13214 1 5.43944 28.6503 38.812
588 1 4.52733 30.2047 36.2312
587 1 7.25607 28.6163 36.2466
6945 2 9.07629 28.6331 37.5277
13175 1 8.16678 30.2409 38.7967
579 1 9.98357 30.2047 36.2312
16040 1 10.8957 28.6503 38.812
6951 2 0.889813 33.4012 37.4796
13201 1 2.70882 33.4218 38.7642
619 1 1.79857 31.793 36.2152
6955 2 3.61867 31.812 37.4963
6939 2 6.34605 33.4012 37.4796
13200 1 5.43782 31.8314 38.7808
585 1 4.52602 33.3811 36.1985
590 1 7.25481 31.793 36.2152
6938 2 9.07491 31.812 37.4963
13162 1 8.16506 33.4218 38.7642
578 1 9.98226 33.3811 36.1985
16041 1 10.8941 31.8314 38.7808
6950 2 0.88826 36.5791 37.4442
13191 1 2.70691 36.6024 38.7291
620 1 1.79721 34.9689 36.1811
6949 2 3.61717 34.9903 37.4623
6937 2 6.3445 36.5791 37.4442
13203 1 5.43601 35.0121 38.7469
584 1 4.52463 36.5566 36.1632
583 1 7.25345 34.9689 36.1811
6941 2 9.07341 34.9903 37.4623
13161 1 8.16315 36.6024 38.7291
577 1 9.98087 36.5566 36.1632
16039 1 10.8922 35.0121 38.7469
18839 2 1.80775 19.1167 40.1684
13209 1 0.899281 20.7211 41.441
13215 1 3.62796 19.1283 41.4517
18826 2 4.53535 20.7086 40.1576
13179 1 6.35552 20.7211 41.441
18828 2 7.26399 19.1167 40.1684
13178 1 9.0842 19.1283 41.4517
18780 2 9.99159 20.7086 40.1576
18840 2 1.80667 22.3004 40.1461
13208 1 0.89801 23.9065 41.4171
13207 1 3.62679 22.3138 41.4294
18825 2 4.53418 23.8922 40.1337
13173 1 6.35425 23.9065 41.4171
18824 2 7.26291 22.3004 40.1461
13180 1 9.08303 22.3138 41.4294
18779 2 9.99042 23.8922 40.1337
18836 2 1.8054 25.4839 40.1206
13198 1 0.896521 27.0919 41.3902
13210 1 3.62541 25.4992 41.404
18818 2 4.53281 27.0756 40.1068
13172 1 6.35276 27.0919 41.3902
18827 2 7.26164 25.4839 40.1206
13171 1 9.08165 25.4992 41.404
18778 2 9.98905 27.0756 40.1068
18837 2 1.80394 28.6673 40.0922
13197 1 0.894803 30.2773 41.3603
13196 1 3.62381 28.6846 41.3756
18817 2 4.53125 30.2589 40.0769
13159 1 6.35104 30.2773 41.3603
18816 2 7.26018 28.6673 40.0922
13174 1 9.08005 28.6846 41.3756
18771 2 9.98749 30.2589 40.0769
18832 2 1.80228 31.8505 40.0608
13190 1 0.892845 33.4628 41.3276
13199 1 3.62197 31.87 41.3442
13158 1 6.34908 33.4628 41.3276
18804 2 4.52949 33.442 40.0441
18819 2 7.25851 31.8505 40.0608
13157 1 9.07821 31.87 41.3442
18770 2 9.98573 33.442 40.0441
18833 2 1.80042 35.0336 40.0268
13189 1 0.890637 36.6486 41.2922
18789 2 2.712 36.6713 42.5705
13188 1 3.61989 35.0557 41.3102
13141 1 6.34688 36.6486 41.2922
18801 2 5.44122 35.0771 42.5888
18803 2 4.52754 36.6251 40.0087
18802 2 7.25666 35.0336 40.0268
13160 1 9.07613 35.0557 41.3102
18753 2 8.16824 36.6713 42.5705
18755 2 9.98378 36.6251 40.0087
21649 2 10.8975 35.0771 42.5888
18822 2 2.7205 20.7335 42.7207
13205 1 1.81351 19.1515 44.0142
18810 2 0.906412 20.7584 45.2825
18820 2 3.6351 19.1631 45.2933
18821 2 5.44918 19.1398 42.7315
13169 1 4.54104 20.746 44.0034
18774 2 6.36265 20.7584 45.2825
13177 1 7.26975 19.1515 44.0142
18777 2 8.17674 20.7335 42.7207
13116 1 9.99728 20.746 44.0034
18773 2 9.09134 19.1631 45.2933
21658 2 10.9054 19.1398 42.7315
18814 2 2.71923 23.9207 42.6967
13206 1 1.81229 22.3405 43.9918
18809 2 0.905117 23.9493 45.2583
18808 2 3.63391 22.3538 45.2708
18823 2 5.44801 22.3271 42.7091
13168 1 4.53971 23.935 43.9794
18766 2 6.36136 23.9493 45.2583
13167 1 7.26852 22.3405 43.9918
18776 2 8.17547 23.9207 42.6967
13115 1 9.99595 23.935 43.9794
18775 2 9.09015 22.3538 45.2708
21654 2 10.9042 22.3271 42.7091
18813 2 2.71775 27.1079 42.6696
13194 1 1.81085 25.5296 43.9662
18796 2 0.903617 27.1404 45.2308
18811 2 3.63251 25.5448 45.2449
18812 2 5.44664 25.5143 42.6835
13155 1 4.53816 27.1243 43.9522
18765 2 6.35986 27.1404 45.2308
13170 1 7.26709 25.5296 43.9662
18769 2 8.17399 27.1079 42.6696
13114 1 9.9944 27.1243 43.9522
18764 2 9.08875 25.5448 45.2449
21655 2 10.9029 25.5143 42.6835
18800 2 2.71606 30.2954 42.6394
13195 1 1.80918 28.719 43.9374
18795 2 0.901907 30.3319 45.2001
18794 2 3.63091 28.7361 45.2159
18815 2 5.44505 28.7016 42.6549
13154 1 4.53638 30.3138 43.9219
18751 2 6.35815 30.3319 45.2001
13153 1 7.26542 28.719 43.9374
18768 2 8.1723 30.2954 42.6394
13107 1 9.99261 30.3138 43.9219
18767 2 9.08715 28.7361 45.2159
21650 2 10.9013 28.7016 42.6549
18799 2 2.71414 33.4831 42.6064
13186 1 1.80727 31.9088 43.9056
18788 2 0.899983 33.524 45.1664
18797 2 3.62909 31.9279 45.1837
18798 2 5.44325 31.8892 42.6233
13140 1 4.53434 33.5039 43.8887
18750 2 6.35622 33.524 45.1664
13156 1 7.26351 31.9088 43.9056
18754 2 8.17038 33.4831 42.6064
13106 1 9.99058 33.5039 43.8887
18749 2 9.08533 31.9279 45.1837
21651 2 10.8995 31.8892 42.6233
13187 1 1.80511 35.0992 43.871
18787 2 0.897845 36.7172 45.1296
18786 2 3.62706 35.1205 45.1484
13139 1 4.53205 36.6948 43.8526
18734 2 6.35408 36.7172 45.1296
13138 1 7.26135 35.0992 43.871
13091 1 9.98829 36.6948 43.8526
18752 2 9.0833 35.1205 45.1484
13147 1 0.914347 20.7962 49.1245
13165 1 2.72733 20.771 46.5646
18806 2 1.82175 19.1864 47.854
13110 1 6.37059 20.7962 49.1245
13163 1 3.64303 19.1982 49.1356
13164 1 5.45603 19.1748 46.5755
18762 2 4.54931 20.7835 47.843
13109 1 9.09927 19.1982 49.1356
13113 1 8.18356 20.771 46.5646
18714 2 10.0055 20.7835 47.843
18772 2 7.27799 19.1864 47.854
16024 1 10.9123 19.1748 46.5755
13146 1 0.913092 23.9925 49.0997
13151 1 2.72601 23.9637 46.5402
18807 2 1.82058 22.3807 47.8312
13102 1 6.36933 23.9925 49.0997
13145 1 3.64186 22.3943 49.1126
13166 1 5.45481 22.3673 46.5528
18761 2 4.54805 23.978 47.8184
13111 1 9.0981 22.3943 49.1126
13112 1 8.18225 23.9637 46.5402
18713 2 10.0043 23.978 47.8184
18760 2 7.27682 22.3807 47.8312
16012 1 10.911 22.3673 46.5528
13132 1 0.911659 27.1892 49.0715
13150 1 2.72448 27.1567 46.5126
18792 2 1.81923 25.5754 47.8049
13101 1 6.3679 27.1892 49.0715
13148 1 3.64052 25.5908 49.0861
13149 1 5.45339 25.5602 46.5268
18747 2 4.5466 27.1728 47.7904
13100 1 9.09676 25.5908 49.0861
13105 1 8.18072 27.1567 46.5126
18712 2 10.0028 27.1728 47.7904
18763 2 7.27546 25.5754 47.8049
16013 1 10.9096 25.5602 46.5268
13131 1 0.910051 30.3868 49.0398
13136 1 2.72274 30.3504 46.4817
18793 2 1.81769 28.7705 47.7752
13087 1 6.36629 30.3868 49.0398
13130 1 3.639 28.7879 49.0561
13152 1 5.45176 28.7535 46.4975
18746 2 4.54497 30.3683 47.7591
18745 2 7.27393 28.7705 47.7752
13103 1 9.09523 28.7879 49.0561
13104 1 8.17898 30.3504 46.4817
18705 2 10.0012 30.3683 47.7591
16004 1 10.908 28.7535 46.4975
13124 1 0.908267 33.5855 49.0046
13135 1 2.72077 33.5449 46.4476
18784 2 1.81597 31.9664 47.7422
13133 1 3.6373 31.986 49.0226
13086 1 6.36451 33.5855 49.0046
13134 1 5.4499 31.9475 46.465
18733 2 4.54316 33.5648 47.7244
18748 2 7.27221 31.9664 47.7422
13085 1 9.09354 31.986 49.0226
13090 1 8.17701 33.5449 46.4476
18704 2 9.9994 33.5648 47.7244
16005 1 10.9061 31.9475 46.465
13123 1 0.906314 36.786 48.966
13125 1 2.71858 36.7407 46.4104
18785 2 1.81407 35.1635 47.7058
13122 1 3.63543 35.1855 48.9858
13072 1 6.36255 36.786 48.966
13137 1 5.44783 35.1426 46.4294
18732 2 4.54118 36.7627 47.6864
18731 2 7.27031 35.1635 47.7058
13088 1 9.09167 35.1855 48.9858
13089 1 8.17482 36.7407 46.4104
18693 2 9.99741 36.7627 47.6864
16003 1 10.9041 35.1426 46.4294
13143 1 1.83071 19.2217 51.6946
18758 2 2.73668 20.8087 50.4024
18805 2 0.00909541 19.2099 50.4135
13098 1 4.55831 20.8214 51.6833
18757 2 5.46533 19.2099 50.4135
13056 1 10.0145 20.8214 51.6833
13108 1 7.28695 19.2217 51.6946
18711 2 8.19292 20.8087 50.4024
13144 1 1.82963 22.4213 51.6711
18743 2 2.7355 24.0067 50.3773
18790 2 0.00798793 22.4077 50.3903
13097 1 4.55715 24.0212 51.658
18759 2 5.46423 22.4077 50.3903
13055 1 10.0134 24.0212 51.658
13096 1 7.28587 22.4213 51.6711
18710 2 8.19173 24.0067 50.3773
13128 1 1.8284 25.6213 51.644
18742 2 2.73416 27.2053 50.3487
18791 2 0.00672658 25.6059 50.3634
13083 1 4.55586 27.2216 51.629
18741 2 5.46296 25.6059 50.3634
13054 1 10.0121 27.2216 51.629
13099 1 7.28464 25.6213 51.644
18703 2 8.1904 27.2053 50.3487
13129 1 1.82705 28.8222 51.6132
18729 2 2.73268 30.4046 50.3165
18782 2 0.00531746 28.8048 50.333
13082 1 4.55444 30.423 51.5964
18744 2 5.46156 28.8048 50.333
13048 1 10.0107 30.423 51.5964
13081 1 7.28328 28.8222 51.6132
18702 2 8.18892 30.4046 50.3165
13120 1 1.82557 32.0242 51.5787
18728 2 2.73106 33.6052 50.2806
18783 2 0.00376871 32.0047 50.299
13071 1 4.5529 33.6257 51.56
18727 2 5.46001 32.0047 50.299
13047 1 10.0091 33.6257 51.56
13084 1 7.28181 32.0242 51.5787
18692 2 8.1873 33.6052 50.2806
13121 1 1.82398 35.2277 51.5404
18720 2 2.72933 36.8074 50.2411
18781 2 0.00209095 35.206 50.2613
13070 1 4.55126 36.8303 51.5198
18730 2 5.45833 35.206 50.2613
13040 1 10.0075 36.8303 51.5198
13069 1 7.28022 35.2277 51.5404
18691 2 8.18557 36.8074 50.2411
13094 1 2.74668 20.8467 54.2409
13142 1 0.0190376 19.2452 54.2524
18735 2 1.84197 19.2569 55.5293
18739 2 0.924728 20.8339 52.9606
13093 1 5.47528 19.2452 54.2524
18696 2 4.56964 20.8592 55.5177
18708 2 6.38097 20.8339 52.9606
18756 2 3.65334 19.2334 52.972
13053 1 8.20292 20.8467 54.2409
18678 2 10.0259 20.8592 55.5177
18706 2 7.29821 19.2569 55.5293
18707 2 9.10958 19.2334 52.972
13079 1 2.74564 24.05 54.2151
13126 1 0.0180546 22.4482 54.2285
18736 2 1.84105 22.4616 55.5051
18738 2 0.923645 24.0355 52.935
13095 1 5.47429 22.4482 54.2285
18695 2 4.56867 24.0642 55.4915
18700 2 6.37988 24.0355 52.935
18737 2 3.65232 22.4346 52.9482
13052 1 8.20188 24.05 54.2151
18677 2 10.0249 24.0642 55.4915
18694 2 7.29728 22.4616 55.5051
18709 2 9.10856 22.4346 52.9482
13078 1 2.74451 27.2539 54.1854
13127 1 0.0169691 25.6518 54.2007
18721 2 1.84003 25.6669 55.477
18725 2 0.92245 27.2376 52.9056
13077 1 5.47321 25.6518 54.2007
18685 2 4.56762 27.2698 55.4614
18699 2 6.37869 27.2376 52.9056
18740 2 3.65118 25.6364 52.9208
13046 1 8.20075 27.2539 54.1854
18676 2 10.0239 27.2698 55.4614
18697 2 7.29627 25.6669 55.477
18698 2 9.10742 25.6364 52.9208
13067 1 2.7433 30.4589 54.1517
13118 1 0.0157974 28.8563 54.169
18722 2 1.83895 28.8729 55.4449
18724 2 0.921155 30.4407 52.8724
13080 1 5.47204 28.8563 54.169
18684 2 4.56651 30.4764 55.4273
18689 2 6.37739 30.4407 52.8724
18723 2 3.64993 28.839 52.8895
13045 1 8.19954 30.4589 54.1517
18675 2 10.0227 30.4764 55.4273
18683 2 7.29519 28.8729 55.4449
18701 2 9.10617 28.839 52.8895
13066 1 2.74203 33.6653 54.114
13119 1 0.0145567 32.0619 54.1334
18715 2 1.83782 32.0801 55.4086
18719 2 0.919774 33.645 52.8354
18726 2 3.64859 32.0426 52.8544
18688 2 6.37601 33.645 52.8354
13065 1 5.4708 32.0619 54.1334
18681 2 4.56536 33.6842 55.3889
18687 2 9.10483 32.0426 52.8544
18686 2 7.29406 32.0801 55.4086
18674 2 10.0216 33.6842 55.3889
13039 1 8.19827 33.6653 54.114
18718 2 0.91832 36.8511 52.7943
18716 2 1.83665 35.2888 55.3682
13117 1 0.0132626 35.2691 54.0936
13060 1 2.74072 36.8736 54.0721
18717 2 3.64717 35.2478 52.8153
18682 2 6.37456 36.8511 52.7943
18680 2 4.56417 36.8939 55.3463
13068 1 5.4695 35.2691 54.0936
18690 2 9.10341 35.2478 52.8153
18679 2 7.29289 35.2888 55.3682
18673 2 10.0204 36.8939 55.3463
13038 1 8.19696 36.8736 54.0721
19025 2 2.75889 20.8844 58.0738
19032 2 0.031191 19.2804 58.0856
13075 1 0.935656 20.8719 56.7976
19024 2 5.48743 19.2804 58.0856
13050 1 6.39189 20.8719 56.7976
13092 1 3.66421 19.2688 56.8093
18990 2 8.21513 20.8844 58.0738
13049 1 9.12045 19.2688 56.8093
19021 2 2.75801 24.0928 58.0471
19030 2 0.0303413 22.4885 58.061
13074 1 0.934733 24.0786 56.7711
19026 2 5.48658 22.4885 58.061
13043 1 6.39097 24.0786 56.7711
13073 1 3.66332 22.4752 56.7848
18989 2 8.21425 24.0928 58.0471
13051 1 9.11956 22.4752 56.7848
19020 2 2.75709 27.3018 58.0163
19031 2 0.0294366 25.6972 58.0322
13063 1 0.933756 27.2861 56.7407
19019 2 5.48568 25.6972 58.0322
13042 1 6.38999 27.2861 56.7407
13076 1 3.66237 25.6822 56.7564
18984 2 8.21333 27.3018 58.0163
13041 1 9.11861 25.6822 56.7564
19010 2 2.75614 30.5117 57.9812
19028 2 0.0285001 28.9066 57.9992
13062 1 0.932746 30.4944 56.706
13369 1 4.57888 30.5296 59.2595
19022 2 5.48474 28.9066 57.9992
13036 1 6.38898 30.4944 56.706
13061 1 3.66137 28.8901 56.7239
13323 1 10.0351 30.5296 59.2595
18983 2 8.21238 30.5117 57.9812
13044 1 9.11761 28.8901 56.7239
13384 1 1.85034 32.1358 59.24
19009 2 2.75519 33.7228 57.9416
19029 2 0.0275486 32.1171 57.962
13059 1 0.931722 33.7042 56.667
13356 1 4.57805 33.7424 59.2194
19008 2 5.48379 32.1171 57.962
13035 1 6.38796 33.7042 56.667
13064 1 3.66035 32.0991 56.6871
13322 1 10.0343 33.7424 59.2194
13371 1 7.30658 32.1358 59.24
18970 2 8.21143 33.7228 57.9416
13034 1 9.11659 32.0991 56.6871
13385 1 1.84951 35.3493 59.1976
18999 2 2.75422 36.9355 57.8976
19027 2 0.0265865 35.3289 57.9202
13058 1 0.93069 36.9157 56.6236
13355 1 4.57722 36.9567 59.1746
19011 2 5.48282 35.3289 57.9202
13033 1 6.38693 36.9157 56.6236
13057 1 3.65933 35.3097 56.6459
13307 1 10.0335 36.9567 59.1746
13354 1 7.30575 35.3493 59.1976
18969 2 8.21045 36.9355 57.8976
13037 1 9.11556 35.3097 56.6459
13391 1 1.8537 19.2923 59.3652
13374 1 2.77145 20.9223 61.9081
13390 1 0.0437079 19.3158 61.9203
19017 2 0.948678 20.9095 60.629
13378 1 4.58142 20.8972 59.3532
13373 1 5.49995 19.3158 61.9203
18987 2 6.40492 20.9095 60.629
19023 2 3.67719 19.3039 60.641
13332 1 10.0377 20.8972 59.3532
13380 1 7.30994 19.2923 59.3652
13329 1 8.22768 20.9223 61.9081
18986 2 9.13343 19.3039 60.641
13392 1 1.85289 22.5021 59.3403
13366 1 2.77066 24.1357 61.8807
13386 1 0.0429369 22.5289 61.895
19016 2 0.947861 24.1212 60.6017
13377 1 4.58059 24.1072 59.3263
13375 1 5.49918 22.5289 61.895
18981 2 6.4041 24.1212 60.6017
19015 2 3.67639 22.5153 60.6159
13331 1 10.0368 24.1072 59.3263
13376 1 7.30913 22.5021 59.3403
13328 1 8.2269 24.1357 61.8807
18988 2 9.13263 22.5153 60.6159
13388 1 1.85204 25.7125 59.3112
13365 1 2.76988 27.3496 61.8489
13387 1 0.0421486 25.7426 61.8653
19006 2 0.947025 27.3335 60.5702
13370 1 4.57973 27.318 59.2951
13364 1 5.49839 25.7426 61.8653
18980 2 6.40326 27.3335 60.5702
19018 2 3.67556 25.7273 60.5865
13330 1 10.036 27.318 59.2951
13379 1 7.30828 25.7125 59.3112
13321 1 8.22612 27.3496 61.8489
18979 2 9.1318 25.7273 60.5865
13389 1 1.85119 28.9236 59.2778
13352 1 2.76912 30.5643 61.8125
13382 1 0.0413738 28.9569 61.8313
19005 2 0.94619 30.5466 60.5343
13367 1 5.49761 28.9569 61.8313
18967 2 6.40243 30.5466 60.5343
19004 2 3.67473 28.94 60.5528
13368 1 7.30743 28.9236 59.2778
13320 1 8.22536 30.5643 61.8125
18982 2 9.13096 28.94 60.5528
13351 1 2.76839 33.7799 61.7714
13383 1 0.0406316 32.172 61.7926
18998 2 0.945364 33.7607 60.4938
13350 1 5.49687 32.172 61.7926
18966 2 6.4016 33.7607 60.4938
19007 2 3.6739 32.1535 60.5146
13306 1 8.22463 33.7799 61.7714
18965 2 9.13013 32.1535 60.5146
13341 1 2.76768 36.9967 61.7256
13381 1 0.0399158 35.3882 61.7491
18997 2 0.944527 36.9761 60.4486
13353 1 5.49615 35.3882 61.7491
18949 2 6.40077 36.9761 60.4486
18996 2 3.67307 35.3682 60.4718
13305 1 8.22392 36.9967 61.7256
18968 2 9.12931 35.3682 60.4718
13362 1 0.961891 20.9475 64.4626
18973 2 2.78589 20.9594 65.7362
19012 2 0.0581737 19.3504 65.7486
19013 2 1.86745 19.3272 63.1954
13326 1 6.41813 20.9475 64.4626
13372 1 3.6904 19.3393 64.4749
18972 2 5.51441 19.3504 65.7486
18977 2 4.59519 20.9346 63.1831
13325 1 9.14663 19.3393 64.4749
18921 2 8.24213 20.9594 65.7362
18924 2 10.0514 20.9346 63.1831
18985 2 7.32369 19.3272 63.1954
13361 1 0.961104 24.1641 64.4347
18959 2 2.78506 24.1776 65.7082
19000 2 0.0573626 22.5685 65.7228
19014 2 1.86667 22.542 63.1699
13318 1 6.41734 24.1641 64.4347
13360 1 3.68962 22.5557 64.4492
18974 2 5.5136 22.5685 65.7228
18976 2 4.59439 24.1496 63.1555
13327 1 9.14586 22.5557 64.4492
18920 2 8.2413 24.1776 65.7082
18923 2 10.0506 24.1496 63.1555
18975 2 7.32291 22.542 63.1699
13348 1 0.960322 27.3812 64.4024
18958 2 2.78423 27.3963 65.6757
19001 2 0.0565258 25.7869 65.6925
19002 2 1.86587 25.7572 63.14
13317 1 6.41656 27.3812 64.4024
13363 1 3.68883 25.7726 64.4191
18957 2 5.51276 25.7869 65.6925
18963 2 4.59359 27.3651 63.1234
13316 1 9.14507 25.7726 64.4191
18913 2 8.24046 27.3963 65.6757
18922 2 10.0498 27.3651 63.1234
18978 2 7.32211 25.7572 63.14
13347 1 0.959572 30.5988 64.3654
18944 2 2.7834 30.6155 65.6386
18992 2 0.0556923 29.0058 65.6578
19003 2 1.86507 28.973 63.1057
13303 1 6.41581 30.5988 64.3654
13346 1 3.68806 28.9899 64.3845
18960 2 5.51193 29.0058 65.6578
18962 2 4.59279 30.5812 63.0868
13319 1 9.1443 28.9899 64.3845
18912 2 8.23964 30.6155 65.6386
18915 2 10.049 30.5812 63.0868
18961 2 7.32131 28.973 63.1057
13340 1 0.958864 33.8171 64.3237
18943 2 2.78259 33.8351 65.5967
18993 2 0.054878 32.2252 65.6183
18994 2 1.86429 32.1895 63.0668
13302 1 6.4151 33.8171 64.3237
13349 1 3.68733 32.2079 64.3451
18942 2 5.51112 32.2252 65.6183
18948 2 4.59202 33.7981 63.0455
13301 1 9.14357 32.2079 64.3451
18898 2 8.23883 33.8351 65.5967
18914 2 10.0483 33.7981 63.0455
18964 2 7.32053 32.1895 63.0668
13339 1 0.958152 37.036 64.277
18933 2 2.78177 37.0552 65.55
18991 2 0.0540729 35.4451 65.5739
18995 2 1.86351 35.4069 63.023
13286 1 6.41439 37.036 64.277
13338 1 3.68662 35.4264 64.3009
18945 2 5.51031 35.4451 65.5739
18947 2 4.59123 37.0159 62.9994
13304 1 9.14286 35.4264 64.3009
18897 2 8.23801 37.0552 65.55
18899 2 10.0475 37.0159 62.9994
18946 2 7.31975 35.4069 63.023
13358 1 1.88111 19.3632 67.0299
18955 2 0.976918 20.9838 68.2873
13314 1 4.60881 20.973 67.0175
18918 2 6.43316 20.9838 68.2873
18971 2 3.70547 19.3731 68.2998
13266 1 10.0651 20.973 67.0175
13324 1 7.33735 19.3632 67.0299
18917 2 9.16171 19.3731 68.2998
13359 1 1.88027 22.5829 67.004
18954 2 0.976009 24.2053 68.2591
13313 1 4.60796 24.1928 66.9893
18910 2 6.43225 24.2053 68.2591
18953 2 3.70459 22.5945 68.2737
13265 1 10.0642 24.1928 66.9893
13312 1 7.33651 22.5829 67.004
18919 2 9.16083 22.5945 68.2737
13344 1 1.87941 25.8029 66.9736
18940 2 0.975075 27.4272 68.2263
13299 1 4.6071 27.413 66.9567
18909 2 6.43131 27.4272 68.2263
18956 2 3.70366 25.8162 68.2432
13264 1 10.0633 27.413 66.9567
13315 1 7.33565 25.8029 66.9736
18908 2 9.1599 25.8162 68.2432
13345 1 1.87856 29.0232 66.9386
18939 2 0.97414 30.6493 68.1888
13298 1 4.60626 30.6335 66.9193
18895 2 6.43038 30.6493 68.1888
18938 2 3.70273 29.0382 68.2082
13257 1 10.0625 30.6335 66.9193
13297 1 7.33479 29.0232 66.9386
18911 2 9.15896 29.0382 68.2082
13336 1 1.87773 32.2439 66.8988
18932 2 0.973207 33.8717 68.1466
13285 1 4.60544 33.8543 66.8771
18894 2 6.42945 33.8717 68.1466
18941 2 3.70179 32.2605 68.1683
13256 1 10.0617 33.8543 66.8771
13300 1 7.33397 32.2439 66.8988
18893 2 9.15803 32.2605 68.1683
13337 1 1.87691 35.4647 66.8542
18931 2 0.972241 37.0941 68.0996
13284 1 4.60467 37.075 66.83
18880 2 6.42848 37.0941 68.0996
18930 2 3.70085 35.4829 68.1237
13245 1 10.0609 37.075 66.83
13283 1 7.33315 35.4647 66.8542
18896 2 9.15709 35.4829 68.1237
13291 1 0.984367 21.0227 72.1521
13310 1 2.79898 20.9976 69.5765
13357 1 0.0713281 19.3862 69.589
18951 2 1.89654 19.3948 70.8462
13260 1 6.44061 21.0227 72.1521
13308 1 3.71304 19.4096 72.1647
13309 1 5.52757 19.3862 69.589
18906 2 4.62417 21.0071 70.8337
13259 1 9.16928 19.4096 72.1647
13263 1 8.25522 20.9976 69.5765
18864 2 10.0804 21.0071 70.8337
18916 2 7.35278 19.3948 70.8462
13290 1 0.983197 24.2489 72.1236
13295 1 2.79801 24.2207 69.5481
13342 1 0.0703796 22.6091 69.5629
18952 2 1.89555 22.6194 70.82
13252 1 6.43944 24.2489 72.1236
13289 1 3.71191 22.6358 72.1384
13311 1 5.52662 22.6091 69.5629
18905 2 4.62314 24.2319 70.8053
13261 1 9.16815 22.6358 72.1384
13262 1 8.25424 24.2207 69.5481
18863 2 10.0794 24.2319 70.8053
18904 2 7.35178 22.6194 70.82
13277 1 0.981983 27.4752 72.0906
13294 1 2.79701 27.444 69.5152
13343 1 0.0693881 25.8323 69.5322
18936 2 1.89449 25.8444 70.7894
13251 1 6.43822 27.4752 72.0906
13292 1 3.71071 25.8621 72.1077
13293 1 5.52563 25.8323 69.5322
18891 2 4.62207 27.457 70.7723
13250 1 9.16695 25.8621 72.1077
13255 1 8.25325 27.444 69.5152
18862 2 10.0783 27.457 70.7723
18907 2 7.35073 25.8444 70.7894
13276 1 0.980773 30.7014 72.0528
13281 1 2.79602 30.6673 69.4776
13334 1 0.0683908 29.0556 69.497
18937 2 1.89341 29.0696 70.7541
13241 1 6.43701 30.7014 72.0528
13275 1 3.70949 29.0884 72.0723
13296 1 5.52463 29.0556 69.497
18890 2 4.62098 30.6823 70.7347
13253 1 9.16573 29.0884 72.0723
13254 1 8.25226 30.6673 69.4776
18856 2 10.0772 30.6823 70.7347
18889 2 7.34965 29.0696 70.7541
13271 1 0.979599 33.9273 72.0103
13280 1 2.79505 33.8907 69.4351
13335 1 0.0674115 32.279 69.457
18928 2 1.89232 32.2949 70.7141
13240 1 6.43584 33.9273 72.0103
13278 1 3.7083 32.3144 72.0322
13279 1 5.52365 32.279 69.457
18879 2 4.6199 33.9075 70.6924
13239 1 9.16454 32.3144 72.0322
13244 1 8.25129 33.8907 69.4351
18855 2 10.0761 33.9075 70.6924
18892 2 7.34856 32.2949 70.7141
13270 1 0.978457 37.1525 71.9631
13272 1 2.79407 37.1138 69.3879
13333 1 0.0664444 35.5023 69.4121
18929 2 1.89122 35.5201 70.6694
13234 1 6.4347 37.1525 71.9631
13269 1 3.70715 35.54 71.9873
13282 1 5.52268 35.5023 69.4121
18878 2 4.61878 37.1325 70.6453
13242 1 9.16338 35.54 71.9873
13243 1 8.25031 37.1138 69.3879
18848 2 10.075 37.1325 70.6453
18877 2 7.34746 35.5201 70.6694
13287 1 1.83944 19.4424 74.8159
18883 2 0.975286 21.0579 75.8398
18902 2 2.81344 21.0295 73.3655
18950 2 0.0858837 19.4156 73.3781
13248 1 4.56684 21.057 74.8033
18858 2 6.43152 21.0579 75.8398
18900 2 3.70409 19.4425 75.8524
18901 2 5.54212 19.4156 73.3781
13230 1 10.0231 21.057 74.8033
13258 1 7.29568 19.4424 74.8159
18857 2 9.16033 19.4425 75.8524
18861 2 8.26968 21.0295 73.3655
13288 1 1.83798 22.6715 74.7896
18882 2 0.973824 24.2887 75.8113
18887 2 2.81225 24.2576 73.337
18934 2 0.0847394 22.6435 73.3518
13247 1 4.56535 24.2859 74.7748
18851 2 6.43006 24.2887 75.8113
18881 2 3.70269 22.6733 75.8261
18903 2 5.54098 22.6435 73.3518
13229 1 10.0216 24.2859 74.7748
13246 1 7.29422 22.6715 74.7896
18859 2 9.15892 22.6733 75.8261
18860 2 8.26849 24.2576 73.337
13273 1 1.83648 25.9002 74.7589
18871 2 0.972304 27.5195 75.7784
18886 2 2.81099 27.486 73.304
18935 2 0.0835088 25.8718 73.3211
13237 1 4.56386 27.5143 74.7418
18850 2 6.42854 27.5195 75.7784
18884 2 3.70119 25.9041 75.7954
18885 2 5.53975 25.8718 73.3211
13228 1 10.0201 27.5143 74.7418
13249 1 7.29272 25.9002 74.7589
18849 2 9.15742 25.9041 75.7954
18854 2 8.26723 27.486 73.304
13274 1 1.83504 29.1282 74.7236
18870 2 0.970813 30.75 75.7409
18875 2 2.80972 30.7145 73.2663
18926 2 0.0822364 29.1002 73.2857
13236 1 4.56251 30.742 74.7042
18844 2 6.42705 30.75 75.7409
18869 2 3.69967 29.1348 75.7602
18888 2 5.53847 29.1002 73.2857
13227 1 10.0187 30.742 74.7042
13235 1 7.29128 29.1282 74.7236
18852 2 9.15591 29.1348 75.7602
18853 2 8.26595 30.7145 73.2663
13267 1 1.83381 32.3554 74.6836
18867 2 0.969437 33.9798 75.6989
18874 2 2.80844 33.9428 73.224
18927 2 0.0809598 32.3287 73.2458
13233 1 4.56143 33.9686 74.6619
18843 2 6.42568 33.9798 75.6989
18872 2 3.69823 32.365 75.7204
18873 2 5.5372 32.3287 73.2458
13226 1 10.0177 33.9686 74.6619
13238 1 7.29004 32.3554 74.6836
18842 2 9.15446 32.365 75.7204
18847 2 8.26468 33.9428 73.224
13268 1 1.83291 35.5814 74.639
18866 2 0.968231 37.2087 75.6524
18868 2 2.80717 37.1706 73.1771
18925 2 0.079691 35.5568 73.2011
13232 1 4.56073 37.194 74.615
18841 2 6.42447 37.2087 75.6524
18865 2 3.69693 35.5944 75.6761
18876 2 5.53593 35.5568 73.2011
13225 1 10.017 37.194 74.615
13231 1 7.28915 35.5814 74.639
18845 2 9.15317 35.5944 75.6761
18846 2 8.26341 37.1706 73.1771
7137 2 0.914115 39.1707 -1.17868
7145 2 2.73052 39.1378 -3.68226
960 1 1.82058 40.7327 -2.64538
7150 2 0.00419819 40.7106 -3.70564
946 1 4.54552 39.1593 -2.62156
7107 2 6.37035 39.1707 -1.17868
7135 2 3.64333 40.7435 -1.20255
7146 2 5.46044 40.7106 -3.70564
900 1 10.0018 39.1593 -2.62156
7110 2 8.18676 39.1378 -3.68226
944 1 7.27682 40.7327 -2.64538
7108 2 9.09957 40.7435 -1.20255
7136 2 0.916314 42.317 -1.22678
7141 2 2.73415 42.2842 -3.72935
956 1 1.82727 43.882 -2.694
7151 2 0.00790441 43.8587 -3.75329
945 1 4.552 42.3069 -2.66957
7101 2 6.37255 42.317 -1.22678
7138 2 3.64553 43.8913 -1.25126
7139 2 5.46414 43.8587 -3.75329
899 1 10.0082 42.3069 -2.66957
7109 2 8.19039 42.2842 -3.72935
947 1 7.2835 43.882 -2.694
7099 2 9.10177 43.8913 -1.25126
7126 2 0.9185 45.4665 -1.27587
7140 2 2.73792 45.4343 -3.77732
957 1 1.83423 47.0349 -2.7431
7148 2 0.0117075 47.011 -3.80133
938 1 4.55884 45.458 -2.71856
7100 2 6.37474 45.4665 -1.27587
7124 2 3.64771 47.0425 -1.30046
7142 2 5.46795 47.011 -3.80133
898 1 10.0151 45.458 -2.71856
7104 2 8.19415 45.4343 -3.77732
936 1 7.29047 47.0349 -2.7431
7102 2 9.10394 47.0425 -1.30046
7125 2 0.92067 48.6195 -1.32491
7130 2 2.74175 48.5887 -3.82517
952 1 1.84131 50.1916 -2.79162
7149 2 0.0155506 50.1675 -3.84872
937 1 4.56589 48.6127 -2.76751
7087 2 6.37691 48.6195 -1.32491
7127 2 3.64987 50.1974 -1.34907
7128 2 5.47179 50.1675 -3.84872
891 1 10.0221 48.6127 -2.76751
7103 2 8.19799 48.5887 -3.82517
939 1 7.29755 50.1916 -2.79162
7085 2 9.10611 50.1974 -1.34907
7118 2 0.92283 51.7762 -1.37279
7129 2 2.74559 51.7475 -3.87182
953 1 1.84829 53.3521 -2.83834
7147 2 0.0193729 53.3286 -3.89433
924 1 4.57294 51.7714 -2.81528
7086 2 6.37907 51.7762 -1.37279
7116 2 3.65203 53.3561 -1.39591
7131 2 5.47561 53.3286 -3.89433
890 1 10.0292 51.7714 -2.81528
7090 2 8.20183 51.7475 -3.87182
922 1 7.30453 53.3521 -2.83834
7088 2 9.10826 53.3561 -1.39591
7117 2 0.924981 54.9369 -1.41827
7119 2 2.74937 54.9109 -3.91609
1343 1 1.85497 56.5163 -2.88205
7560 2 0.0231031 56.4942 -3.93697
923 1 4.5798 54.9338 -2.86065
7069 2 6.38122 54.9369 -1.41827
7551 2 3.65417 56.5188 -1.43974
7552 2 5.47934 56.4942 -3.93697
875 1 10.036 54.9338 -2.86065
7089 2 8.20561 54.9109 -3.91609
1332 1 7.31121 56.5163 -2.88205
7514 2 9.11041 56.5188 -1.43974
942 1 2.73202 39.1899 0.0430212
954 1 0.00536064 40.7631 0.0189779
7134 2 1.82458 40.7789 1.34987
7097 2 4.55139 39.2058 1.37405
943 1 5.4616 40.7631 0.0189779
897 1 8.18826 39.1899 0.0430212
7044 2 10.0076 39.2058 1.37405
7095 2 7.28082 40.7789 1.34987
934 1 2.73495 42.337 -0.00543419
955 1 0.00830212 43.9115 -0.0301001
7122 2 1.82721 43.9269 1.30048
7096 2 4.55401 42.3526 1.32531
931 1 3.6462 43.9451 2.56498
932 1 5.46454 43.9115 -0.0301001
896 1 8.19119 42.337 -0.00543419
7043 2 10.0103 42.3526 1.32531
884 1 9.10243 43.9451 2.56498
7098 2 7.28344 43.9269 1.30048
916 1 0.919556 45.52 2.53975
933 1 2.7379 45.4868 -0.054895
950 1 0.0112531 47.0629 -0.0796853
7123 2 1.82981 47.0774 1.25052
885 1 6.37579 45.52 2.53975
7083 2 4.55663 45.5018 1.27551
914 1 3.64915 47.0955 2.51449
935 1 5.46749 47.0629 -0.0796853
889 1 8.19414 45.4868 -0.054895
7042 2 10.0129 45.5018 1.27551
887 1 9.10539 47.0955 2.51449
7081 2 7.28605 47.0774 1.25052
915 1 0.922486 48.6717 2.48936
920 1 2.74084 48.6398 -0.104329
951 1 0.0141819 50.2175 -0.128679
7114 2 1.83237 50.231 1.2011
871 1 6.37872 48.6717 2.48936
7082 2 4.55921 48.6538 1.22567
917 1 3.65205 50.2485 2.46451
918 1 5.47042 50.2175 -0.128679
888 1 8.19708 48.6398 -0.104329
7035 2 10.0155 48.6538 1.22567
869 1 9.10829 50.2485 2.46451
7084 2 7.28861 50.231 1.2011
908 1 0.92535 51.826 2.4401
919 1 2.74375 51.796 -0.15258
949 1 0.0170596 53.3754 -0.175878
7115 2 1.83487 53.3876 1.15342
870 1 6.38159 51.826 2.4401
7068 2 4.56175 51.8089 1.17697
906 1 3.65487 53.4043 2.41627
921 1 5.4733 53.3754 -0.175878
874 1 8.19999 51.796 -0.15258
7034 2 10.018 51.8089 1.17697
872 1 9.11111 53.4043 2.41627
7066 2 7.29111 53.3876 1.15342
907 1 0.928123 54.9832 2.39321
909 1 2.74659 54.9556 -0.198414
1342 1 0.0198515 56.5367 -0.220032
7541 2 1.8373 56.5475 1.10876
853 1 6.38436 54.9832 2.39321
7067 2 4.56422 54.9672 1.13064
1324 1 3.65759 56.5628 2.37108
1325 1 5.47609 56.5367 -0.220032
873 1 8.20283 54.9556 -0.198414
7019 2 10.0205 54.9672 1.13064
1277 1 9.11382 56.5628 2.37108
7513 2 7.29354 56.5475 1.10876
930 1 0.913635 39.2237 2.63925
7093 2 2.73228 39.2399 3.94033
927 1 1.82439 40.8303 5.19544
7120 2 0.00567179 40.8131 3.9159
894 1 6.36987 39.2237 2.63925
928 1 3.64323 40.797 2.61485
882 1 4.55087 39.257 5.22014
7094 2 5.46191 40.8131 3.9159
895 1 9.09947 40.797 2.61485
828 1 10.0071 39.257 5.22014
7041 2 8.18852 39.2399 3.94033
880 1 7.28063 40.8303 5.19544
929 1 0.916592 42.3708 2.59006
7079 2 2.73531 42.3868 3.89106
912 1 1.82768 43.978 5.14484
7121 2 0.00872029 43.9609 3.86592
886 1 6.37283 42.3708 2.59006
881 1 4.55415 42.404 5.17031
7077 2 5.46496 43.9609 3.86592
827 1 10.0104 42.404 5.17031
7040 2 8.19155 42.3868 3.89106
883 1 7.28392 43.978 5.14484
7078 2 2.73836 45.5355 3.84061
913 1 1.83096 47.1274 5.09347
7112 2 0.0117535 47.1106 3.81526
867 1 4.55744 45.5525 5.11919
7080 2 5.46799 47.1106 3.81526
826 1 10.0137 45.5525 5.11919
7033 2 8.1946 45.5355 3.84061
865 1 7.28719 47.1274 5.09347
7064 2 2.74137 48.6864 3.79002
904 1 1.83417 50.2787 5.04246
7113 2 0.014731 50.2627 3.76504
866 1 4.56069 48.7028 5.06784
7062 2 5.47097 50.2627 3.76504
819 1 10.0169 48.7028 5.06784
7032 2 8.19761 48.6864 3.79002
868 1 7.29041 50.2787 5.04246
7063 2 2.74431 51.8397 3.74048
905 1 1.83728 53.432 4.99352
7111 2 0.0176239 53.4173 3.7165
852 1 4.56385 51.8552 5.01748
7065 2 5.47386 53.4173 3.7165
818 1 10.0201 51.8552 5.01748
7018 2 8.20055 51.8397 3.74048
850 1 7.29352 53.432 4.99352
7053 2 2.74715 54.9955 3.69327
1310 1 1.84027 56.5878 4.94722
7540 2 0.0204081 56.5745 3.67095
851 1 4.56691 55.0096 4.9699
7500 2 5.47665 56.5745 3.67095
804 1 10.0231 55.0096 4.9699
7017 2 8.20339 54.9955 3.69327
1276 1 7.29651 56.5878 4.94722
878 1 2.73155 39.2893 7.79664
7075 2 0.913063 39.273 6.51156
910 1 0.00522694 40.8626 7.77172
7072 2 1.8235 40.8786 9.0602
7026 2 4.54977 39.3053 9.08504
7038 2 6.3693 39.273 6.51156
879 1 5.46147 40.8626 7.77172
7073 2 3.64288 40.8463 6.48689
825 1 8.18779 39.2893 7.79664
6984 2 10.006 39.3053 9.08504
7024 2 7.27974 40.8786 9.0602
7039 2 9.09911 40.8463 6.48689
863 1 2.73516 42.4361 7.74631
7074 2 0.916467 42.4198 6.46177
911 1 0.00887349 44.0097 7.72052
7056 2 1.82728 44.0254 9.0091
7025 2 4.5535 42.4519 9.03485
7030 2 6.3727 42.4198 6.46177
861 1 5.46511 44.0097 7.72052
7076 2 3.6463 43.9937 6.4363
824 1 8.1914 42.4361 7.74631
6983 2 10.0097 42.4519 9.03485
7027 2 7.28352 44.0254 9.0091
7028 2 9.10254 43.9937 6.4363
862 1 2.73882 45.5837 7.69447
7060 2 0.919901 45.5678 6.41062
902 1 0.0125199 47.158 7.66832
7057 2 1.8311 47.173 8.95689
7011 2 4.55731 45.5991 8.98307
7029 2 6.37614 45.5678 6.41062
864 1 5.46876 47.158 7.66832
7058 2 3.64973 47.1424 6.38486
817 1 8.19506 45.5837 7.69447
6982 2 10.0135 45.5991 8.98307
7009 2 7.28734 47.173 8.95689
7031 2 9.10596 47.1424 6.38486
848 1 2.74244 48.7326 7.6422
7059 2 0.923293 48.7174 6.35917
903 1 0.0160847 50.3075 7.6163
7048 2 1.83486 50.3218 8.90473
7010 2 4.56111 48.7472 8.93072
7015 2 6.37953 48.7174 6.35917
846 1 5.47232 50.3075 7.6163
7061 2 3.65307 50.2928 6.33371
816 1 8.19868 48.7326 7.6422
6976 2 10.0173 48.7472 8.93072
7012 2 7.2911 50.3218 8.90473
7013 2 9.10931 50.2928 6.33371
847 1 2.74597 51.883 7.59082
7052 2 0.926576 51.8687 6.30866
901 1 0.0195463 53.4589 7.56588
7049 2 1.83852 53.4719 8.85393
6999 2 4.56483 51.8966 8.87908
7014 2 6.38281 51.8687 6.30866
849 1 5.47578 53.4589 7.56588
7050 2 3.65634 53.4452 6.28417
803 1 8.20221 51.883 7.59082
6975 2 10.0211 51.8966 8.87908
6997 2 7.29476 53.4719 8.85393
7016 2 9.11257 53.4452 6.28417
837 1 2.74933 55.0353 7.54163
7051 2 0.929793 55.0222 6.26038
1309 1 0.0228361 56.6122 7.51827
7479 2 1.84203 56.6239 8.80594
6998 2 4.56842 55.0477 8.82949
7000 2 6.38603 55.0222 6.26038
1261 1 5.47907 56.6122 7.51827
7499 2 3.65945 56.5998 6.23749
802 1 8.20557 55.0353 7.54163
6968 2 10.0247 55.0477 8.82949
7444 2 7.29827 56.6239 8.80594
7445 2 9.11569 56.5998 6.23749
859 1 0.911835 39.3213 10.3722
7022 2 2.72984 39.3375 11.6598
7054 2 0.00370324 40.9107 11.6349
822 1 6.36807 39.3213 10.3722
857 1 3.64189 40.8945 10.3471
7023 2 5.45994 40.9107 11.6349
6981 2 8.18608 39.3375 11.6598
823 1 9.09813 40.8945 10.3471
858 1 0.915755 42.4677 10.3215
7007 2 2.73386 42.4839 11.6093
7055 2 0.0078103 44.0571 11.5834
814 1 6.37199 42.4677 10.3215
860 1 3.64588 44.041 10.2955
7005 2 5.46405 44.0571 11.5834
6980 2 8.19009 42.4839 11.6093
812 1 9.10212 44.041 10.2955
844 1 0.919783 45.6144 10.2691
7006 2 2.73803 45.6302 11.557
7046 2 0.0120269 47.2035 11.5304
813 1 6.37602 45.6144 10.2691
842 1 3.64992 47.188 10.2425
7008 2 5.46827 47.2035 11.5304
6974 2 8.19427 45.6302 11.557
815 1 9.10616 47.188 10.2425
843 1 0.923812 48.7617 10.2159
6995 2 2.74226 48.7768 11.5037
7047 2 0.0162479 50.3504 11.4772
800 1 6.38005 48.7617 10.2159
845 1 3.65392 50.3358 10.1894
6993 2 5.47249 50.3504 11.4772
6973 2 8.1985 48.7768 11.5037
798 1 9.11016 50.3358 10.1894
836 1 0.927761 51.9101 10.1632
6994 2 2.74645 51.9242 11.4508
7045 2 0.0203849 53.4983 11.425
799 1 6.384 51.9101 10.1632
834 1 3.6578 53.4848 10.1375
6996 2 5.47662 53.4983 11.425
6967 2 8.20269 51.9242 11.4508
801 1 9.11403 53.4848 10.1375
835 1 0.931556 55.06 10.1125
6988 2 2.75052 55.0727 11.3997
7478 2 0.0243768 56.6475 11.3754
789 1 6.38779 55.06 10.1125
1260 1 3.66151 56.6355 10.0884
7429 2 5.48062 56.6475 11.3754
6966 2 8.20676 55.0727 11.3997
1205 1 9.11774 56.6355 10.0884
806 1 2.72723 39.3867 15.5243
7003 2 0.909451 39.3702 14.2354
856 1 1.82184 40.9267 12.9229
805 1 5.45333 37.8131 15.5485
810 1 4.5479 39.3535 12.948
6978 2 6.36569 39.3702 14.2354
7001 2 3.63964 40.9435 14.2105
3926 1 10.9096 37.8131 15.5485
777 1 8.18347 39.3867 15.5243
780 1 10.0041 39.3535 12.948
808 1 7.27808 40.9267 12.9229
6979 2 9.09588 40.9435 14.2105
792 1 2.73158 42.5328 15.4736
838 1 0.00123653 40.9599 15.4993
7002 2 0.91368 42.5165 14.1849
840 1 1.82614 44.0726 12.8709
807 1 5.45747 40.9599 15.4993
809 1 4.55208 42.4997 12.8972
6971 2 6.36992 42.5165 14.1849
7004 2 3.64403 44.0894 14.1588
776 1 8.18782 42.5328 15.4736
779 1 10.0083 42.4997 12.8972
811 1 7.28238 44.0726 12.8709
6969 2 9.10027 44.0894 14.1588
791 1 2.7363 45.6778 15.4203
839 1 0.0057865 44.1054 15.4472
6991 2 0.918199 45.6621 14.1322
841 1 1.83059 47.2183 12.8172
830 1 0.0106395 47.25 15.393
790 1 5.46202 44.1054 15.4472
796 1 4.55647 45.6455 12.8442
6970 2 6.37444 45.6621 14.1322
6989 2 3.64865 47.2346 14.1052
793 1 5.46688 47.25 15.393
773 1 8.19254 45.6778 15.4203
778 1 10.0127 45.6455 12.8442
6972 2 9.10489 47.2346 14.1052
794 1 7.28683 47.2183 12.8172
832 1 1.83506 50.3642 12.7629
784 1 2.74125 48.822 15.3653
6990 2 0.922888 48.8072 14.078
831 1 0.015647 50.3939 15.3375
795 1 4.56095 48.7912 12.7901
6964 2 6.37913 48.8072 14.078
6992 2 3.65337 50.3797 14.0508
782 1 5.47189 50.3939 15.3375
797 1 7.2913 50.3642 12.7629
772 1 8.19749 48.822 15.3653
775 1 10.0172 48.7912 12.7901
6962 2 9.10961 50.3797 14.0508
833 1 1.83946 53.5109 12.7095
6987 2 0.927614 51.9523 14.0237
783 1 2.74628 51.9659 15.3098
829 1 0.0206578 53.538 15.2823
6963 2 6.38385 51.9523 14.0237
788 1 4.5654 51.9374 12.736
6985 2 3.65808 53.5251 13.997
785 1 5.4769 53.538 15.2823
6965 2 9.11431 53.5251 13.997
774 1 10.0216 51.9374 12.736
770 1 8.20252 51.9659 15.3098
786 1 7.2957 53.5109 12.7095
6986 2 0.932274 55.0982 13.9709
781 1 2.75125 55.1103 15.2554
1239 1 1.8437 56.6587 12.6586
1238 1 0.0255787 56.6829 15.2293
6961 2 6.38851 55.0982 13.9709
787 1 4.56972 55.0846 12.6836
1189 1 5.48182 56.6829 15.2293
7428 2 3.66268 56.6715 13.9456
1204 1 7.29994 56.6587 12.6586
771 1 10.026 55.0846 12.6836
769 1 8.20749 55.1103 15.2554
7385 2 9.11892 56.6715 13.9456
7343 2 1.81469 37.8303 16.8358
1150 1 0.906027 39.4213 18.1012
1152 1 3.63216 37.8473 18.1251
7330 2 4.54479 39.4041 16.8118
1127 1 6.36227 39.4213 18.1012
7332 2 7.27093 37.8303 16.8358
1126 1 9.0884 37.8473 18.1251
7284 2 10.001 39.4041 16.8118
7344 2 1.81879 40.9776 16.787
1149 1 0.910436 42.5678 18.0509
1148 1 3.63628 40.9948 18.0765
7329 2 4.54914 42.5506 16.7615
1123 1 6.36667 42.5678 18.0509
7328 2 7.27502 40.9776 16.787
1128 1 9.09252 40.9948 18.0765
7283 2 10.0054 42.5506 16.7615
7340 2 1.82337 44.1233 16.7353
1143 1 0.915403 45.7123 17.9976
7322 2 4.55394 45.6956 16.7086
1122 1 6.37164 45.7123 17.9976
1151 1 3.64097 44.1403 18.0246
7331 2 7.27961 44.1233 16.7353
1121 1 9.09721 44.1403 18.0246
7282 2 10.0102 45.6956 16.7086
7341 2 1.82837 47.2675 16.6813
1142 1 0.920813 48.8551 17.9419
7304 2 2.73825 48.8742 19.2306
7321 2 4.55909 48.8393 16.6536
1111 1 6.37705 48.8551 17.9419
1141 1 3.64618 47.2839 17.97
1124 1 9.10242 47.2839 17.97
7272 2 8.19449 48.8742 19.2306
7275 2 10.0153 48.8393 16.6536
7320 2 7.2846 47.2675 16.6813
7336 2 1.83363 50.4108 16.6258
7335 2 0.0130824 50.4448 19.2021
1136 1 0.926487 51.9967 17.8849
7303 2 2.74424 52.0151 19.1734
1110 1 6.38273 51.9967 17.8849
1144 1 3.65175 50.426 17.9134
7302 2 5.46932 50.4448 19.2021
7308 2 4.56443 51.9822 16.5979
7323 2 7.28987 50.4108 16.6258
1109 1 9.10799 50.426 17.9134
7258 2 8.20048 52.0151 19.1734
7274 2 10.0207 51.9822 16.5979
7337 2 1.839 53.5537 16.5702
7333 2 0.0192089 53.5851 19.1447
1135 1 0.932242 55.1381 17.8282
7293 2 2.75046 55.1551 19.1163
7751 2 1.84436 56.697 16.5165
1093 1 6.38848 55.1381 17.8282
1134 1 3.65748 53.5674 17.8564
7305 2 5.47545 53.5851 19.1447
7307 2 4.5698 55.1252 16.543
1112 1 9.11372 53.5674 17.8564
7257 2 8.20669 55.1551 19.1163
7259 2 10.026 55.1252 16.543
7306 2 7.29524 53.5537 16.5702
7740 2 7.3006 56.697 16.5165
7326 2 2.72339 39.4398 19.3887
1146 1 1.81058 37.8834 20.702
7314 2 0.901544 39.4777 21.9659
7324 2 3.62793 37.9024 21.989
7325 2 5.44961 37.8654 19.4123
1119 1 4.54056 39.4581 20.6785
7278 2 6.35778 39.4777 21.9659
1125 1 7.26682 37.8834 20.702
7281 2 8.17963 39.4398 19.3887
1068 1 9.99679 39.4581 20.6785
7277 2 9.08417 37.9024 21.989
10606 2 10.9058 37.8654 19.4123
7318 2 2.7277 42.5869 19.339
1147 1 1.81448 41.0321 20.6542
7313 2 0.905613 42.6261 21.9171
7312 2 3.63159 41.0523 21.9419
7327 2 5.45358 41.0137 19.3643
1118 1 4.54484 42.6055 20.629
7270 2 6.36185 42.6261 21.9171
1117 1 7.27072 41.0321 20.6542
7280 2 8.18394 42.5869 19.339
1067 1 10.0011 42.6055 20.629
7279 2 9.08783 41.0523 21.9419
10602 2 10.9098 41.0137 19.3643
7339 2 0.00199348 44.1596 19.3129
7317 2 2.73268 45.7317 19.2861
1139 1 1.81915 44.1781 20.6029
7300 2 0.910564 45.7713 21.8647
7315 2 3.63609 44.1991 21.8913
7316 2 5.45823 44.1596 19.3129
1107 1 4.5499 45.75 20.576
7269 2 6.3668 45.7713 21.8647
7273 2 8.18892 45.7317 19.2861
1066 1 10.0061 45.75 20.576
1120 1 7.27539 44.1781 20.6029
7268 2 9.09233 44.1991 21.8913
7334 2 0.00727976 47.3032 19.2586
1140 1 1.82459 47.3211 20.5483
7299 2 0.91641 48.9132 21.809
7319 2 5.46352 47.3032 19.2586
1106 1 4.55569 48.8917 20.5199
7255 2 6.37265 48.9132 21.809
7298 2 3.6415 47.3426 21.8372
1059 1 10.0119 48.8917 20.5199
1105 1 7.28083 47.3211 20.5483
7271 2 9.09774 47.3426 21.8372
1132 1 1.83069 50.4616 20.491
7292 2 0.923037 52.0522 21.7507
1092 1 4.56204 52.0311 20.4616
7254 2 6.37928 52.0522 21.7507
7301 2 3.64776 50.483 21.7801
1058 1 10.0183 52.0311 20.4616
1108 1 7.28693 50.4616 20.491
7253 2 9.104 50.483 21.7801
1133 1 1.83723 53.6003 20.432
7291 2 0.930211 55.1892 21.6911
1091 1 4.56871 55.1693 20.4025
7237 2 6.38645 55.1892 21.6911
7290 2 3.65469 53.6209 21.7209
1043 1 10.025 55.1693 20.4025
1090 1 7.29347 53.6003 20.432
7256 2 9.11093 53.6209 21.7209
1099 1 0.896065 39.5392 25.833
1115 1 2.71843 39.4973 23.256
7310 2 1.80605 37.9417 24.5654
1113 1 3.6229 37.962 25.855
1062 1 6.3523 39.5392 25.833
1114 1 5.44492 37.9216 23.2787
7266 2 4.53562 39.5182 24.543
7276 2 7.26229 37.9417 24.5654
1061 1 9.07914 37.962 25.855
1065 1 8.17467 39.4973 23.256
7212 2 9.99186 39.5182 24.543
4217 1 10.9012 37.9216 23.2787
1098 1 0.899323 42.6908 25.7862
1103 1 2.72234 42.6463 23.2076
7311 2 1.80916 41.0939 24.5196
1097 1 3.62569 41.1155 25.8101
1054 1 6.35556 42.6908 25.7862
1116 1 5.44839 41.0722 23.2322
7265 2 4.53919 42.6686 24.4954
7264 2 7.2654 41.0939 24.5196
1063 1 9.08192 41.1155 25.8101
1064 1 8.17858 42.6463 23.2076
7211 2 9.99542 42.6686 24.4954
4209 1 10.9046 41.0722 23.2322
1084 1 0.90373 45.8382 25.7355
1102 1 2.72725 45.7917 23.1555
7296 2 1.81324 44.2425 24.4702
1100 1 3.62949 44.2651 25.7613
1053 1 6.35997 45.8382 25.7355
1101 1 5.45279 44.2195 23.182
7251 2 4.54381 45.8152 24.444
7267 2 7.26947 44.2425 24.4702
1052 1 9.08572 44.2651 25.7613
1057 1 8.18349 45.7917 23.1555
7210 2 10.0001 45.8152 24.444
4210 1 10.909 44.2195 23.182
1083 1 0.909532 48.9805 25.6805
1088 1 2.73323 48.9331 23.0995
1130 1 0.00199092 47.3629 23.128
7297 2 1.81846 47.3869 24.4169
1082 1 3.63456 47.41 25.7085
1039 1 6.36577 48.9805 25.6805
1104 1 5.45823 47.3629 23.128
7250 2 4.54967 48.9575 24.3887
7249 2 7.2747 47.3869 24.4169
1055 1 9.0908 47.41 25.7085
1056 1 8.18947 48.9331 23.0995
7203 2 10.0059 48.9575 24.3887
1076 1 0.916846 52.1175 25.621
1087 1 2.74019 52.0707 23.0402
1131 1 0.00848331 50.5023 23.0702
7288 2 1.82495 50.527 24.3596
1038 1 6.37308 52.1175 25.621
1085 1 3.64112 50.5497 25.6513
1086 1 5.46472 50.5023 23.0702
7236 2 4.55677 52.0954 24.3297
1037 1 9.09736 50.5497 25.6513
1042 1 8.19643 52.0707 23.0402
7202 2 10.013 52.0954 24.3297
7252 2 7.28119 50.527 24.3596
1075 1 0.925506 55.2493 25.5573
1077 1 2.74787 55.2056 22.9786
1129 1 0.015844 53.6384 23.0095
7289 2 1.83262 53.6628 24.299
1022 1 6.38174 55.2493 25.5573
1074 1 3.64915 53.6839 25.5896
1089 1 5.47208 53.6384 23.0095
7235 2 4.56493 55.2294 24.2679
7234 2 7.28886 53.6628 24.299
7188 2 10.0212 55.2294 24.2679
1040 1 9.10539 53.6839 25.5896
1041 1 8.20411 55.2056 22.9786
1095 1 1.80102 38.0047 28.4303
7262 2 2.71336 39.5613 27.1194
1050 1 4.52997 39.5838 28.4091
7261 2 5.44042 37.9832 27.141
1060 1 7.25726 38.0047 28.4303
1002 1 9.98621 39.5838 28.4091
7209 2 8.1696 39.5613 27.1194
10573 2 10.8967 37.9832 27.141
1096 1 1.80289 41.162 28.3871
7247 2 2.71615 42.7149 27.0734
1049 1 4.53228 42.7392 28.3641
7263 2 5.44275 41.1386 27.0968
1048 1 7.25913 41.162 28.3871
1001 1 9.98852 42.7392 28.3641
7208 2 8.17239 42.7149 27.0734
10558 2 10.899 41.1386 27.0968
1080 1 1.80574 44.3152 28.3402
7246 2 2.72008 45.8641 27.0235
1035 1 4.53577 45.89 28.3153
7245 2 5.44607 44.2901 27.049
1051 1 7.26197 44.3152 28.3402
1000 1 9.99201 45.89 28.3153
7201 2 8.17632 45.8641 27.0235
10559 2 10.9023 44.2901 27.049
1081 1 1.80996 47.4633 28.2893
7232 2 2.72549 49.0082 26.9694
1034 1 4.54085 49.0351 28.2621
7248 2 5.4507 47.4368 26.997
1033 1 7.2662 47.4633 28.2893
993 1 9.99709 49.0351 28.2621
7200 2 8.18172 49.0082 26.9694
10550 2 10.9069 47.4368 26.997
1072 1 1.81601 50.6051 28.2336
7231 2 2.73266 52.1462 26.9105
7287 2 0.000720072 50.578 26.9406
1021 1 4.54796 52.1732 28.2037
7230 2 5.45696 50.578 26.9406
1036 1 7.27225 50.6051 28.2336
992 1 10.0042 52.1732 28.2037
7187 2 8.18889 52.1462 26.9105
1073 1 1.82424 53.7393 28.1723
7221 2 2.74163 55.2783 26.847
7285 2 0.00881195 53.713 26.8793
1020 1 4.55728 55.3035 28.1393
7233 2 5.46505 53.713 26.8793
981 1 10.0135 55.3035 28.1393
1019 1 7.28048 53.7393 28.1723
7186 2 8.19787 55.2783 26.847
1046 1 2.70804 39.6309 30.9836
7239 2 1.79794 38.0724 32.2879
7243 2 0.89133 39.607 29.6945
7260 2 3.61886 38.0268 29.7154
1045 1 5.43585 38.0495 31.004
7194 2 4.52614 39.6551 32.2678
7206 2 6.34757 39.607 29.6945
7204 2 7.25418 38.0724 32.2879
999 1 8.16428 39.6309 30.9836
7164 2 9.98238 39.6551 32.2678
7205 2 9.0751 38.0268 29.7154
4166 1 10.8921 38.0495 31.004
1031 1 2.70917 42.7911 30.9405
7240 2 1.79823 41.237 32.2469
7242 2 0.893086 42.7648 29.6503
7241 2 3.62022 41.1864 29.6728
1047 1 5.43662 41.2114 30.9625
7193 2 4.52672 42.8182 32.2252
7198 2 6.34932 42.7648 29.6503
7192 2 7.25447 41.237 32.2469
998 1 8.16541 42.7911 30.9405
7163 2 9.98296 42.8182 32.2252
7207 2 9.07646 41.1864 29.6728
4150 1 10.8929 41.2114 30.9625
1030 1 2.71133 45.9471 30.8939
7224 2 1.79918 44.3983 32.2028
7228 2 0.895919 45.9182 29.6024
7244 2 3.62246 44.3421 29.6268
1029 1 5.43821 44.3697 30.9177
7180 2 4.52814 45.9773 32.1794
7197 2 6.35216 45.9182 29.6024
7195 2 7.25541 44.3983 32.2028
991 1 8.16756 45.9471 30.8939
7162 2 9.98438 45.9773 32.1794
7196 2 9.0787 44.3421 29.6268
4151 1 10.8945 44.3697 30.9177
1017 1 2.71504 49.0972 30.8433
7225 2 1.8012 47.555 32.155
7227 2 0.9003 49.0659 29.5501
7226 2 3.626 47.4929 29.5768
1032 1 5.44107 47.523 30.8692
7179 2 4.53091 49.131 32.1295
7184 2 6.35654 49.0659 29.5501
7178 2 7.25744 47.555 32.155
990 1 8.17128 49.0972 30.8433
7159 2 9.98715 49.131 32.1295
7199 2 9.08224 47.4929 29.5768
4142 1 10.8973 47.523 30.8692
1016 1 2.72105 52.2396 30.7874
7216 2 1.80491 50.7052 32.1027
7220 2 0.906803 52.2065 29.4926
7229 2 3.63137 50.6372 29.5221
1015 1 5.44583 50.6695 30.8161
7172 2 4.5358 52.2772 32.0743
7183 2 6.36304 52.2065 29.4926
7181 2 7.26115 50.7052 32.1027
980 1 8.17729 52.2396 30.7874
7158 2 9.99203 52.2772 32.0743
7182 2 9.08761 50.6372 29.5221
4143 1 10.9021 50.6695 30.8161
1008 1 2.73014 55.3716 30.7246
7217 2 1.81122 53.8466 32.0442
7219 2 0.91595 55.3385 29.4287
1018 1 5.45329 53.8071 30.757
7171 2 4.54382 55.413 32.012
7173 2 6.37219 55.3385 29.4287
7218 2 3.63915 53.7736 29.4615
7170 2 7.26746 53.8466 32.0442
979 1 8.18638 55.3716 30.7246
7155 2 10.0001 55.413 32.012
7185 2 9.09538 53.7736 29.4615
4141 1 10.9095 53.8071 30.757
1027 1 0.886907 39.6801 33.5559
7190 2 2.70572 39.705 34.8386
1044 1 3.61525 38.096 33.5756
996 1 6.34315 39.6801 33.5559
7189 2 5.43424 38.1196 34.8581
995 1 9.07149 38.096 33.5756
7161 2 8.16195 39.705 34.8386
10502 2 10.8905 38.1196 34.8581
1026 1 0.886775 42.8462 33.5144
7176 2 2.70512 42.8743 34.7974
1025 1 3.6149 41.2635 33.5355
988 1 6.34301 42.8462 33.5144
7191 2 5.43349 41.29 34.8183
997 1 9.07114 41.2635 33.5355
7160 2 8.16136 42.8743 34.7974
10486 2 10.8897 41.29 34.8183
1013 1 0.887329 46.0089 33.4701
7175 2 2.70502 46.0406 34.7533
1028 1 3.61506 44.428 33.4927
987 1 6.34357 46.0089 33.4701
7174 2 5.43311 44.4579 34.7757
986 1 9.0713 44.428 33.4927
7157 2 8.16126 46.0406 34.7533
10487 2 10.8893 44.4579 34.7757
1011 1 3.61613 47.5885 33.4467
1012 1 0.889085 49.1667 33.4223
7168 2 2.70584 49.2027 34.7057
7177 2 5.4334 47.6223 34.73
977 1 6.34532 49.1667 33.4223
7156 2 8.16208 49.2027 34.7057
989 1 9.07237 47.5885 33.4467
10478 2 10.8896 47.6223 34.73
1014 1 3.61878 50.7431 33.3969
7167 2 2.70828 52.3582 34.6534
1007 1 0.892905 52.3173 33.3701
7166 2 5.43491 50.7815 34.6802
976 1 6.34914 52.3173 33.3701
7154 2 8.16451 52.3582 34.6534
975 1 9.07502 50.7431 33.3969
10479 2 10.8911 50.7815 34.6802
1005 1 3.6241 53.8889 33.3419
7165 2 2.71356 55.5034 34.594
1006 1 0.900114 55.4572 33.3118
1004 1 1.79409 53.985 35.9232
7169 2 5.43858 53.9325 34.6248
970 1 6.35635 55.4572 33.3118
968 1 4.52408 55.5619 35.8966
967 1 7.25033 53.985 35.9232
7153 2 8.1698 55.5034 34.594
978 1 9.08034 53.8889 33.3419
10477 2 10.8948 53.9325 34.6248
961 1 9.98032 55.5619 35.8966
7366 2 0.886648 39.7563 37.4063
13577 1 2.70484 39.7827 38.6916
1023 1 1.7958 38.1439 36.1445
7368 2 3.61558 38.1678 37.4256
7355 2 6.34289 39.7563 37.4063
13576 1 5.43402 38.1926 38.7106
984 1 4.52322 39.7309 36.1253
994 1 7.25204 38.1439 36.1445
7354 2 9.07181 38.1678 37.4256
13542 1 8.16107 39.7827 38.6916
966 1 9.97946 39.7309 36.1253
16404 1 10.8903 38.1926 38.7106
7365 2 0.885055 42.9324 37.3659
13573 1 2.70261 42.9627 38.6518
1024 1 1.79443 41.3175 36.1055
7364 2 3.61396 41.3445 37.3864
7352 2 6.34129 42.9324 37.3659
13578 1 5.43186 41.3728 38.6719
983 1 4.52191 42.9037 36.0851
982 1 7.25067 41.3175 36.1055
7356 2 9.0702 41.3445 37.3864
13541 1 8.15885 42.9627 38.6518
965 1 9.97815 42.9037 36.0851
16402 1 10.8881 41.3728 38.6719
7362 2 0.883617 46.1069 37.3228
13572 1 2.70027 46.1424 38.6097
1009 1 1.79322 44.4894 36.0641
7367 2 3.61242 44.5199 37.3447
7351 2 6.33986 46.1069 37.3228
13571 1 5.42957 44.5526 38.631
973 1 4.52086 46.0745 36.0424
985 1 7.24946 44.4894 36.0641
7350 2 9.06866 44.5199 37.3447
13536 1 8.15651 46.1424 38.6097
964 1 9.9771 46.0745 36.0424
16403 1 10.8858 44.5526 38.631
7361 2 0.88257 49.2793 37.2767
13562 1 2.69783 49.3221 38.5655
1010 1 1.79241 47.6588 36.0201
7360 2 3.61114 47.6935 37.3002
7348 2 6.33881 49.2793 37.2767
13574 1 5.42719 47.7322 38.5879
972 1 4.52039 49.2423 35.9971
971 1 7.24865 47.6588 36.0201
7353 2 9.06738 47.6935 37.3002
13535 1 8.15407 49.3221 38.5655
963 1 9.97663 49.2423 35.9971
16400 1 10.8834 47.7322 38.5879
7359 2 0.882367 52.4477 37.2265
13561 1 2.69515 52.5023 38.5192
1003 1 1.79243 50.8247 35.9733
7363 2 3.61044 50.8641 37.2522
7347 2 6.33861 52.4477 37.2265
13560 1 5.42468 50.912 38.5426
969 1 4.52109 52.4058 35.9487
974 1 7.24866 50.8247 35.9733
7346 2 9.06668 50.8641 37.2522
13522 1 8.15139 52.5023 38.5192
962 1 9.97733 52.4058 35.9487
16401 1 10.8809 50.912 38.5426
7358 2 0.883961 55.6091 37.1697
13551 1 2.69123 55.6851 38.4712
7357 2 3.61097 54.0296 37.1992
7345 2 6.3402 55.6091 37.1697
13563 1 5.42163 54.093 38.4953
7349 2 9.06721 54.0296 37.1992
13521 1 8.14747 55.6851 38.4712
16399 1 10.8779 54.093 38.4953
19199 2 1.79838 38.2167 39.9901
19182 2 2.70965 39.8603 42.5319
13569 1 0.888167 39.835 41.2544
13575 1 3.61755 38.2417 41.2736
19186 2 4.52542 39.8082 39.9708
19181 2 5.43897 38.2656 42.5515
13539 1 6.34441 39.835 41.2544
19188 2 7.25462 38.2167 39.9901
13538 1 9.07379 38.2417 41.2736
19137 2 8.16588 39.8603 42.5319
19140 2 9.98166 39.8082 39.9708
22018 2 10.8952 38.2656 42.5515
19200 2 1.79618 41.3998 39.9509
13568 1 0.885415 43.0223 41.2141
19174 2 2.70708 43.0504 42.4906
13567 1 3.61495 41.4285 41.2345
19185 2 4.52315 42.9914 39.9303
19183 2 5.43651 41.4552 42.5116
13533 1 6.34165 43.0223 41.2141
19184 2 7.25242 41.3998 39.9509
13540 1 9.07119 41.4285 41.2345
19136 2 8.16332 43.0504 42.4906
19139 2 9.97939 42.9914 39.9303
22014 2 10.8927 41.4552 42.5116
19196 2 1.79387 44.583 39.9091
13558 1 0.882328 46.2112 41.1715
19173 2 2.70434 46.2423 42.4462
13570 1 3.61204 44.6165 41.1931
19178 2 4.52081 46.1747 39.8872
13532 1 6.33857 46.2112 41.1715
19172 2 5.43385 44.6461 42.4688
19187 2 7.2501 44.583 39.9091
13531 1 9.06828 44.6165 41.1931
19129 2 8.16058 46.2423 42.4462
19138 2 9.97704 46.1747 39.8872
22015 2 10.8901 44.6461 42.4688
19197 2 1.79151 47.7664 39.8646
13557 1 0.878731 49.403 41.1264
19160 2 2.70147 49.4368 42.3983
13556 1 3.60873 47.8066 41.1493
19177 2 4.51848 49.3582 39.841
13519 1 6.33497 49.403 41.1264
19175 2 5.43104 47.8392 42.4228
19176 2 7.24775 47.7664 39.8646
13534 1 9.06497 47.8066 41.1493
19128 2 8.1577 49.4368 42.3983
19131 2 9.97472 49.3582 39.841
22010 2 10.8873 47.8392 42.4228
19192 2 1.78927 50.95 39.8165
13550 1 0.874052 52.6003 41.0787
19159 2 2.69849 52.6351 42.3453
13559 1 3.60471 51.0007 41.1029
13518 1 6.33029 52.6003 41.0787
19158 2 5.42812 51.0354 42.3726
19164 2 4.51639 52.5418 39.7906
19179 2 7.24551 50.95 39.8165
13517 1 9.06095 51.0007 41.1029
19114 2 8.15473 52.6351 42.3453
19130 2 9.97263 52.5418 39.7906
22011 2 10.8844 51.0354 42.3726
19193 2 1.78744 54.1337 39.7632
13549 1 0.866583 55.8088 41.0278
19149 2 2.69515 55.84 42.2845
13548 1 3.59897 54.2025 41.0537
13501 1 6.32282 55.8088 41.0278
19161 2 5.42505 54.2365 42.3161
19163 2 4.51487 55.7255 39.7336
19162 2 7.24367 54.1337 39.7632
13520 1 9.05521 54.2025 41.0537
19113 2 8.15138 55.84 42.2845
19115 2 9.9711 55.7255 39.7336
22009 2 10.8813 54.2365 42.3161
13565 1 1.80268 38.2908 43.8335
19170 2 0.895501 39.9118 45.0898
19180 2 3.62482 38.3143 45.1101
13529 1 4.52948 39.8871 43.8138
19134 2 6.35174 39.9118 45.0898
13537 1 7.25892 38.2908 43.8335
13476 1 9.98571 39.8871 43.8138
19133 2 9.08106 38.3143 45.1101
13566 1 1.79996 41.484 43.7934
19169 2 0.892962 43.1086 45.0469
19168 2 3.62237 41.5099 45.0688
13528 1 4.5266 43.0814 43.7722
19126 2 6.3492 43.1086 45.0469
13527 1 7.2562 41.484 43.7934
13475 1 9.98284 43.0814 43.7722
19135 2 9.07861 41.5099 45.0688
13554 1 1.79691 44.6797 43.7504
19156 2 0.890247 46.3084 45.0004
19171 2 3.61974 44.708 45.0241
13515 1 4.52335 46.279 43.7278
19125 2 6.34649 46.3084 45.0004
13530 1 7.25315 44.6797 43.7504
13474 1 9.97958 46.279 43.7278
19124 2 9.07598 44.708 45.0241
13555 1 1.79341 47.8795 43.7043
19155 2 0.88735 49.5126 44.9494
19154 2 3.61694 47.9098 44.9755
13514 1 4.51952 49.4817 43.68
19111 2 6.34359 49.5126 44.9494
13513 1 7.24964 47.8795 43.7043
13467 1 9.97576 49.4817 43.68
19127 2 9.07318 47.9098 44.9755
13546 1 1.78912 51.086 43.6545
19148 2 0.884132 52.7232 44.8925
19157 2 3.61392 51.1169 44.9219
13500 1 4.51459 52.693 43.6278
19110 2 6.34037 52.7232 44.8925
13516 1 7.24536 51.086 43.6545
13466 1 9.97082 52.693 43.6278
19109 2 9.07016 51.1169 44.9219
13547 1 1.78324 54.3035 43.5996
19147 2 0.879923 55.944 44.8265
19146 2 3.61036 54.332 44.8609
13499 1 4.50741 55.9185 43.5692
19094 2 6.33616 55.944 44.8265
13498 1 7.23948 54.3035 43.5996
13451 1 9.96365 55.9185 43.5692
19112 2 9.0666 54.332 44.8609
13507 1 0.904196 39.9888 48.9239
13525 1 2.71616 39.9386 46.3701
19166 2 1.812 38.3623 47.6661
13523 1 3.63339 38.387 48.9454
13470 1 6.36043 39.9888 48.9239
13524 1 5.44552 38.3393 46.3907
19122 2 4.53903 39.9625 47.6449
19132 2 7.26824 38.3623 47.6661
13469 1 9.08963 38.387 48.9454
13473 1 8.17239 39.9386 46.3701
19074 2 9.99527 39.9625 47.6449
16384 1 10.9018 38.3393 46.3907
13506 1 0.901912 43.1951 48.8779
13511 1 2.71348 43.1393 46.3266
19167 2 1.80978 41.5635 47.6229
13505 1 3.63119 41.5915 48.9014
13462 1 6.35815 43.1951 48.8779
13526 1 5.44297 41.5385 46.3488
19121 2 4.53673 43.1652 47.5999
19120 2 7.26602 41.5635 47.6229
13471 1 9.08743 41.5915 48.9014
13472 1 8.16972 43.1393 46.3266
19073 2 9.99297 43.1652 47.5999
16372 1 10.8992 41.5385 46.3488
13492 1 0.899434 46.4063 48.8275
13510 1 2.7105 46.3444 46.2794
19152 2 1.80741 44.7679 47.5758
13508 1 3.62882 44.8 48.8533
13461 1 6.35567 46.4063 48.8275
13509 1 5.44015 44.7412 46.3035
19107 2 4.53428 46.3718 47.5506
19123 2 7.26365 44.7679 47.5758
13460 1 9.08506 44.8 48.8533
13465 1 8.16674 46.3444 46.2794
19072 2 9.99052 46.3718 47.5506
16373 1 10.8964 44.7412 46.3035
13491 1 0.896663 49.6241 48.7719
13496 1 2.70709 49.5558 46.2277
19153 2 1.80487 47.977 47.5242
13490 1 3.62622 48.0142 48.8004
13447 1 6.3529 49.6241 48.7719
13512 1 5.43698 47.9491 46.2542
19106 2 4.53161 49.5838 47.4963
19105 2 7.2611 47.977 47.5242
13463 1 9.08245 48.0142 48.8004
13464 1 8.16333 49.5558 46.2277
19065 2 9.98785 49.5838 47.4963
16364 1 10.8932 47.9491 46.2542
13484 1 0.893346 52.8507 48.7094
13495 1 2.70292 52.7768 46.1701
19144 2 1.802 51.1924 47.4667
13493 1 3.62322 51.2361 48.7416
13446 1 6.34958 52.8507 48.7094
13494 1 5.43325 51.1649 46.1998
19093 2 4.52842 52.8033 47.4353
19108 2 7.25824 51.1924 47.4667
13445 1 9.07945 51.2361 48.7416
13450 1 8.15915 52.7768 46.1701
19064 2 9.98466 52.8033 47.4353
16365 1 10.8895 51.1649 46.1998
13483 1 0.888939 56.0881 48.6377
13485 1 2.69737 56.0112 46.1035
19145 2 1.79828 54.4169 47.4015
13482 1 3.61945 54.468 48.6749
13432 1 6.34518 56.0881 48.6377
13497 1 5.42848 54.3921 46.1382
19092 2 4.52383 56.0336 47.3653
19091 2 7.25452 54.4169 47.4015
13448 1 9.07569 54.468 48.6749
13449 1 8.15361 56.0112 46.1035
19053 2 9.98006 56.0336 47.3653
16363 1 10.8847 54.3921 46.1382
13503 1 1.82229 38.4335 51.4982
19118 2 2.72748 40.0119 50.1978
19165 2 0.000296542 38.4093 50.2199
13458 1 4.54953 40.0376 51.4756
19117 2 5.45653 38.4093 50.2199
13416 1 10.0058 40.0376 51.4756
13468 1 7.27853 38.4335 51.4982
19071 2 8.18372 40.0119 50.1978
13504 1 1.82051 41.6425 51.4518
19103 2 2.72552 43.2196 50.1503
13457 1 4.5477 43.2484 51.427
19119 2 5.45463 41.6153 50.1746
13415 1 10.0039 43.2484 51.427
13456 1 7.27675 41.6425 51.4518
19070 2 8.18176 43.2196 50.1503
21970 2 10.9109 41.6153 50.1746
13488 1 1.81862 44.8555 51.401
19102 2 2.72341 46.4316 50.0983
13443 1 4.54573 46.464 51.3736
19101 2 5.45261 44.825 50.1249
13459 1 7.27486 44.8555 51.401
21971 2 10.9088 44.825 50.1249
13414 1 10.002 46.464 51.3736
19063 2 8.17965 46.4316 50.0983
13489 1 1.81654 48.0741 51.3449
19089 2 2.72101 49.6493 50.0407
19084 2 0.911153 49.7087 52.5845
13442 1 4.5435 49.6858 51.3146
19104 2 5.45039 48.0396 50.0702
13441 1 7.27278 48.0741 51.3449
19049 2 6.36739 49.7087 52.5845
21962 2 10.9066 48.0396 50.0702
13408 1 9.99974 49.6858 51.3146
19062 2 8.17725 49.6493 50.0407
19079 2 0.90803 52.9361 52.5184
13480 1 1.81407 51.2994 51.2826
19088 2 2.71788 52.8743 49.9765
19086 2 3.63787 51.3216 52.5522
19048 2 6.36427 52.9361 52.5184
13431 1 4.54065 52.9149 51.2488
19087 2 5.4477 51.2608 50.0095
13444 1 7.27031 51.2994 51.2826
21963 2 10.9039 51.2608 50.0095
19047 2 9.09411 51.3216 52.5522
13407 1 9.99689 52.9149 51.2488
19052 2 8.17412 52.8743 49.9765
19077 2 3.63398 54.5523 52.4832
19078 2 0.903107 56.17 52.4467
13481 1 1.81066 54.5324 51.2131
19080 2 2.71306 56.1083 49.9046
19042 2 6.35935 56.17 52.4467
13430 1 4.53638 56.1516 51.1755
19090 2 5.44389 54.4901 49.9416
13429 1 7.2669 54.5324 51.2131
19050 2 9.09022 54.5523 52.4832
21961 2 10.9001 54.4901 49.9416
13400 1 9.99262 56.1516 51.1755
19051 2 8.16929 56.1083 49.9046
13454 1 2.73936 40.0845 54.0259
13502 1 0.0119249 38.4787 54.0496
19095 2 1.83544 38.4995 55.3233
19099 2 0.916794 40.0597 52.749
13453 1 5.46816 38.4787 54.0496
19056 2 4.56293 40.1058 55.2992
19068 2 6.37303 40.0597 52.749
19116 2 3.64569 38.4551 52.7722
13413 1 8.1956 40.0845 54.0259
19038 2 10.0192 40.1058 55.2992
19066 2 7.29168 38.4995 55.3233
19067 2 9.10192 38.4551 52.7722
13439 1 2.73793 43.2989 53.975
13486 1 0.0105366 41.6912 54.001
19096 2 1.83416 41.7129 55.2739
19098 2 0.915173 43.2715 52.6992
13455 1 5.46677 41.6912 54.001
19055 2 4.56159 43.3208 55.2474
19060 2 6.37141 43.2715 52.6992
19097 2 3.64412 41.6652 52.7247
13412 1 8.19417 43.2989 53.975
19037 2 10.0178 43.3208 55.2474
19054 2 7.2904 41.7129 55.2739
19069 2 9.10036 41.6652 52.7247
13438 1 2.73636 46.5175 53.919
13487 1 0.00905141 44.9076 53.9477
19081 2 1.83271 44.9296 55.2196
19085 2 0.913369 46.4875 52.6446
13437 1 5.46529 44.9076 53.9477
19045 2 4.55999 46.5394 55.1906
19059 2 6.36961 46.4875 52.6446
19100 2 3.64242 44.8789 52.6726
13406 1 8.19259 46.5175 53.919
19036 2 10.0162 46.5394 55.1906
19057 2 7.28895 44.9296 55.2196
19058 2 9.09866 44.8789 52.6726
13427 1 2.73442 49.7413 53.8575
13478 1 0.00733535 48.1287 53.889
19082 2 1.8309 48.1503 55.1603
13440 1 5.46357 48.1287 53.889
19044 2 4.55786 49.7624 55.1288
19083 2 3.64045 48.0974 52.6152
13405 1 8.19066 49.7413 53.8575
19035 2 10.0141 49.7624 55.1288
19043 2 7.28714 48.1503 55.1603
19061 2 9.09669 48.0974 52.6152
19075 2 1.82834 51.3756 55.096
13479 1 0.00507341 51.3552 53.8245
13426 1 2.73167 52.9705 53.7902
19041 2 4.55472 52.9899 55.0621
13425 1 5.46131 51.3552 53.8245
19046 2 7.28458 51.3756 55.096
19034 2 10.011 52.9899 55.0621
13399 1 8.18791 52.9705 53.7902
19076 2 1.82444 54.6053 55.0273
13477 1 0.00161588 54.5871 53.7545
13420 1 2.72723 56.2046 53.7178
19040 2 4.54989 56.2216 54.9918
13428 1 5.45785 54.5871 53.7545
19039 2 7.28068 54.6053 55.0273
19033 2 10.0061 56.2216 54.9918
13398 1 8.18347 56.2046 53.7178
13751 1 1.84869 38.5646 59.1504
19385 2 2.75319 40.1502 57.8489
19392 2 0.0255944 38.5426 57.8738
13435 1 0.929636 40.1296 56.5755
13738 1 4.57637 40.173 59.125
19384 2 5.48183 38.5426 57.8738
13410 1 6.38587 40.1296 56.5755
13452 1 3.65829 38.5223 56.6002
13692 1 10.0326 40.173 59.125
13740 1 7.30492 38.5646 59.1504
19350 2 8.20943 40.1502 57.8489
13409 1 9.11453 38.5223 56.6002
13752 1 1.84779 41.782 59.0984
19381 2 2.75202 43.3675 57.7954
19390 2 0.0245107 41.7585 57.8228
13434 1 0.928502 43.3465 56.5226
13737 1 4.5754 43.3916 59.0706
19386 2 5.48075 41.7585 57.8228
13403 1 6.38474 43.3465 56.5226
13433 1 3.6572 41.7376 56.5497
13691 1 10.0316 43.3916 59.0706
13736 1 7.30403 41.782 59.0984
19349 2 8.20826 43.3675 57.7954
13411 1 9.11344 41.7376 56.5497
13748 1 1.84669 45.0019 59.0415
19380 2 2.75052 46.5877 57.7372
19391 2 0.0232061 44.9772 57.7669
13423 1 0.927151 46.5669 56.4647
13730 1 4.57412 46.6128 59.0113
19379 2 5.47944 44.9772 57.7669
13402 1 6.38339 46.5669 56.4647
13436 1 3.65599 44.9562 56.4943
13690 1 10.0304 46.6128 59.0113
13739 1 7.30293 45.0019 59.0415
19344 2 8.20676 46.5877 57.7372
13401 1 9.11222 44.9562 56.4943
13749 1 1.84516 48.2244 58.98
19370 2 2.74841 49.811 57.6744
19388 2 0.0214501 48.199 57.7063
13422 1 0.925307 49.7912 56.4017
13729 1 4.57224 49.8366 58.9478
19382 2 5.47769 48.199 57.7063
13396 1 6.38155 49.7912 56.4017
13421 1 3.65443 48.1786 56.4338
13683 1 10.0285 49.8366 58.9478
13728 1 7.3014 48.2244 58.98
19343 2 8.20465 49.811 57.6744
13404 1 9.11067 48.1786 56.4338
13744 1 1.84283 51.4493 58.9146
19369 2 2.74528 53.0374 57.608
19389 2 0.0188844 51.4239 57.6416
13419 1 0.922483 53.0191 56.3342
13716 1 4.56934 53.0625 58.8809
19368 2 5.47512 51.4239 57.6416
13395 1 6.37872 53.0191 56.3342
13424 1 3.65218 51.4047 56.3684
13682 1 10.0256 53.0625 58.8809
13731 1 7.29907 51.4493 58.9146
19330 2 8.20152 53.0374 57.608
13394 1 9.10841 51.4047 56.3684
13745 1 1.83925 54.676 58.8468
19359 2 2.74068 56.266 57.5397
19387 2 0.0150633 54.6515 57.5739
13418 1 0.918004 56.2498 56.2638
13715 1 4.565 56.2897 58.8127
19371 2 5.4713 54.6515 57.5739
13393 1 6.37424 56.2498 56.2638
13417 1 3.64861 54.6342 56.2992
13667 1 10.0212 56.2897 58.8127
13714 1 7.29549 54.676 58.8468
19329 2 8.19692 56.266 57.5397
13397 1 9.10485 54.6342 56.2992
13734 1 2.76692 40.2149 61.6749
13750 1 0.0391918 38.6056 61.7008
19377 2 0.943621 40.1931 60.3986
13733 1 5.49543 38.6056 61.7008
19347 2 6.39986 40.1931 60.3986
19383 2 3.67221 38.5844 60.4242
13689 1 8.22316 40.2149 61.6749
19346 2 9.12845 38.5844 60.4242
13726 1 2.76598 43.4347 61.6194
13746 1 0.0383648 41.8246 61.6477
19376 2 0.942525 43.412 60.3439
13735 1 5.4946 41.8246 61.6477
19341 2 6.39876 43.412 60.3439
19375 2 3.67123 41.8023 60.3718
13688 1 8.22222 43.4347 61.6194
19348 2 9.12746 41.8023 60.3718
13725 1 2.76467 46.656 61.5594
13747 1 0.0372709 45.0451 61.5899
19366 2 0.941047 46.6329 60.2847
13724 1 5.49351 45.0451 61.5899
19340 2 6.39729 46.6329 60.2847
19378 2 3.66997 45.0222 60.3148
13681 1 8.22091 46.656 61.5594
19339 2 9.12621 45.0222 60.3148
13712 1 2.76271 49.8787 61.4959
13742 1 0.0356716 48.2672 61.528
19365 2 0.938916 49.8558 60.2217
13727 1 5.49191 48.2672 61.528
19327 2 6.39515 49.8558 60.2217
19364 2 3.6682 48.2441 60.2536
13680 1 8.21895 49.8787 61.4959
19342 2 9.12444 48.2441 60.2536
13711 1 2.75978 53.1023 61.43
13743 1 0.0332635 51.4904 61.4631
19358 2 0.935815 53.0802 60.156
13710 1 5.4895 51.4904 61.4631
19326 2 6.39205 53.0802 60.156
19367 2 3.66562 51.4678 60.1891
13666 1 8.21602 53.1023 61.43
19325 2 9.12186 51.4678 60.1891
13701 1 2.75567 56.326 61.3639
13741 1 0.0297566 54.7142 61.3968
19357 2 0.931505 56.3055 60.0897
13713 1 5.486 54.7142 61.3968
19309 2 6.38774 56.3055 60.0897
19356 2 3.66194 54.6928 60.1228
13665 1 8.2119 56.326 61.3639
19328 2 9.11818 54.6928 60.1228
13722 1 0.957378 40.2558 64.2256
19333 2 2.78081 40.2758 65.4986
19372 2 0.0531906 38.6654 65.5249
19373 2 1.86269 38.6252 62.9745
13686 1 6.41362 40.2558 64.2256
13732 1 3.68591 38.6458 64.2519
19332 2 5.50943 38.6654 65.5249
19337 2 4.59035 40.2348 62.9485
13685 1 9.14215 38.6458 64.2519
19281 2 8.23705 40.2758 65.4986
19284 2 10.0466 40.2348 62.9485
19345 2 7.31893 38.6252 62.9745
13721 1 0.956383 43.4763 64.1695
19319 2 2.77962 43.4967 65.4428
19360 2 0.0521366 41.8862 65.4712
19374 2 1.86171 41.8447 62.9213
13678 1 6.41262 43.4763 64.1695
13720 1 3.68504 41.8659 64.1981
19334 2 5.50838 41.8862 65.4712
19336 2 4.58924 43.4548 62.893
13687 1 9.14128 41.8659 64.1981
19280 2 8.23585 43.4967 65.4428
19283 2 10.0455 43.4548 62.893
19335 2 7.31795 41.8447 62.9213
13708 1 0.954967 46.6974 64.1093
19318 2 2.77798 46.7178 65.3831
19361 2 0.0507464 45.1072 65.4134
19362 2 1.86042 45.0653 62.8637
13677 1 6.41121 46.6974 64.1093
13723 1 3.68386 45.0868 64.1399
19317 2 5.50698 45.1072 65.4134
19323 2 4.58771 46.6759 62.8334
13676 1 9.1401 45.0868 64.1399
19273 2 8.23422 46.7178 65.3831
19282 2 10.0439 46.6759 62.8334
19338 2 7.31666 45.0653 62.8637
13707 1 0.952902 49.9188 64.0461
19304 2 2.77573 49.9386 65.3207
19352 2 0.0488232 48.3282 65.3522
19363 2 1.8586 48.2868 62.8023
13663 1 6.40914 49.9188 64.0461
13706 1 3.68215 48.3081 64.078
19320 2 5.50506 48.3282 65.3522
19322 2 4.58553 49.8978 62.7706
13679 1 9.13839 48.3081 64.078
19272 2 8.23196 49.9386 65.3207
19275 2 10.0418 49.8978 62.7706
19321 2 7.31483 48.2868 62.8023
13700 1 0.949981 53.14 63.9814
19303 2 2.77272 53.1586 65.2571
19353 2 0.0462035 51.5487 65.289
19354 2 1.85601 51.509 62.7383
13662 1 6.40622 53.14 63.9814
13709 1 3.67968 51.5295 64.0138
19302 2 5.50244 51.5487 65.289
19308 2 4.58248 53.1201 62.7059
13661 1 9.13592 51.5295 64.0138
19258 2 8.22896 53.1586 65.2571
19274 2 10.0387 53.1201 62.7059
19324 2 7.31224 51.509 62.7383
13699 1 0.946104 56.3603 63.9172
19293 2 2.76891 56.3773 65.1943
19351 2 0.042791 54.7681 65.2255
19355 2 1.85247 54.7311 62.6735
13646 1 6.40234 56.3603 63.9172
13698 1 3.67628 54.7503 63.9491
19305 2 5.49903 54.7681 65.2255
19307 2 4.57844 56.342 62.6414
13664 1 9.13252 54.7503 63.9491
19257 2 8.22514 56.3773 65.1943
19259 2 10.0347 56.342 62.6414
19306 2 7.3087 54.7311 62.6735
13718 1 1.87613 38.6855 66.8047
19315 2 0.971157 40.3165 68.048
13674 1 4.60379 40.2961 66.7782
19278 2 6.4274 40.3165 68.048
19331 2 3.69984 38.7053 68.0744
13626 1 10.06 40.2961 66.7782
13684 1 7.33237 38.6855 66.8047
19277 2 9.15608 38.7053 68.0744
13719 1 1.87514 41.9067 66.7506
19314 2 0.969817 43.5384 67.9922
13673 1 4.60266 43.5172 66.7219
19270 2 6.42606 43.5384 67.9922
19313 2 3.69865 41.9275 68.0206
13625 1 10.0589 43.5172 66.7219
13672 1 7.33138 41.9067 66.7506
19279 2 9.15489 41.9275 68.0206
13704 1 1.87383 45.1277 66.6923
19300 2 0.968038 46.7594 67.9328
13654 1 2.79002 46.7788 69.2203
13703 1 0.0628125 45.1687 69.2505
13659 1 4.6011 46.738 66.6619
19269 2 6.42428 46.7594 67.9328
19316 2 3.69712 45.149 67.9629
13653 1 5.51905 45.1687 69.2505
13624 1 10.0573 46.738 66.6619
13675 1 7.33007 45.1277 66.6923
19268 2 9.15335 45.149 67.9629
13615 1 8.24626 46.7788 69.2203
13705 1 1.87197 48.3481 66.6308
19299 2 0.965658 49.9792 67.8711
13641 1 2.78776 49.9976 69.1583
13694 1 0.0608268 48.3884 69.1895
13658 1 4.59893 49.9581 66.5993
19255 2 6.4219 49.9792 67.8711
19298 2 3.69504 48.3695 67.9021
13656 1 5.51707 48.3884 69.1895
13617 1 10.0552 49.9581 66.5993
13657 1 7.32821 48.3481 66.6308
19271 2 9.15128 48.3695 67.9021
13614 1 8.244 49.9976 69.1583
13696 1 1.86945 51.5677 66.5675
19292 2 0.962657 53.1971 67.8086
13640 1 2.78491 53.2143 69.0959
13695 1 0.0582726 51.6063 69.127
13645 1 4.59602 53.1769 66.5357
19254 2 6.4189 53.1971 67.8086
19301 2 3.69236 51.5884 67.8398
13639 1 5.51451 51.6063 69.127
13616 1 10.0523 53.1769 66.5357
13660 1 7.32568 51.5677 66.5675
19253 2 9.14859 51.5884 67.8398
13604 1 8.24115 53.2143 69.0959
13697 1 1.86616 54.7857 66.5042
19291 2 0.958996 56.4127 67.7474
13632 1 2.78145 56.4283 69.0349
13693 1 0.0551379 54.8217 69.0652
13644 1 4.59236 56.394 66.4732
19240 2 6.41523 56.4127 67.7474
19290 2 3.68903 54.8052 67.7777
13642 1 5.51138 54.8217 69.0652
13605 1 10.0486 56.394 66.4732
13643 1 7.3224 54.7857 66.5042
19256 2 9.14527 54.8052 67.7777
13603 1 8.23769 56.4283 69.0349
13651 1 0.977284 40.3767 71.9113
13670 1 2.793 40.3365 69.3361
13717 1 0.0654366 38.7252 69.3625
19311 2 1.89006 38.7448 70.62
13620 1 6.43352 40.3767 71.9113
13668 1 3.706 38.7648 71.9378
13669 1 5.52168 38.7252 69.3625
19266 2 4.61754 40.3569 70.5937
13619 1 9.16224 38.7648 71.9378
13623 1 8.24924 40.3365 69.3361
19224 2 10.0738 40.3569 70.5937
19276 2 7.3463 38.7448 70.62
13650 1 0.975955 43.5993 71.8555
13655 1 2.79171 43.5583 69.28
13702 1 0.0642782 41.9475 69.3085
19312 2 1.88873 41.9686 70.5663
13612 1 6.43219 43.5993 71.8555
13649 1 3.70477 41.9882 71.8839
13671 1 5.52052 41.9475 69.3085
19265 2 4.61607 43.58 70.538
13621 1 9.16101 41.9882 71.8839
13622 1 8.24795 43.5583 69.28
19223 2 10.0723 43.58 70.538
19264 2 7.34496 41.9686 70.5663
13637 1 0.974315 46.8199 71.7962
19296 2 1.88706 45.191 70.5088
13611 1 6.43055 46.8199 71.7962
13652 1 3.7033 45.2099 71.8262
19251 2 4.61417 46.8015 70.479
13610 1 9.15954 45.2099 71.8262
19222 2 10.0704 46.8015 70.479
19267 2 7.3433 45.191 70.5088
13636 1 0.972309 50.0376 71.7339
19297 2 1.88488 48.4113 70.4486
13601 1 6.42855 50.0376 71.7339
13635 1 3.70148 48.4291 71.7654
19250 2 4.61164 50.0205 70.4179
13613 1 9.15772 48.4291 71.7654
19216 2 10.0679 50.0205 70.4179
19249 2 7.34112 48.4113 70.4486
13631 1 0.969644 53.252 71.673
19288 2 1.88213 51.629 70.387
13600 1 6.42588 53.252 71.673
13638 1 3.69916 51.6452 71.7035
19239 2 4.6087 53.2366 70.3564
13599 1 9.1554 51.6452 71.7035
19215 2 10.0649 53.2366 70.3564
19252 2 7.33837 51.629 70.387
13630 1 0.966524 56.463 71.6133
19289 2 1.87889 54.8434 70.326
13594 1 6.42276 56.463 71.6133
13629 1 3.69626 54.858 71.6429
19238 2 4.60517 56.4493 70.2962
13602 1 9.15249 54.858 71.6429
19208 2 10.0614 56.4493 70.2962
19237 2 7.33513 54.8434 70.326
13647 1 1.83243 38.8061 74.5898
19243 2 0.967177 40.4359 75.6017
19262 2 2.80582 40.3972 73.1257
19310 2 0.0783921 38.7841 73.1519
13608 1 4.56048 40.4178 74.5637
19218 2 6.42342 40.4359 75.6017
19260 2 3.69581 38.8225 75.6275
19261 2 5.53463 38.7841 73.1519
13590 1 10.0167 40.4178 74.5637
13618 1 7.28867 38.8061 74.5898
19217 2 9.15205 38.8225 75.6275
19221 2 8.26206 40.3972 73.1257
13648 1 1.83239 42.029 74.5365
19242 2 0.966159 43.6609 75.5475
19247 2 2.80426 43.6221 73.0706
19294 2 0.0769569 42.0099 73.0986
13607 1 4.56062 43.6397 74.5085
19211 2 6.4224 43.6609 75.5475
19241 2 3.69479 42.0487 75.575
19263 2 5.5332 42.0099 73.0986
13589 1 10.0169 43.6397 74.5085
13606 1 7.28863 42.029 74.5365
19219 2 9.15103 42.0487 75.575
19220 2 8.2605 43.6221 73.0706
13633 1 1.83269 45.2498 74.4797
19231 2 0.964964 46.8826 75.4909
19246 2 2.80232 46.8443 73.0124
19295 2 0.0752141 45.2336 73.0418
13597 1 4.56103 46.8591 74.4504
19210 2 6.4212 46.8826 75.4909
19244 2 3.69371 45.2722 75.5195
19245 2 5.53145 45.2336 73.0418
13588 1 10.0173 46.8591 74.4504
13609 1 7.28893 45.2498 74.4797
19209 2 9.14994 45.2722 75.5195
19214 2 8.25855 46.8443 73.0124
13634 1 1.83325 48.4677 74.4206
19230 2 0.9635 50.1004 75.4335
19235 2 2.79966 50.063 72.9524
19286 2 0.0729949 48.4542 72.9825
13596 1 4.56185 50.0749 74.3904
19204 2 6.41974 50.1004 75.4335
19229 2 3.69242 48.492 75.4622
19248 2 5.52923 48.4542 72.9825
13587 1 10.0181 50.0749 74.3904
13595 1 7.28949 48.4677 74.4206
19212 2 9.14866 48.492 75.4622
19213 2 8.2559 50.063 72.9524
13627 1 1.83386 51.6812 74.3602
19227 2 0.961791 53.3134 75.3741
19234 2 2.79684 53.2775 72.8918
19287 2 0.0702267 51.6707 72.9221
13593 1 4.5622 53.2868 74.3298
19203 2 6.41803 53.3134 75.3741
19232 2 3.69083 51.7075 75.4037
19233 2 5.52647 51.6707 72.9221
13586 1 10.0184 53.2868 74.3298
13598 1 7.2901 51.6812 74.3602
19202 2 9.14706 51.7075 75.4037
19207 2 8.25308 53.2775 72.8918
13628 1 1.8343 54.8914 74.2997
19226 2 0.959789 56.5212 75.3163
19228 2 2.79342 56.4876 72.8326
19285 2 0.0670713 54.8831 72.8619
13592 1 4.56262 56.4952 74.2703
19201 2 6.41603 56.5212 75.3163
19225 2 3.68895 54.918 75.3449
19236 2 5.52331 54.8831 72.8619
13585 1 10.0189 56.4952 74.2703
13591 1 7.29054 54.8914 74.2997
19205 2 9.14519 54.918 75.3449
19206 2 8.24966 56.4876 72.8326
7545 2 0.927106 58.1016 -1.46014
7553 2 2.75303 58.0786 -3.95682
1344 1 1.86117 59.684 -2.92152
7558 2 0.0266502 59.664 -3.97549
1330 1 4.58626 58.0998 -2.90239
7515 2 6.38334 58.1016 -1.46014
7543 2 3.65626 59.6853 -1.47934
7554 2 5.48289 59.664 -3.97549
1284 1 10.0425 58.0998 -2.90239
7518 2 8.20926 58.0786 -3.95682
1328 1 7.31741 59.684 -2.92152
7516 2 9.1125 59.6853 -1.47934
7544 2 0.929155 61.27 -1.49718
7549 2 2.75644 61.2504 -3.99285
1340 1 1.86666 62.8547 -2.95558
7559 2 0.0298943 62.8377 -4.00876
1329 1 4.59213 61.269 -2.93929
7509 2 6.38539 61.27 -1.49718
7546 2 3.65824 62.8554 -1.51355
7547 2 5.48613 62.8377 -4.00876
1283 1 10.0484 61.269 -2.93929
7517 2 8.21268 61.2504 -3.99285
1331 1 7.3229 62.8547 -2.95558
7507 2 9.11448 62.8554 -1.51355
7534 2 0.93104 64.4417 -1.5283
7548 2 2.75948 64.4259 -4.02312
1341 1 1.87125 66.0278 -2.98322
7556 2 0.0326847 66.0147 -4.0358
1322 1 4.5972 64.441 -2.97026
7508 2 6.38728 64.4417 -1.5283
7532 2 3.66 66.0287 -1.54134
7550 2 5.48892 66.0147 -4.0358
1282 1 10.0534 64.441 -2.97026
7512 2 8.21571 64.4259 -4.02312
1320 1 7.32749 66.0278 -2.98322
7510 2 9.11624 66.0287 -1.54134
7533 2 0.932637 67.6164 -1.55254
7538 2 2.76198 67.6043 -4.0467
1336 1 1.87472 69.2029 -3.0036
7557 2 0.034851 69.1943 -4.05575
1321 1 4.60125 67.6152 -2.99436
7495 2 6.38888 67.6164 -1.55254
7535 2 3.6614 69.2046 -1.56184
7536 2 5.49109 69.1943 -4.05575
1275 1 10.0575 67.6152 -2.99436
7511 2 8.21821 67.6043 -4.0467
1323 1 7.33096 69.2029 -3.0036
7493 2 9.11764 69.2046 -1.56184
7526 2 0.933807 70.7932 -1.56915
7537 2 2.76377 70.7849 -4.06287
1337 1 1.87689 72.3792 -3.01609
7555 2 0.0362309 72.3757 -4.06799
1308 1 4.60409 70.7909 -3.01086
7494 2 6.39005 70.7932 -1.56915
7524 2 3.66231 72.3822 -1.57441
7539 2 5.49247 72.3757 -4.06799
1274 1 10.0603 70.7909 -3.01086
7498 2 8.22001 70.7849 -4.06287
1306 1 7.33312 72.3792 -3.01609
7496 2 9.11855 72.3822 -1.57441
7525 2 0.934428 73.9714 -1.57758
7527 2 2.76471 73.9668 -4.07108
1727 1 1.87762 75.5561 -3.02029
7968 2 0.0367055 75.558 -4.07212
1307 1 4.60556 73.9676 -3.01924
7477 2 6.39067 73.9714 -1.57758
7959 2 3.66263 75.5607 -1.57864
7960 2 5.49294 75.558 -4.07212
1259 1 10.0618 73.9676 -3.01924
7497 2 8.22094 73.9668 -4.07108
1716 1 7.33386 75.5561 -3.02029
7922 2 9.11886 75.5607 -1.57864
1314 1 0.930774 58.1431 2.35003
1326 1 2.74932 58.1186 -0.240577
1338 1 0.0225051 59.7013 -0.259899
7542 2 1.83963 59.7107 1.06838
1278 1 6.38701 58.1431 2.35003
7505 2 4.5666 58.1287 1.08796
1312 1 3.66016 59.7242 2.33022
1327 1 5.47874 59.7013 -0.259899
1281 1 8.20556 58.1186 -0.240577
7452 2 10.0228 58.1287 1.08796
1279 1 9.1164 59.7242 2.33022
7503 2 7.29586 59.7107 1.06838
1313 1 0.93325 61.3059 2.3118
1318 1 2.75188 61.2848 -0.277857
1339 1 0.02494 62.869 -0.294315
7530 2 1.84178 62.8768 1.03347
1270 1 6.38949 61.3059 2.3118
7504 2 4.56885 61.2934 1.05017
1315 1 3.66252 62.8882 2.29491
1316 1 5.48118 62.869 -0.294315
1280 1 8.20811 61.2848 -0.277857
7451 2 10.0251 61.2934 1.05017
1268 1 9.11876 62.8882 2.29491
7506 2 7.29802 62.8768 1.03347
1300 1 0.935468 64.4711 2.27968
1317 1 2.75416 64.4538 -0.309148
1334 1 0.0270447 66.0393 -0.322244
7531 2 1.84366 66.0456 1.0051
1269 1 6.39171 64.4711 2.27968
7491 2 4.57088 64.4609 1.01841
1298 1 3.66456 66.0545 2.26623
1319 1 5.48328 66.0393 -0.322244
1273 1 8.2104 64.4538 -0.309148
7450 2 10.0271 64.4609 1.01841
1271 1 9.1208 66.0545 2.26623
7489 2 7.2999 66.0456 1.0051
1299 1 0.93731 67.6384 2.25467
1304 1 2.75605 67.6252 -0.333501
1335 1 0.0286866 69.2116 -0.342833
7522 2 1.84514 69.2166 0.984173
1255 1 6.39355 67.6384 2.25467
7490 2 4.57258 67.6309 0.993662
1301 1 3.66617 69.2227 2.24508
1302 1 5.48492 69.2116 -0.342833
1272 1 8.21229 67.6252 -0.333501
7443 2 10.0288 67.6309 0.993662
1253 1 9.1224 69.2227 2.24508
7492 2 7.30138 69.2166 0.984173
1292 1 0.938641 70.8073 2.23755
1303 1 2.75741 70.7984 -0.350168
1333 1 0.0297362 72.3854 -0.355448
7523 2 1.8461 72.389 0.971339
1254 1 6.39488 70.8073 2.23755
7476 2 4.57382 70.8027 0.976712
1290 1 3.6672 72.3922 2.23212
1305 1 5.48597 72.3854 -0.355448
1258 1 8.21365 70.7984 -0.350168
7442 2 10.0301 70.8027 0.976712
1256 1 9.12343 72.3922 2.23212
7474 2 7.30234 72.389 0.971339
1291 1 0.939342 73.9772 2.22885
1293 1 2.75813 73.9726 -0.358632
1726 1 0.0300979 75.56 -0.359697
7949 2 1.84643 75.5622 0.967015
1237 1 6.39558 73.9772 2.22885
7475 2 4.57447 73.9756 0.968099
1708 1 3.66755 75.5623 2.22775
1709 1 5.48634 75.56 -0.359697
1257 1 8.21436 73.9726 -0.358632
7427 2 10.0307 73.9756 0.968099
1661 1 9.12379 75.5623 2.22775
7921 2 7.30267 75.5622 0.967015
7501 2 2.74987 58.1541 3.64971
1311 1 1.8431 59.7462 4.90528
7528 2 0.0230486 59.7344 3.62971
1266 1 4.56983 58.1667 4.92562
7502 2 5.47929 59.7344 3.62971
1212 1 10.0261 58.1667 4.92562
7449 2 8.20611 58.1541 3.64971
1264 1 7.29934 59.7462 4.90528
7487 2 2.75242 61.3153 3.6111
1296 1 1.8457 62.9068 4.86898
7529 2 0.0254817 62.8968 3.59402
1265 1 4.57255 61.3262 4.88635
7485 2 5.48172 62.8968 3.59402
1211 1 10.0288 61.3262 4.88635
7448 2 8.20865 61.3153 3.6111
1267 1 7.30194 62.9068 4.86898
7486 2 2.75471 64.479 3.57862
1297 1 1.84798 66.0695 4.83948
7520 2 0.0276034 66.0616 3.56501
1251 1 4.57501 64.4879 4.85332
7488 2 5.48384 66.0616 3.56501
1210 1 10.0312 64.4879 4.85332
7441 2 8.21095 64.479 3.57862
1249 1 7.30421 66.0695 4.83948
7472 2 2.75662 67.6447 3.5533
1288 1 1.84977 69.2338 4.81771
7521 2 0.0292758 69.2281 3.54359
1250 1 4.57706 67.6515 4.82758
7470 2 5.48551 69.2281 3.54359
1203 1 10.0333 67.6515 4.82758
7440 2 8.21286 67.6447 3.5533
1252 1 7.30601 69.2338 4.81771
7471 2 2.75802 70.8119 3.53596
1289 1 1.85093 72.3992 4.80436
7519 2 0.0303543 72.396 3.53046
1236 1 4.57856 70.8164 4.80995
7473 2 5.48659 72.396 3.53046
1202 1 10.0348 70.8164 4.80995
7426 2 8.21426 70.8119 3.53596
1234 1 7.30717 72.3992 4.80436
7461 2 2.75875 73.9801 3.52714
1694 1 1.85134 75.5652 4.79986
7948 2 0.0307277 75.5644 3.52603
1235 1 4.57935 73.9822 4.80099
7908 2 5.48697 75.5644 3.52603
1188 1 10.0356 73.9822 4.80099
7425 2 8.21499 73.9801 3.52714
1660 1 7.30757 75.5652 4.79986
1262 1 2.75253 58.1896 7.496
7483 2 0.932825 58.178 6.21569
1294 1 0.0259275 59.7676 7.475
7480 2 1.84534 59.7778 8.76226
7434 2 4.57183 58.2006 8.78347
7446 2 6.38906 58.178 6.21569
1263 1 5.48217 59.7676 7.475
7481 2 3.66239 59.7567 6.19514
1209 1 8.20877 58.1896 7.496
7392 2 10.0281 58.2006 8.78347
7432 2 7.30158 59.7778 8.76226
7447 2 9.11862 59.7567 6.19514
1247 1 2.7555 61.3461 7.45545
7482 2 0.935649 61.336 6.17602
1295 1 0.0287651 62.925 7.43751
7464 2 1.84839 62.9336 8.72437
7433 2 4.57502 61.3555 8.74251
7438 2 6.39189 61.336 6.17602
1245 1 5.485 62.925 7.43751
7484 2 3.66508 62.9158 6.15847
1208 1 8.21174 61.3461 7.45545
7391 2 10.0313 61.3555 8.74251
7435 2 7.30463 62.9336 8.72437
7436 2 9.12132 62.9158 6.15847
1246 1 2.75817 64.5044 7.42133
7468 2 0.938179 64.4961 6.14264
1286 1 0.0312353 66.0843 7.40704
7465 2 1.85107 66.0911 8.69356
7419 2 4.57791 64.5121 8.70801
7437 2 6.39442 64.4961 6.14264
1248 1 5.48747 66.0843 7.40704
7466 2 3.66741 66.0768 6.12865
1201 1 8.21441 64.5044 7.42133
7390 2 10.0341 64.5121 8.70801
7417 2 7.30731 66.0911 8.69356
7439 2 9.12365 66.0768 6.12865
1232 1 2.7604 67.6644 7.39477
7467 2 0.940282 67.6579 6.11664
1287 1 0.0331698 69.2449 7.38461
7456 2 1.85317 69.25 8.67089
7418 2 4.58032 67.6704 8.68115
7423 2 6.39652 67.6579 6.11664
1230 1 5.48941 69.2449 7.38461
7469 2 3.66924 69.2394 6.10668
1200 1 8.21664 67.6644 7.39477
7384 2 10.0366 67.6704 8.68115
7420 2 7.3094 69.25 8.67089
7421 2 9.12548 69.2394 6.10668
1231 1 2.762 70.8257 7.37665
7460 2 0.94179 70.8212 6.09887
1285 1 0.0343813 72.4066 7.37096
7457 2 1.85447 72.4099 8.65715
7407 2 4.58205 70.8299 8.66287
7422 2 6.39803 70.8212 6.09887
1233 1 5.49062 72.4066 7.37096
7458 2 3.67039 72.4031 6.09328
1187 1 8.21823 70.8257 7.37665
7383 2 10.0383 70.8299 8.66287
7405 2 7.3107 72.4099 8.65715
7424 2 9.12663 72.4031 6.09328
1221 1 2.76279 73.9877 7.36758
7459 2 0.94255 73.9852 6.08994
1693 1 0.034727 75.5687 7.36653
7887 2 1.8548 75.5702 8.65279
7406 2 4.58288 73.99 8.65378
7408 2 6.39879 73.9852 6.08994
1645 1 5.49097 75.5687 7.36653
7907 2 3.67074 75.5673 6.08889
1186 1 8.21903 73.9877 7.36758
7376 2 10.0391 73.99 8.65378
7852 2 7.31104 75.5702 8.65279
7853 2 9.12698 75.5673 6.08889
1243 1 0.935165 58.2115 10.0653
7430 2 2.75443 58.2227 11.3521
7462 2 0.0281923 59.7983 11.3301
1206 1 6.3914 58.2115 10.0653
1241 1 3.66501 59.7879 10.0436
7431 2 5.48443 59.7983 11.3301
7389 2 8.21067 58.2227 11.3521
1207 1 9.12125 59.7879 10.0436
1242 1 0.938557 61.3648 10.0233
7415 2 2.75814 61.3744 11.3096
7463 2 0.0317758 62.9509 11.2907
1224 1 1.85165 62.9591 12.5713
1198 1 6.3948 61.3648 10.0233
1244 1 3.66827 62.9422 10.0047
7413 2 5.48801 62.9509 11.2907
7388 2 8.21438 61.3744 11.3096
1196 1 9.12451 62.9422 10.0047
1195 1 7.30789 62.9591 12.5713
1228 1 0.941647 64.5199 9.98787
7414 2 2.76156 64.5277 11.2737
7454 2 0.0349761 66.1049 11.2587
1225 1 1.85517 66.1116 12.5383
1197 1 6.39789 64.5199 9.98787
1226 1 3.67115 66.098 9.97305
7416 2 5.49121 66.1049 11.2587
1180 1 4.58159 64.5352 12.5538
1178 1 7.31141 66.1116 12.5383
7382 2 8.2178 64.5277 11.2737
1199 1 9.12738 66.098 9.97305
1162 1 10.0378 64.5352 12.5538
1216 1 1.85802 69.2652 12.5141
1227 1 0.944258 67.6765 9.96032
7403 2 2.76447 67.6825 11.2458
7455 2 0.0375261 69.2602 11.2351
1184 1 6.4005 67.6765 9.96032
1229 1 3.67342 69.2552 9.94981
7401 2 5.49376 69.2602 11.2351
1179 1 4.58482 67.6882 12.525
1181 1 7.31425 69.2652 12.5141
7381 2 8.22071 67.6825 11.2458
1182 1 9.12966 69.2552 9.94981
1159 1 10.0411 67.6882 12.525
1220 1 0.946134 70.8341 9.9416
7402 2 2.76657 70.8382 11.2268
1217 1 1.85979 72.4195 12.4995
7453 2 0.0391036 72.4164 11.221
1172 1 4.58718 70.8423 12.5055
1183 1 6.40237 70.8341 9.9416
1218 1 3.67484 72.4132 9.93576
7404 2 5.49534 72.4164 11.221
1158 1 10.0434 70.8423 12.5055
7375 2 8.22281 70.8382 11.2268
1185 1 9.13107 72.4132 9.93576
1170 1 7.31603 72.4195 12.4995
1219 1 0.947028 73.9924 9.93234
7396 2 2.76756 73.9946 11.2175
7886 2 0.0394587 75.5729 11.2166
1623 1 1.86017 75.5742 12.4951
1171 1 4.58829 73.9969 12.496
1173 1 6.40327 73.9924 9.93234
1644 1 3.67518 75.5716 9.93138
7837 2 5.4957 75.5729 11.2166
1155 1 10.0445 73.9969 12.496
7374 2 8.2238 73.9946 11.2175
1589 1 9.13142 75.5716 9.93138
1588 1 7.31641 75.5742 12.4951
1190 1 2.75612 58.2558 15.2041
7411 2 0.936821 58.2452 13.9213
1240 1 1.84778 59.8081 12.6119
1222 1 0.0303997 59.829 15.1803
1194 1 4.57388 58.2332 12.6346
7386 2 6.39306 58.2452 13.9213
1191 1 5.48664 59.829 15.1803
7409 2 3.66717 59.8192 13.8983
1161 1 8.21236 58.2558 15.2041
1164 1 10.0301 58.2332 12.6346
1192 1 7.30402 59.8081 12.6119
7387 2 9.1234 59.8192 13.8983
1176 1 2.7609 61.4027 15.1581
7410 2 0.941234 61.3936 13.8768
1223 1 0.0351173 62.9766 15.1376
1193 1 4.57786 61.3834 12.5907
7379 2 6.39747 61.3936 13.8768
1174 1 5.49136 62.9766 15.1376
7412 2 3.67149 62.9684 13.8571
1160 1 8.21713 61.4027 15.1581
1163 1 10.0341 61.3834 12.5907
7377 2 9.12773 62.9684 13.8571
1175 1 2.76552 64.5509 15.1192
7399 2 0.945418 64.5435 13.8393
1214 1 0.0395667 66.1255 15.1029
7378 2 6.40166 64.5435 13.8393
1177 1 5.49581 66.1255 15.1029
7397 2 3.67546 66.1189 13.8236
1157 1 8.22175 64.5509 15.1192
7380 2 9.1317 66.1189 13.8236
1168 1 2.76968 67.7004 15.089
7398 2 0.949094 67.6946 13.8101
1215 1 0.0433003 69.2754 15.0775
7372 2 6.40533 67.6946 13.8101
7400 2 3.67872 69.2705 13.799
1166 1 5.49954 69.2754 15.0775
1156 1 8.22592 67.7004 15.089
7370 2 9.13496 69.2705 13.799
7395 2 0.951802 70.8466 13.7904
1167 1 2.77282 70.8506 15.0687
1213 1 0.0456728 72.4259 15.0624
1169 1 5.50191 72.4259 15.0624
7393 2 3.68076 72.4228 13.7843
7371 2 6.40804 70.8466 13.7904
7373 2 9.137 72.4228 13.7843
1154 1 8.22905 70.8506 15.0687
7394 2 0.953062 73.999 13.7808
1165 1 2.77428 74.0012 15.0589
1622 1 0.0461424 75.5765 15.058
7369 2 6.4093 73.999 13.7808
1573 1 5.50238 75.5765 15.058
7836 2 3.68117 75.5753 13.78
1153 1 8.23052 74.0012 15.0589
7793 2 9.13741 75.5753 13.78
7750 2 0.0254924 56.7251 19.0884
7734 2 2.7568 58.2952 19.0615
1534 1 0.937995 58.2801 17.7743
7752 2 1.84971 59.8413 16.4668
7738 2 4.57516 58.269 16.491
7733 2 5.48173 56.7251 19.0884
1511 1 6.39423 58.2801 17.7743
1536 1 3.66324 56.709 17.8008
1532 1 3.669 59.8516 17.749
1510 1 9.11948 56.709 17.8008
7689 2 8.21304 58.2952 19.0615
7692 2 10.0314 58.269 16.491
7736 2 7.30594 59.8413 16.4668
1512 1 9.12524 59.8516 17.749
7746 2 0.0319045 59.8657 19.0358
1533 1 0.943792 61.4234 17.7255
7726 2 2.7633 61.4364 19.0118
7748 2 1.85502 62.9869 16.4234
7737 2 4.58049 61.4139 16.4442
7735 2 5.48814 59.8657 19.0358
1507 1 6.40003 61.4234 17.7255
1535 1 3.67484 62.9956 17.7038
7688 2 8.21954 61.4364 19.0118
7691 2 10.0367 61.4139 16.4442
7739 2 7.31125 62.9869 16.4234
1505 1 9.13107 62.9956 17.7038
7747 2 0.0385006 63.0074 18.9897
1527 1 0.949631 64.568 17.6842
7725 2 2.76995 64.5786 18.9698
7749 2 1.8601 66.1337 16.3881
7742 2 0.0451049 66.1501 18.9523
7730 2 4.58573 64.5601 16.4047
1506 1 6.40587 64.568 17.6842
7724 2 5.49474 63.0074 18.9897
1525 1 3.68059 66.1407 17.6671
7727 2 5.50134 66.1501 18.9523
7681 2 8.22619 64.5786 18.9698
7690 2 10.042 64.5601 16.4047
1508 1 9.13683 66.1407 17.6671
7728 2 7.31634 66.1337 16.3881
1526 1 0.955145 67.7135 17.6524
7712 2 2.77632 67.7216 18.9375
7744 2 1.86441 69.2813 16.3624
7743 2 0.0509682 69.2932 18.9254
7729 2 4.59052 67.7074 16.374
1495 1 6.41138 67.7135 17.6524
1528 1 3.68564 69.2865 17.6404
7710 2 5.50721 69.2932 18.9254
7680 2 8.23256 67.7216 18.9375
7683 2 10.0468 67.7074 16.374
7731 2 7.32065 69.2813 16.3624
1493 1 9.14188 69.2865 17.6404
1520 1 0.959464 70.8594 17.6311
7711 2 2.78135 70.8648 18.916
7745 2 1.86717 72.4293 16.3471
7741 2 0.0548349 72.4363 18.9096
1494 1 6.4157 70.8594 17.6311
7716 2 4.59416 70.8553 16.3534
1518 1 3.68895 72.4325 17.6247
7713 2 5.51107 72.4363 18.9096
7666 2 8.23759 70.8648 18.916
7682 2 10.0504 70.8553 16.3534
1496 1 9.14519 72.4325 17.6247
7714 2 7.32341 72.4293 16.3471
1519 1 0.96152 74.0055 17.621
7701 2 2.78376 74.0077 18.906
8159 2 1.86771 75.5775 16.3428
8158 2 0.0555783 75.5792 18.9052
1477 1 6.41776 74.0055 17.621
7715 2 4.59586 74.0034 16.3436
8141 2 5.51182 75.5792 18.9052
1920 1 3.68959 75.5785 17.6203
7665 2 8.24 74.0077 18.906
7667 2 10.0521 74.0034 16.3436
8148 2 7.32394 75.5775 16.3428
1894 1 9.14583 75.5785 17.6203
1530 1 1.84399 56.7383 20.3734
7722 2 0.937741 58.3254 21.6329
7732 2 3.66205 56.7573 21.6616
1503 1 4.57555 58.3075 20.3452
7686 2 6.39398 58.3254 21.6329
1452 1 10.0318 58.3075 20.3452
1509 1 7.30023 56.7383 20.3734
7685 2 9.11829 56.7573 21.6616
1531 1 1.85092 59.877 20.3182
7721 2 0.945684 61.4622 21.5796
1502 1 4.58262 61.4468 20.293
7678 2 6.40192 61.4622 21.5796
7720 2 3.66977 59.8937 21.6054
1451 1 10.0389 61.4468 20.293
1501 1 7.30716 59.877 20.3182
7687 2 9.12601 59.8937 21.6054
1523 1 1.85818 63.017 20.2697
7708 2 0.954171 64.6 21.5346
1491 1 4.59006 64.5874 20.2489
7677 2 6.41041 64.6 21.5346
7723 2 3.67799 63.031 21.5559
1450 1 10.0463 64.5874 20.2489
1504 1 7.31442 63.017 20.2697
7676 2 9.13422 63.031 21.5559
1524 1 1.86571 66.1579 20.2307
7707 2 0.962741 67.7382 21.5006
1516 1 1.87268 69.299 20.2028
1490 1 4.59748 67.7285 20.2153
7663 2 6.41898 67.7382 21.5006
7706 2 3.68664 66.1691 21.5162
1443 1 10.0537 67.7285 20.2153
1489 1 7.32195 66.1579 20.2307
7679 2 9.14288 66.1691 21.5162
1492 1 7.32892 69.299 20.2028
7700 2 0.969843 70.8757 21.4786
1517 1 1.87744 72.4397 20.1866
1476 1 4.60357 70.8694 20.1932
7662 2 6.42608 70.8757 21.4786
7709 2 3.69473 69.3071 21.4881
7698 2 3.70028 72.4441 21.4721
1442 1 10.0598 70.8694 20.1932
7661 2 9.15097 69.3071 21.4881
1474 1 7.33367 72.4397 20.1866
7664 2 9.15652 72.4441 21.4721
7699 2 0.973334 74.0123 21.4685
1914 1 1.87836 75.58 20.1823
1475 1 4.60656 74.0099 20.183
7645 2 6.42957 74.0123 21.4685
8140 2 3.70136 75.5804 21.4678
1427 1 10.0628 74.0099 20.183
1893 1 7.3346 75.58 20.1823
8093 2 9.1576 75.5804 21.4678
1483 1 0.935104 58.3782 25.4917
1499 1 2.75599 58.3395 22.9174
1529 1 0.0237621 56.7726 22.9477
7718 2 1.84119 56.7955 24.2366
1446 1 6.39134 58.3782 25.4917
1497 1 3.65833 56.8139 25.5245
1498 1 5.48 56.7726 22.9477
7674 2 4.57385 58.3613 24.2057
1445 1 9.11457 56.8139 25.5245
1449 1 8.21223 58.3395 22.9174
7620 2 10.0301 58.3613 24.2057
7684 2 7.29743 56.7955 24.2366
1482 1 0.945621 61.5071 25.4292
1487 1 2.76463 61.4741 22.8607
1521 1 0.032104 59.9066 22.8882
7719 2 1.85046 59.927 24.1759
1438 1 6.40186 61.5071 25.4292
1481 1 3.66833 59.9424 25.4596
1500 1 5.48834 59.9066 22.8882
7673 2 4.58354 61.493 24.1478
1447 1 9.12457 59.9424 25.4596
1448 1 8.22087 61.4741 22.8607
7619 2 10.0398 61.493 24.1478
7672 2 7.3067 59.927 24.1759
1468 1 0.957731 64.6376 25.377
1486 1 2.77412 64.6101 22.8132
1522 1 0.0411367 63.042 22.8356
7704 2 1.86067 63.0592 24.122
1437 1 6.41397 64.6376 25.377
1484 1 3.67954 63.0721 25.4014
1485 1 5.49738 63.042 22.8356
7659 2 4.59435 64.6256 24.0991
1436 1 9.13578 63.0721 25.4014
1441 1 8.23036 64.6101 22.8132
7618 2 10.0506 64.6256 24.0991
7675 2 7.31691 63.0592 24.122
1467 1 0.97146 67.7683 25.3401
1472 1 2.78419 67.7464 22.7778
1514 1 0.0510377 66.1783 22.7939
7705 2 1.87203 66.192 24.0796
1423 1 6.4277 67.7683 25.3401
1466 1 3.69258 66.2031 25.3565
1488 1 5.50728 66.1783 22.7939
7658 2 4.60595 67.7582 24.0635
1439 1 9.14882 66.2031 25.3565
1440 1 8.24042 67.7464 22.7778
7611 2 10.0622 67.7582 24.0635
7657 2 7.32827 66.192 24.0796
1460 1 0.984081 70.8961 25.319
1471 1 2.79292 70.8813 22.7556
1515 1 0.0607746 69.3141 22.7651
7696 2 1.8833 69.3239 24.0509
7697 2 1.89137 72.4533 24.0356
1513 1 0.0677279 72.4481 22.7491
1422 1 6.44032 70.8961 25.319
1469 1 3.70629 69.3328 25.3277
1470 1 5.51701 69.3141 22.7651
7644 2 4.61609 70.8889 24.0417
1473 1 5.52397 72.4481 22.7491
1421 1 9.16253 69.3328 25.3277
1426 1 8.24916 70.8813 22.7556
7610 2 10.0723 70.8889 24.0417
7660 2 7.33954 69.3239 24.0509
7642 2 7.34761 72.4533 24.0356
1461 1 2.79734 74.0146 22.7456
1459 1 0.990696 74.0198 25.3106
1913 1 0.0691064 75.5809 22.7449
8126 2 1.89299 75.5809 24.0317
1406 1 6.44693 74.0198 25.3106
1458 1 3.71653 72.4584 25.3135
7643 2 4.62124 74.0172 24.0323
1881 1 3.71865 75.5808 25.31
1882 1 5.52534 75.5809 22.7449
1424 1 9.17277 72.4584 25.3135
1425 1 8.25358 74.0146 22.7456
7596 2 10.0775 74.0172 24.0323
1829 1 9.17489 75.5808 25.31
8092 2 7.34923 75.5809 24.0317
1479 1 1.83455 56.8659 28.1049
7670 2 2.75209 58.4055 26.7806
7717 2 0.0185893 56.8423 26.814
1434 1 4.56844 58.4269 28.0696
7669 2 5.47483 56.8423 26.814
1386 1 10.0247 58.4269 28.0696
1444 1 7.29079 56.8659 28.1049
7617 2 8.20833 58.4055 26.7806
1480 1 1.84641 59.9874 28.0339
7655 2 2.76384 61.5308 26.7166
7702 2 0.0296577 59.9682 26.7478
1433 1 4.58108 61.5481 27.9995
7671 2 5.4859 59.9682 26.7478
1385 1 10.0373 61.5481 27.9995
1432 1 7.30265 59.9874 28.0339
7616 2 8.22008 61.5308 26.7166
1464 1 1.86023 63.1095 27.9679
7654 2 2.77756 64.6569 26.663
7703 2 0.0422788 63.0937 26.688
7636 2 0.959166 64.6961 29.2254
1419 1 4.5965 64.6715 27.9404
7653 2 5.49852 63.0937 26.688
7605 2 6.4154 64.6961 29.2254
7652 2 3.67815 63.1376 29.2537
1384 1 10.0527 64.6715 27.9404
1435 1 7.31647 63.1095 27.9679
7609 2 8.2338 64.6569 26.663
7604 2 9.13439 63.1376 29.2537
1465 1 1.87751 66.234 27.9186
7640 2 2.79331 67.7827 26.6259
7694 2 0.0571825 66.22 26.6422
7635 2 0.980707 67.8129 29.1872
1418 1 4.6155 67.7958 27.9022
7656 2 5.51342 66.22 26.6422
7592 2 6.43695 67.8129 29.1872
7634 2 3.6977 66.2548 29.203
1377 1 10.0717 67.7958 27.9022
1417 1 7.33374 66.234 27.9186
7608 2 8.24954 67.7827 26.6259
7607 2 9.15393 66.2548 29.203
1456 1 1.897 69.3562 27.8917
7639 2 2.80786 70.905 26.6061
7695 2 0.0729758 69.3445 26.614
7628 2 1.00176 70.9241 29.173
1405 1 4.63376 70.9149 27.8853
7638 2 5.52921 69.3445 26.614
7591 2 6.45799 70.9241 29.173
7637 2 3.7201 69.3695 29.1775
1376 1 10.09 70.9149 27.8853
1420 1 7.35324 69.3562 27.8917
7595 2 8.26409 70.905 26.6061
7590 2 9.17634 69.3695 29.1775
1457 1 1.91218 72.4711 27.8825
7629 2 2.8155 74.0226 26.5991
7693 2 0.0847508 72.4643 26.6014
7627 2 1.01288 74.0282 29.1716
1863 1 1.91541 75.5798 27.8808
8125 2 0.0872028 75.5806 26.5985
1404 1 4.64376 74.0257 27.8814
7641 2 5.54099 72.4643 26.6014
7581 2 6.46912 74.0282 29.1716
7626 2 3.7373 72.4766 29.1719
8077 2 5.54344 75.5806 26.5985
8076 2 3.74076 75.5796 29.1709
1365 1 10.1 74.0257 27.8814
1403 1 7.36841 72.4711 27.8825
7594 2 8.27174 74.0226 26.5991
7593 2 9.19354 72.4766 29.1719
1828 1 7.37165 75.5798 27.8808
8021 2 9.197 75.5796 29.1709
1430 1 2.74248 58.4915 30.6532
1478 1 0.0078321 56.9331 30.6901
7647 2 1.82121 56.9761 31.9773
7651 2 0.927792 58.4619 29.3585
1429 1 5.46407 56.9331 30.6901
7602 2 4.55596 58.5356 31.94
7614 2 6.38403 58.4619 29.3585
7668 2 3.64968 56.9012 29.3943
1383 1 8.19872 58.4915 30.6532
7572 2 10.0122 58.5356 31.94
7612 2 7.27745 56.9761 31.9773
7613 2 9.10592 56.9012 29.3943
1415 1 2.75735 61.6021 30.5748
1462 1 0.0215452 60.0475 30.6145
7648 2 1.83549 60.0916 31.9001
7650 2 0.941887 61.5793 29.2865
1431 1 5.47778 60.0475 30.6145
7601 2 4.57236 61.6446 31.8588
7606 2 6.39813 61.5793 29.2865
7649 2 3.66269 60.021 29.3221
1382 1 8.21359 61.6021 30.5748
7571 2 10.0286 61.6446 31.8588
7600 2 7.29173 60.0916 31.9001
7615 2 9.11893 60.021 29.3221
1414 1 2.77679 64.7146 30.5053
1463 1 0.0378612 63.1576 30.5373
7632 2 1.85399 63.1957 31.8186
1413 1 5.4941 63.1576 30.5373
7588 2 4.59401 64.7471 31.7849
1375 1 8.23303 64.7146 30.5053
7570 2 10.0502 64.7471 31.7849
7603 2 7.31023 63.1957 31.8186
1401 1 2.80394 67.83 30.4654
1454 1 0.060907 66.2726 30.4806
7633 2 1.87947 66.2982 31.7593
1416 1 5.51715 66.2726 30.4806
7587 2 4.62381 67.8489 31.7457
1374 1 8.26018 67.83 30.4654
7567 2 10.0801 67.8489 31.7457
7586 2 7.33571 66.2982 31.7593
1400 1 2.8309 70.9369 30.4579
1455 1 0.0890448 69.3856 30.4585
7624 2 1.91232 69.3975 31.7406
1399 1 5.54528 69.3856 30.4585
7580 2 4.65527 70.9427 31.7455
1364 1 8.28714 70.9369 30.4579
7566 2 10.1115 70.9427 31.7455
7589 2 7.36856 69.3975 31.7406
1392 1 2.84513 74.0315 30.4612
1453 1 0.112528 72.4844 30.4605
7625 2 1.93754 72.4879 31.75
1862 1 0.116703 75.5785 30.4605
8055 2 1.94262 75.5789 31.7514
1402 1 5.56877 72.4844 30.4605
7579 2 4.67106 74.0334 31.7521
1813 1 5.57294 75.5785 30.4605
1363 1 8.30137 74.0315 30.4612
7563 2 10.1273 74.0334 31.7521
7578 2 7.39378 72.4879 31.75
8020 2 7.39886 75.5789 31.7514
1411 1 0.912127 58.5806 33.2443
7598 2 2.72357 58.6324 34.5231
1428 1 3.63357 57.0213 33.2794
1407 1 1.79893 57.1357 35.8688
1380 1 6.36837 58.5806 33.2443
7597 2 5.44597 57.0704 34.5603
1368 1 4.5313 58.7044 35.8392
1378 1 7.25517 57.1357 35.8688
1379 1 9.08981 57.0213 33.2794
7569 2 8.1798 58.6324 34.5231
10910 2 10.9022 57.0704 34.5603
1350 1 9.98754 58.7044 35.8392
1410 1 0.929011 61.682 33.1633
7584 2 2.73994 61.7374 34.4345
7630 2 0.00272131 60.1885 34.4814
1408 1 1.80872 60.2669 35.8071
1372 1 6.38525 61.682 33.1633
1409 1 3.64807 60.1338 33.2053
7599 2 5.45896 60.1885 34.4814
1367 1 4.54328 61.8173 35.7697
1366 1 7.26496 60.2669 35.8071
1381 1 9.1043 60.1338 33.2053
7568 2 8.19617 61.7374 34.4345
1349 1 9.99952 61.8173 35.7697
1397 1 0.950216 64.773 33.0769
7583 2 2.76393 64.8167 34.3359
7631 2 0.0236484 63.2796 34.3841
1393 1 1.82579 63.36 35.7307
1371 1 6.40645 64.773 33.0769
1412 1 3.66622 63.2263 33.1181
7582 2 5.47989 63.2796 34.3841
1357 1 4.56209 64.8778 35.6805
1370 1 9.12246 63.2263 33.1181
7565 2 8.22017 64.8167 34.3359
1369 1 7.28203 63.36 35.7307
1348 1 10.0183 64.8778 35.6805
1396 1 0.989487 67.8747 33.031
7576 2 2.80594 67.8882 34.2951
7622 2 0.0576412 66.3535 34.307
1394 1 1.84629 66.4182 35.6397
1361 1 6.44573 67.8747 33.031
1395 1 3.69545 66.3229 33.0492
7585 2 5.51388 66.3535 34.307
1356 1 4.64049 67.9122 35.6341
1373 1 9.15169 66.3229 33.0492
7564 2 8.26218 67.8882 34.2951
1355 1 7.30253 66.4182 35.6397
1347 1 10.0967 67.9122 35.6341
1391 1 1.03548 70.9523 33.047
7575 2 2.85787 70.953 34.327
7623 2 0.107169 69.4165 34.3107
1387 1 1.94368 69.4135 35.6652
1360 1 6.49172 70.9523 33.047
1398 1 3.74106 69.4173 33.0386
7574 2 5.56341 69.4165 34.3107
1353 1 4.69389 70.9553 35.6465
1359 1 9.1973 69.4173 33.0386
7562 2 8.31411 70.953 34.327
1358 1 7.39991 69.4135 35.6652
1346 1 10.1501 70.9553 35.6465
7573 2 2.88386 74.0365 34.3404
1390 1 1.05122 74.0359 33.0503
1388 1 1.97801 72.4956 35.6428
7621 2 0.147565 72.4937 34.336
8054 2 0.155358 75.5803 34.3395
1791 1 1.98096 75.5829 35.6431
1354 1 6.50746 74.0359 33.0503
1389 1 3.77414 72.4929 33.0489
7577 2 5.6038 72.4937 34.336
1352 1 4.70947 74.036 35.6434
1812 1 3.77896 75.5786 33.0496
8005 2 5.6116 75.5803 34.3395
7561 2 8.3401 74.0365 34.3404
1362 1 9.23038 72.4929 33.0489
1351 1 7.43425 72.4956 35.6428
1345 1 10.1657 74.036 35.6434
1763 1 9.2352 75.5786 33.0496
1762 1 7.4372 75.5829 35.6431
7774 2 0.889312 58.7562 37.1011
13937 1 2.6819 58.8762 38.423
7776 2 3.61413 57.1851 37.1374
7763 2 6.34555 58.7562 37.1011
13936 1 5.41597 57.2785 38.4469
7762 2 9.07037 57.1851 37.1374
13902 1 8.13814 58.8762 38.423
16764 1 10.8722 57.2785 38.4469
7773 2 0.900534 61.875 37.01
13933 1 2.65764 62.0905 38.3729
7772 2 3.6228 60.3199 37.0591
7760 2 6.35677 61.875 37.01
13938 1 5.40152 60.4759 38.4007
7764 2 9.07904 60.3199 37.0591
13901 1 8.11388 62.0905 38.3729
16762 1 10.8578 60.4759 38.4007
7770 2 0.928019 64.936 36.8834
13932 1 2.41859 65.5218 38.4405
7759 2 6.38426 64.936 36.8834
7775 2 3.64185 63.4099 36.9452
13931 1 5.35723 63.6978 38.342
7758 2 9.09808 63.4099 36.9452
13896 1 7.87483 65.5218 38.4405
16763 1 10.8135 63.6978 38.342
7769 2 0.963728 67.9048 36.8755
13922 1 2.18635 69.0952 38.3113
7756 2 6.41997 67.9048 36.8755
7768 2 3.64617 66.4256 36.8232
13934 1 4.88959 67.2425 38.3856
7761 2 9.10241 66.4256 36.8232
13895 1 7.64259 69.0952 38.3113
16760 1 10.3458 67.2425 38.3856
7767 2 1.10023 70.9406 36.9049
13921 1 2.18015 72.4261 38.2553
7755 2 6.55647 70.9406 36.9049
7771 2 3.77919 69.3975 36.8782
13920 1 4.9108 70.7838 38.2486
7754 2 9.23543 69.3975 36.8782
13882 1 7.63639 72.4261 38.2553
16761 1 10.367 70.7838 38.2486
7766 2 1.1225 74.0356 36.9216
7753 2 6.57874 74.0356 36.9216
7765 2 3.84221 72.4819 36.9206
13923 1 4.91217 74.0161 38.2495
8184 2 3.84991 75.5863 36.9204
7757 2 9.29845 72.4819 36.9206
16759 1 10.3684 74.0161 38.2495
8170 2 9.30615 75.5863 36.9204
19559 2 1.78627 57.3181 39.7011
19542 2 2.68964 59.0586 42.2107
13929 1 0.85277 59.0391 40.9718
13935 1 3.58888 57.4195 41.0011
19546 2 4.51343 58.9113 39.6654
19541 2 5.4211 57.4469 42.2495
13899 1 6.30901 59.0391 40.9718
19548 2 7.24251 57.3181 39.7011
22378 2 10.8773 57.4469 42.2495
13898 1 9.04511 57.4195 41.0011
19497 2 8.14588 59.0586 42.2107
19500 2 9.96967 58.9113 39.6654
19560 2 1.78437 60.5099 39.6239
13928 1 0.818771 62.3131 40.9083
19534 2 2.67474 62.3088 42.1146
13927 1 3.56787 60.6652 40.9398
19545 2 4.50742 62.1131 39.5794
19543 2 5.41244 60.678 42.1666
13893 1 6.27501 62.3131 40.9083
19544 2 7.24061 60.5099 39.6239
22374 2 10.8687 60.678 42.1666
13900 1 9.02411 60.6652 40.9398
19496 2 8.13098 62.3088 42.1146
19499 2 9.96366 62.1131 39.5794
19556 2 1.7738 63.7371 39.5197
13918 1 0.824525 65.6261 40.7011
19533 2 2.62981 65.6503 41.982
13930 1 3.52938 63.966 40.8638
19538 2 4.46587 65.3741 39.4423
13892 1 6.28076 65.6261 40.7011
19532 2 5.38511 63.9724 42.0544
19547 2 7.23004 63.7371 39.5197
22375 2 10.8413 63.9724 42.0544
13891 1 8.98562 63.966 40.8638
19489 2 8.08604 65.6503 41.982
19498 2 9.92211 65.3741 39.4423
19557 2 1.62074 67.2595 39.3908
13917 1 0.746074 68.9377 40.6462
19520 2 2.55255 68.9887 41.9555
13916 1 3.55423 67.211 40.566
19537 2 4.29449 69.044 39.426
13879 1 6.20231 68.9377 40.6462
19535 2 5.32055 67.313 41.9511
19536 2 7.07698 67.2595 39.3908
22370 2 10.7768 67.313 41.9511
13894 1 9.01047 67.211 40.566
19488 2 8.00879 68.9887 41.9555
19491 2 9.75073 69.044 39.426
19552 2 1.52317 70.7355 39.4664
13910 1 0.635657 72.3188 40.774
19519 2 2.50243 72.3392 42.0099
13919 1 3.40299 70.6285 40.7326
13878 1 6.0919 72.3188 40.774
19518 2 5.25038 70.6687 41.9869
19524 2 4.22953 72.3723 39.493
19539 2 6.97941 70.7355 39.4664
22371 2 10.7066 70.6687 41.9869
13877 1 8.85923 70.6285 40.7326
19474 2 7.95867 72.3392 42.0099
19490 2 9.68577 72.3723 39.493
19553 2 1.49082 74.011 39.5084
13908 1 3.35137 73.9864 40.7881
19521 2 5.22026 73.9971 42.0228
19522 2 6.94706 74.011 39.5084
22369 2 10.6765 73.9971 42.0228
13880 1 8.80761 73.9864 40.7881
13925 1 1.7741 57.539 43.5361
19530 2 0.87247 59.1818 44.7471
19540 2 3.60496 57.5601 44.7888
13889 1 4.4957 59.1663 43.4993
19494 2 6.32871 59.1818 44.7471
13897 1 7.23034 57.539 43.5361
13836 1 9.95194 59.1663 43.4993
19493 2 9.06119 57.5601 44.7888
13926 1 1.76089 60.8012 43.457
19529 2 0.855927 62.4503 44.6489
19528 2 3.59407 60.8116 44.7006
13871 1 2.677 62.5282 45.9201
13888 1 4.48656 62.4433 43.3967
19486 2 6.31217 62.4503 44.6489
13887 1 7.21713 60.8012 43.457
13835 1 9.9428 62.4433 43.3967
19495 2 9.05031 60.8116 44.7006
13832 1 8.13324 62.5282 45.9201
13914 1 1.75073 64.089 43.3186
19516 2 0.822861 65.7361 44.5531
19531 2 3.56822 64.0936 44.5965
13870 1 2.64803 65.7885 45.8324
13875 1 4.45377 65.7266 43.2671
19485 2 6.2791 65.7361 44.5531
13890 1 7.20696 64.089 43.3186
13869 1 5.39255 64.1595 45.8714
16733 1 10.8488 64.1595 45.8714
13834 1 9.91 65.7266 43.2671
19484 2 9.02446 64.0936 44.5965
13825 1 8.10427 65.7885 45.8324
13915 1 1.70016 67.3578 43.23
19515 2 0.777991 69.026 44.5156
19514 2 3.52854 67.3794 44.5264
13856 1 2.61689 69.0515 45.7862
13874 1 4.40569 68.9807 43.205
19471 2 6.23423 69.026 44.5156
13873 1 7.1564 67.3578 43.23
13872 1 5.36009 67.4183 45.8031
16724 1 10.8163 67.4183 45.8031
13827 1 9.86193 68.9807 43.205
19487 2 8.98478 67.3794 44.5264
13824 1 8.07313 69.0515 45.7862
13906 1 1.66168 70.6371 43.2227
19508 2 0.7492 72.3351 44.5281
19517 2 3.48815 70.6771 44.5195
13855 1 2.59935 72.3399 45.779
13860 1 4.36743 72.3079 43.257
19470 2 6.20544 72.3351 44.5281
13876 1 7.11792 70.6371 43.2227
13854 1 5.33395 70.69 45.7773
16725 1 10.7902 70.69 45.7773
13826 1 9.82367 72.3079 43.257
19469 2 8.94439 70.6771 44.5195
13810 1 8.05559 72.3399 45.779
13907 1 1.625 73.9864 43.2771
19506 2 3.47196 73.9961 44.5337
13858 1 7.08124 73.9864 43.2771
13857 1 5.32437 73.9976 45.7824
16723 1 10.7806 73.9976 45.7824
19472 2 8.9282 73.9961 44.5337
13867 1 0.881889 59.3361 48.5545
13885 1 2.69015 59.2627 46.0225
19526 2 1.79228 57.654 47.3261
13883 1 3.61407 57.711 48.5975
13830 1 6.33813 59.3361 48.5545
13884 1 5.42202 57.6347 46.0654
19482 2 4.51564 59.2785 47.2839
19492 2 7.24852 57.654 47.3261
16744 1 10.8783 57.6347 46.0654
13829 1 9.07031 57.711 48.5975
13833 1 8.14638 59.2627 46.0225
19434 2 9.97187 59.2785 47.2839
13866 1 0.867723 62.5885 48.4669
19527 2 1.78068 60.9071 47.2394
13865 1 3.60408 60.9624 48.51
13822 1 6.32396 62.5885 48.4669
13886 1 5.41338 60.8946 45.9731
19481 2 4.49962 62.538 47.1945
19480 2 7.23692 60.9071 47.2394
16732 1 10.8696 60.8946 45.9731
13831 1 9.06032 60.9624 48.51
19433 2 9.95586 62.538 47.1945
13852 1 0.846472 65.8399 48.3948
19512 2 1.7604 64.1694 47.1532
13868 1 3.58583 64.2142 48.428
13821 1 6.30271 65.8399 48.3948
19467 2 4.47581 65.8008 47.1179
19483 2 7.21663 64.1694 47.1532
13820 1 9.04207 64.2142 48.428
19432 2 9.93205 65.8008 47.1179
13851 1 0.826929 69.0965 48.348
19513 2 1.73414 67.4333 47.092
13850 1 3.56404 67.4668 48.368
13807 1 6.28317 69.0965 48.348
19466 2 4.44959 69.0688 47.0755
19465 2 7.19038 67.4333 47.092
13823 1 9.02027 67.4668 48.368
19425 2 9.90583 69.0688 47.0755
13844 1 0.816626 72.3676 48.3249
19504 2 1.71069 70.7089 47.067
13853 1 3.5486 70.7301 48.334
13806 1 6.27286 72.3676 48.3249
19453 2 4.43189 72.3541 47.0634
19468 2 7.16693 70.7089 47.067
13805 1 9.00484 70.7301 48.334
19424 2 9.88813 72.3541 47.0634
19505 2 1.70055 74.0039 47.0622
13842 1 3.5433 74.0089 48.3204
19451 2 7.15679 74.0039 47.0622
13808 1 8.99954 74.0089 48.3204
13863 1 1.80507 57.7723 51.1363
19478 2 2.70469 59.3519 49.8256
19459 2 0.895288 59.4091 52.3718
19476 2 3.62773 57.7891 52.4093
13818 1 4.52887 59.3939 51.0963
19477 2 5.43758 57.729 49.8658
13828 1 7.26131 57.7723 51.1363
19428 2 6.35153 59.4091 52.3718
22345 2 10.8938 57.729 49.8658
13776 1 9.98511 59.3939 51.0963
19431 2 8.16093 59.3519 49.8256
19427 2 9.08397 57.7891 52.4093
13864 1 1.79516 61.0159 51.0568
19463 2 2.69129 62.6011 49.7462
19458 2 0.884342 62.6506 52.2998
19457 2 3.61828 61.0297 52.3349
13817 1 4.51652 62.6378 51.0194
19479 2 5.42672 60.9762 49.7852
13816 1 7.2514 61.0159 51.0568
19420 2 6.34058 62.6506 52.2998
22330 2 10.883 60.9762 49.7852
13775 1 9.97276 62.6378 51.0194
19430 2 8.14753 62.6011 49.7462
19429 2 9.07451 61.0297 52.3349
13848 1 1.78088 64.2599 50.985
19462 2 2.67412 65.8519 49.6792
19445 2 0.871757 65.8933 52.2387
19460 2 3.60621 64.2717 52.2675
13803 1 4.50133 65.8823 50.9548
19461 2 5.41106 64.2263 49.7104
13819 1 7.23712 64.2599 50.985
19419 2 6.328 65.8933 52.2387
22331 2 10.8673 64.2263 49.7104
13774 1 9.95757 65.8823 50.9548
19423 2 8.13036 65.8519 49.6792
19418 2 9.06245 64.2717 52.2675
19443 2 3.59384 67.5158 52.2142
13849 1 1.76616 67.5058 50.929
19449 2 2.65738 69.1077 49.6345
19444 2 0.860381 69.1396 52.1943
19409 2 6.31662 69.1396 52.1943
13802 1 4.48841 69.1309 50.9081
19464 2 5.39346 67.4787 49.6538
13801 1 7.2224 67.5058 50.929
22322 2 10.8497 67.4787 49.6538
19421 2 9.05008 67.5158 52.2142
13768 1 9.94464 69.1309 50.9081
19422 2 8.11362 69.1077 49.6345
19446 2 3.58418 70.765 52.1792
19439 2 0.853047 72.3921 52.1688
13840 1 1.756 70.758 50.892
19448 2 2.64638 72.3751 49.6122
19408 2 6.30929 72.3921 52.1688
13791 1 4.48137 72.387 50.8808
19447 2 5.37901 70.7398 49.621
13804 1 7.21224 70.758 50.892
22323 2 10.8352 70.7398 49.621
19407 2 9.04042 70.765 52.1792
13767 1 9.93761 72.387 50.8808
19412 2 8.10262 72.3751 49.6122
19437 2 3.57959 74.0203 52.1632
13841 1 1.75193 74.0174 50.8746
19450 2 5.37222 74.0127 49.6076
13789 1 7.20817 74.0174 50.8746
19410 2 9.03583 74.0203 52.1632
22321 2 10.8285 74.0127 49.6076
13814 1 2.71997 59.4414 53.6436
19455 2 1.81855 57.8385 54.9562
13813 1 5.45212 57.8228 53.6806
19416 2 4.54289 59.4559 54.921
19426 2 7.27479 57.8385 54.9562
16682 1 10.9084 57.8228 53.6806
13773 1 8.17621 59.4414 53.6436
19398 2 9.99912 59.4559 54.921
13799 1 2.70982 62.679 53.5736
19456 2 1.81048 61.0734 54.8869
13815 1 5.44331 61.0602 53.6076
19415 2 4.53396 62.6911 54.8546
19414 2 7.26672 61.0734 54.8869
16666 1 10.8995 61.0602 53.6076
13772 1 8.16606 62.679 53.5736
19397 2 9.9902 62.6911 54.8546
13798 1 2.69868 65.9172 53.514
19441 2 1.80103 64.3089 54.8247
13797 1 5.43232 64.2979 53.5422
19405 2 4.52441 65.9271 54.7978
19417 2 7.25727 64.3089 54.8247
16667 1 10.8886 64.2979 53.5422
13766 1 8.15492 65.9172 53.514
19396 2 9.98065 65.9271 54.7978
19442 2 1.79188 67.5457 54.7745
13787 1 2.68947 69.1576 53.469
19403 2 7.24812 67.5457 54.7745
19404 2 4.51615 69.1649 54.7551
13800 1 5.42179 67.537 53.4894
16658 1 10.878 67.537 53.4894
19395 2 9.97239 69.1649 54.7551
13765 1 8.1457 69.1576 53.469
19435 2 1.78494 70.7849 54.7401
13786 1 2.68411 72.4014 53.4417
19406 2 7.24118 70.7849 54.7401
19401 2 4.51089 72.4056 54.7295
13785 1 5.41438 70.7791 53.4529
16659 1 10.8706 70.7791 53.4529
19394 2 9.96713 72.4056 54.7295
13759 1 8.14035 72.4014 53.4417
19436 2 1.78162 74.0268 54.7237
13788 1 5.41112 74.0242 53.4355
19399 2 7.23786 74.0268 54.7237
16657 1 10.8674 74.0242 53.4355
13795 1 0.911406 59.4818 56.1939
14111 1 1.83412 57.9034 58.7791
19752 2 0.00965483 57.8807 57.5057
19745 2 2.73448 59.4956 57.4724
13812 1 3.64309 57.8657 56.2285
13770 1 6.36764 59.4818 56.1939
14098 1 4.55913 59.5171 58.7463
19744 2 5.46589 57.8807 57.5057
14052 1 10.0154 59.5171 58.7463
13769 1 9.09933 57.8657 56.2285
14100 1 7.29036 57.9034 58.7791
19710 2 8.19072 59.4956 57.4724
13794 1 0.903106 62.7138 56.1289
14112 1 1.82762 61.1307 58.7148
19750 2 0.00276745 61.1105 57.4404
19741 2 2.7271 62.7254 57.4102
13793 1 3.63552 61.0978 56.1605
14097 1 4.55221 62.7441 58.6851
13763 1 6.35934 62.7138 56.1289
19746 2 5.45901 61.1105 57.4404
14051 1 10.0085 62.7441 58.6851
13771 1 9.09176 61.0978 56.1605
14096 1 7.28386 61.1307 58.7148
19709 2 8.18334 62.7254 57.4102
13783 1 0.89454 65.946 56.0733
14108 1 1.82057 64.3573 58.6577
19740 2 2.71956 65.9551 57.357
13796 1 3.62686 64.3299 56.0997
14090 1 4.54531 65.9704 58.6329
13762 1 6.35078 65.946 56.0733
19739 2 5.45139 64.3402 57.3822
14099 1 7.2768 64.3573 58.6577
14050 1 10.0016 65.9704 58.6329
13761 1 9.0831 64.3299 56.0997
19704 2 8.1758 65.9551 57.357
22571 2 10.9076 64.3402 57.3822
13782 1 0.887483 69.1788 56.0308
14109 1 1.81413 67.5835 58.6112
19730 2 2.7132 69.1855 57.3166
13781 1 3.61885 67.5623 56.0502
14089 1 4.53961 69.1965 58.593
13756 1 6.34372 69.1788 56.0308
19742 2 5.44427 67.5702 57.335
14088 1 7.27036 67.5835 58.6112
14043 1 9.99585 69.1965 58.593
13764 1 9.07508 67.5623 56.0502
19703 2 8.16944 69.1855 57.3166
22568 2 10.9005 67.5702 57.335
13779 1 0.883185 72.4127 56.0048
14104 1 1.8094 70.8095 58.5787
19729 2 2.70916 72.4167 57.292
13784 1 3.61306 70.7957 56.0156
14076 1 4.53605 72.4224 58.5686
13755 1 6.33942 72.4127 56.0048
19728 2 5.43895 70.801 57.3022
14091 1 7.26564 70.8095 58.5787
14042 1 9.99229 72.4224 58.5686
13754 1 9.0693 70.7957 56.0156
19690 2 8.1654 72.4167 57.292
22569 2 10.8952 70.801 57.3022
14105 1 1.80713 74.0354 58.5628
13777 1 3.61037 74.03 55.9988
19731 2 5.43637 74.0326 57.2863
14074 1 7.26336 74.0354 58.5628
13757 1 9.06661 74.03 55.9988
22567 2 10.8926 74.0326 57.2863
14094 1 2.75043 59.5491 61.3003
14110 1 0.0250474 57.9377 61.3316
19737 2 0.926009 59.5307 60.0254
14093 1 5.48129 57.9377 61.3316
19707 2 6.38225 59.5307 60.0254
19743 2 3.65701 57.9181 60.0571
19697 2 4.57352 59.5631 62.5796
14049 1 8.20666 59.5491 61.3003
19706 2 9.11325 57.9181 60.0571
19644 2 10.0298 59.5631 62.5796
14086 1 2.74453 62.7712 61.2422
14106 1 0.0193954 61.1603 61.2704
19736 2 0.919763 62.7554 59.9665
19734 2 1.84271 61.1731 62.5507
14095 1 5.47563 61.1603 61.2704
19701 2 6.376 62.7554 59.9665
19735 2 3.65105 61.1431 59.9951
19696 2 4.5681 62.7828 62.5235
14048 1 8.20076 62.7712 61.2422
19708 2 9.10729 61.1431 59.9951
19643 2 10.0243 62.7828 62.5235
19695 2 7.29895 61.1731 62.5507
14085 1 2.73875 65.9921 61.1929
14107 1 0.0134462 64.3818 61.2163
19726 2 0.913577 65.9793 59.9164
19722 2 1.83728 64.3922 62.4985
14084 1 5.46968 64.3818 61.2163
19700 2 6.36982 65.9793 59.9164
19738 2 3.64472 64.3674 59.9402
19683 2 4.56284 66.0013 62.4759
14041 1 8.19499 65.9921 61.1929
19699 2 9.10096 64.3674 59.9402
19642 2 10.0191 66.0013 62.4759
19698 2 7.29352 64.3922 62.4985
14072 1 2.73397 69.212 61.1553
14102 1 0.00806122 67.6022 61.1725
19725 2 0.90842 69.2029 59.8783
19723 2 1.83238 67.6101 62.4563
19724 2 3.63893 67.5912 59.8957
14087 1 5.4643 67.6022 61.1725
19687 2 6.36466 69.2029 59.8783
19682 2 4.55848 69.2187 62.4398
14040 1 8.19021 69.212 61.1553
19702 2 9.09517 67.5912 59.8957
19635 2 10.0147 69.2187 62.4398
19681 2 7.28862 67.6101 62.4563
14071 1 2.73093 72.4312 61.1322
14103 1 0.00407444 70.8217 61.1418
19718 2 0.905137 72.4264 59.855
19727 2 3.63462 70.8146 59.8646
19714 2 1.82873 70.8271 62.4268
14070 1 5.46031 70.8217 61.1418
19686 2 6.36138 72.4264 59.855
19668 2 4.55568 72.4353 62.4175
14026 1 8.18717 72.4312 61.1322
19685 2 9.09086 70.8146 59.8646
19634 2 10.0119 72.4353 62.4175
19684 2 7.28497 70.8271 62.4268
19716 2 3.6325 74.0381 59.8494
19715 2 1.8269 74.0435 62.4121
14101 1 0.00209934 74.0407 61.1267
14073 1 5.45834 74.0407 61.1267
19688 2 9.08874 74.0381 59.8494
19666 2 7.28314 74.0435 62.4121
14082 1 0.941384 59.5793 63.8559
19693 2 2.76441 59.5942 65.1347
19732 2 0.038606 57.986 65.1639
19733 2 1.84795 57.9527 62.61
14046 1 6.39762 59.5793 63.8559
14092 1 3.67195 57.97 63.886
19692 2 5.49484 57.986 65.1639
14045 1 9.12819 57.97 63.886
19641 2 8.22065 59.5942 65.1347
19705 2 7.30419 57.9527 62.61
14081 1 0.936223 62.7967 63.8004
19679 2 2.75958 62.8092 65.0807
19720 2 0.0338852 61.202 65.1068
14038 1 6.39246 62.7967 63.8004
14080 1 3.66694 61.1882 63.8273
19694 2 5.49012 61.202 65.1068
14047 1 9.12318 61.1882 63.8273
19640 2 8.21582 62.8092 65.0807
14068 1 0.931235 66.0124 63.7534
19678 2 2.75495 66.0223 65.0353
19721 2 0.0290838 64.416 65.0568
14037 1 6.38747 66.0124 63.7534
14083 1 3.66178 64.4047 63.7757
19677 2 5.48532 64.416 65.0568
14036 1 9.11802 64.4047 63.7757
19633 2 8.21119 66.0223 65.0353
14067 1 0.927107 69.2266 63.7177
19664 2 2.75113 69.2338 65.0007
19712 2 0.0247846 67.6282 65.0165
14023 1 6.38335 69.2266 63.7177
14066 1 3.65714 67.6196 63.734
19680 2 5.48102 67.6282 65.0165
14039 1 9.11338 67.6196 63.734
19632 2 8.20737 69.2338 65.0007
14060 1 0.924447 72.4397 63.6957
19663 2 2.74865 72.4442 64.9793
19713 2 0.0215737 70.8391 64.9883
14022 1 6.38068 72.4397 63.6957
14069 1 3.65368 70.8333 63.7049
19662 2 5.47781 70.8391 64.9883
14021 1 9.10992 70.8333 63.7049
19618 2 8.20489 72.4442 64.9793
19711 2 0.0199123 74.0492 64.974
14058 1 3.65192 74.0461 63.6902
19665 2 5.47615 74.0492 64.974
14024 1 9.10816 74.0461 63.6902
14078 1 1.86214 58.0018 66.443
19675 2 0.954785 59.6257 67.6895
14030 1 2.7775 59.6395 68.9773
14077 1 0.0514022 58.0342 69.0056
14034 1 4.58804 59.609 66.4139
19638 2 6.41102 59.6257 67.6895
19691 2 3.68506 58.0195 67.7179
14029 1 5.50764 58.0342 69.0056
13986 1 10.0443 59.609 66.4139
14044 1 7.31838 58.0018 66.443
19637 2 9.1413 58.0195 67.7179
13983 1 8.23373 59.6395 68.9773
14079 1 1.85763 61.2157 66.3863
19674 2 0.950343 62.836 67.6374
14015 1 2.77333 62.8477 68.9255
14062 1 0.0472978 61.2439 68.9505
14033 1 4.58343 62.8218 66.3604
19630 2 6.40658 62.836 67.6374
19673 2 3.68069 61.2312 67.6626
14031 1 5.50354 61.2439 68.9505
13985 1 10.0397 62.8218 66.3604
14032 1 7.31387 61.2157 66.3863
19639 2 9.13692 61.2312 67.6626
13982 1 8.22957 62.8477 68.9255
14064 1 1.85304 64.4274 66.3367
19660 2 0.946123 66.0437 67.5936
14014 1 2.76938 66.0533 68.8819
14063 1 0.0431839 64.4508 68.9026
14019 1 4.57902 66.0324 66.3153
19629 2 6.40236 66.0437 67.5936
19676 2 3.67629 64.4401 67.6143
14013 1 5.49942 64.4508 68.9026
13984 1 10.0353 66.0324 66.3153
14035 1 7.30928 64.4274 66.3367
19628 2 9.13253 64.4401 67.6143
13975 1 8.22562 66.0533 68.8819
14065 1 1.84894 67.637 66.2967
19659 2 0.942631 69.2493 67.5603
14001 1 2.76611 69.2565 68.8489
14054 1 0.039515 67.6551 68.864
14018 1 4.57536 69.2411 66.2811
19615 2 6.39887 69.2493 67.5603
19658 2 3.67237 67.6468 67.5755
14016 1 5.49575 67.6551 68.864
13977 1 10.0316 69.2411 66.2811
14017 1 7.30518 67.637 66.2967
19631 2 9.12861 67.6468 67.5755
13974 1 8.22235 69.2565 68.8489
14056 1 1.84586 70.8449 66.2688
19652 2 0.940325 72.4535 67.5394
14055 1 0.0367516 70.8575 68.8369
14005 1 4.57297 72.4485 66.2598
19614 2 6.39656 72.4535 67.5394
19661 2 3.66943 70.8515 67.5482
13999 1 5.49299 70.8575 68.8369
13976 1 10.0292 72.4485 66.2598
14020 1 7.3021 70.8449 66.2688
19613 2 9.12566 70.8515 67.5482
14000 1 2.76395 72.4582 68.8282
14057 1 1.84425 74.0519 66.2545
14053 1 0.0352661 74.0586 68.8229
19650 2 3.66784 74.0552 67.5341
14002 1 5.4915 74.0586 68.8229
13964 1 8.22019 72.4582 68.8282
14003 1 7.30048 74.0519 66.2545
19616 2 9.12408 74.0552 67.5341
14011 1 0.96302 59.6705 71.5571
19671 2 1.87509 58.0544 70.2673
13980 1 6.41926 59.6705 71.5571
14028 1 3.69293 58.0672 71.5846
19626 2 4.60117 59.6585 70.2395
13979 1 9.14917 58.0672 71.5846
19584 2 10.0574 59.6585 70.2395
19636 2 7.33133 58.0544 70.2673
14010 1 0.959354 62.8743 71.5066
19672 2 1.87096 61.2616 70.2132
13972 1 6.41559 62.8743 71.5066
14009 1 3.68931 61.2728 71.531
19625 2 4.59699 62.8639 70.1887
13981 1 9.14554 61.2728 71.531
19583 2 10.0532 62.8639 70.1887
19624 2 7.3272 61.2616 70.2132
13997 1 0.955885 66.0746 71.4643
19656 2 1.86684 64.4654 70.1662
13971 1 6.41212 66.0746 71.4643
14012 1 3.68569 64.4748 71.4843
19611 2 4.59305 66.0661 70.1461
13970 1 9.14193 64.4748 71.4843
19582 2 10.0493 66.0661 70.1461
19627 2 7.32308 64.4654 70.1662
13996 1 0.95302 69.272 71.4323
19657 2 1.86318 67.6661 70.1285
13961 1 6.40926 69.272 71.4323
13995 1 3.68247 67.6736 71.4469
19610 2 4.58979 69.2654 70.1138
13973 1 9.13871 67.6736 71.4469
19576 2 10.046 69.2654 70.1138
19609 2 7.31942 67.6661 70.1285
19648 2 1.86043 70.8643 70.1021
13998 1 3.68005 70.8699 71.4207
13959 1 9.13629 70.8699 71.4207
19612 2 7.31667 70.8643 70.1021
13991 1 0.951127 72.4674 71.4122
19649 2 1.85895 74.0611 70.0884
13960 1 6.40737 72.4674 71.4122
19599 2 4.58764 72.4628 70.0936
13989 1 3.67875 74.0647 71.4071
19575 2 10.0439 72.4628 70.0936
13962 1 9.13499 74.0647 71.4071
19597 2 7.31519 74.0611 70.0884
14007 1 1.83466 58.0979 74.2418
19603 2 0.95742 59.7236 75.2623
19622 2 2.78955 59.693 72.777
19670 2 0.0634083 58.0909 72.8043
13968 1 4.5629 59.6995 74.2144
19578 2 6.41366 59.7236 75.2623
19620 2 3.68676 58.1231 75.2887
19621 2 5.51965 58.0909 72.8043
13950 1 10.0191 59.6995 74.2144
13978 1 7.2909 58.0979 74.2418
19577 2 9.143 58.1231 75.2887
19581 2 8.24579 59.693 72.777
14008 1 1.83485 61.3001 74.1885
19602 2 0.95484 62.9203 75.2141
19607 2 2.78551 62.8935 72.7273
19654 2 0.0594139 61.2938 72.7513
13967 1 4.56302 62.8997 74.1644
19571 2 6.41108 62.9203 75.2141
19601 2 3.68426 61.3226 75.2373
19623 2 5.51565 61.2938 72.7513
13949 1 10.0193 62.8997 74.1644
13966 1 7.29109 61.3001 74.1885
19579 2 9.1405 61.3226 75.2373
19580 2 8.24175 62.8935 72.7273
13993 1 1.83492 64.4982 74.1422
19591 2 0.952337 66.1117 75.1738
19606 2 2.78167 66.0898 72.6857
19655 2 0.0554185 64.4922 72.7053
13957 1 4.56305 66.0957 74.1224
19570 2 6.40858 66.1117 75.1738
19604 2 3.68168 64.5166 75.1928
19605 2 5.51166 64.4922 72.7053
13948 1 10.0193 66.0957 74.1224
13969 1 7.29116 64.4982 74.1422
19569 2 9.13792 64.5166 75.1928
19574 2 8.23791 66.0898 72.6857
13994 1 1.83494 67.6923 74.1051
19590 2 0.950241 69.2986 75.1435
19595 2 2.77849 69.2823 72.6542
19646 2 0.0518537 67.6864 72.6685
13956 1 4.56307 69.2881 74.0906
19564 2 6.40648 69.2986 75.1435
19589 2 3.67934 67.7056 75.1573
19608 2 5.50809 67.6864 72.6685
13947 1 10.0193 69.2881 74.0906
13955 1 7.29118 67.6923 74.1051
19572 2 9.13558 67.7056 75.1573
19573 2 8.23473 69.2823 72.6542
13987 1 1.83495 70.8833 74.0791
19647 2 0.0491649 70.8776 72.6428
19592 2 3.67756 70.8907 75.1325
19593 2 5.5054 70.8776 72.6428
13958 1 7.29119 70.8833 74.0791
19562 2 9.1338 70.8907 75.1325
19587 2 0.948847 72.4822 75.1246
19594 2 2.77639 72.4723 72.6345
19645 2 0.0477173 74.0667 72.6295
13988 1 1.83496 74.0723 74.0657
13953 1 4.56308 72.478 74.0708
19563 2 6.40509 72.4822 75.1246
19596 2 5.50396 74.0667 72.6295
19585 2 3.6766 74.0732 75.1198
13946 1 10.0193 72.478 74.0708
19567 2 8.23263 72.4723 72.6345
19565 2 9.13284 74.0732 75.1198
13951 1 7.2912 74.0723 74.0657
7953 2 0.934428 77.1499 -1.57758
7961 2 2.76471 77.1492 -4.07108
1728 1 1.87689 78.7331 -3.01609
7966 2 0.036231 78.7403 -4.06799
1714 1 4.60556 77.1446 -3.01924
7923 2 6.39067 77.1499 -1.57758
7951 2 3.66231 78.7391 -1.57441
7962 2 5.49247 78.7403 -4.06799
1668 1 10.0618 77.1446 -3.01924
7926 2 8.22094 77.1492 -4.07108
1712 1 7.33312 78.7331 -3.01609
7924 2 9.11855 78.7391 -1.57441
7952 2 0.933807 80.3281 -1.56915
7957 2 2.76377 80.3312 -4.06287
1713 1 4.60409 80.3214 -3.01086
7917 2 6.39005 80.3281 -1.56915
1667 1 10.0603 80.3214 -3.01086
7925 2 8.22001 80.3312 -4.06287
1724 1 1.87472 81.9095 -3.0036
7942 2 0.932637 83.5048 -1.55254
7956 2 2.76198 83.5119 -4.0467
7967 2 0.0348511 81.9218 -4.05575
1706 1 4.60125 83.4973 -2.99436
7916 2 6.38888 83.5048 -1.55254
7954 2 3.6614 81.9167 -1.56184
7955 2 5.49109 81.9218 -4.05575
1666 1 10.0575 83.4973 -2.99436
1715 1 7.33096 81.9095 -3.0036
7915 2 9.11764 81.9167 -1.56184
7920 2 8.21821 83.5119 -4.0467
1725 1 1.87125 85.0848 -2.98322
7941 2 0.93104 86.6794 -1.5283
7946 2 2.75948 86.6904 -4.02312
7964 2 0.0326848 85.1015 -4.0358
1705 1 4.5972 86.6718 -2.97026
7903 2 6.38728 86.6794 -1.5283
7940 2 3.66 85.0924 -1.54134
7958 2 5.48892 85.1015 -4.0358
1659 1 10.0534 86.6718 -2.97026
1704 1 7.32749 85.0848 -2.98322
7918 2 9.11624 85.0924 -1.54134
7919 2 8.21571 86.6904 -4.02312
1720 1 1.86666 88.2583 -2.95558
7934 2 0.929155 89.8512 -1.49718
7945 2 2.75644 89.866 -3.99285
7965 2 0.0298944 88.2786 -4.00876
1692 1 4.59213 89.8441 -2.93929
7902 2 6.38539 89.8512 -1.49718
7943 2 3.65824 88.2657 -1.51355
7944 2 5.48613 88.2786 -4.00876
1658 1 10.0484 89.8441 -2.93929
1707 1 7.3229 88.2583 -2.95558
7901 2 9.11448 88.2657 -1.51355
7906 2 8.21268 89.866 -3.99285
1721 1 1.86117 91.4293 -2.92152
7933 2 0.927106 93.0196 -1.46014
7935 2 2.75303 93.0381 -3.95682
7963 2 0.0266503 91.4525 -3.97549
1691 1 4.58626 93.0138 -2.90239
7885 2 6.38334 93.0196 -1.46014
7932 2 3.65626 91.4358 -1.47934
7947 2 5.48289 91.4525 -3.97549
1643 1 10.0425 93.0138 -2.90239
1690 1 7.31741 91.4293 -2.92152
7904 2 9.1125 91.4358 -1.47934
7905 2 8.20926 93.0381 -3.95682
1698 1 0.939342 77.1474 2.22885
1710 1 2.75813 77.1473 -0.358632
1722 1 0.0297362 78.7345 -0.355448
7950 2 1.8461 78.7354 0.97134
1662 1 6.39558 77.1474 2.22885
7913 2 4.57447 77.1488 0.968099
1696 1 3.6672 78.7324 2.23212
1711 1 5.48597 78.7345 -0.355448
1665 1 8.21436 77.1473 -0.358632
7860 2 10.0307 77.1488 0.968099
1663 1 9.12343 78.7324 2.23212
7911 2 7.30234 78.7354 0.97134
1697 1 0.938641 80.3172 2.23755
1702 1 2.75741 80.3215 -0.350168
1654 1 6.39488 80.3172 2.23755
7912 2 4.57382 80.3217 0.976712
1699 1 3.66617 81.9018 2.24508
1664 1 8.21365 80.3215 -0.350168
7859 2 10.0301 80.3217 0.976712
1652 1 9.1224 81.9018 2.24508
1684 1 0.93731 83.486 2.25467
1701 1 2.75605 83.4947 -0.333501
1723 1 0.0286866 81.9083 -0.342833
7938 2 1.84515 81.9077 0.984173
1653 1 6.39355 83.486 2.25467
1700 1 5.48493 81.9083 -0.342833
7899 2 4.57258 83.4934 0.993662
1657 1 8.21229 83.4947 -0.333501
7858 2 10.0288 83.4934 0.993662
7914 2 7.30138 81.9077 0.984173
1683 1 0.935468 86.6533 2.27968
1688 1 2.75416 86.6661 -0.309148
1718 1 0.0270447 85.0807 -0.322244
7939 2 1.84366 85.0786 1.0051
1639 1 6.39171 86.6533 2.27968
1682 1 3.66456 85.0699 2.26623
1703 1 5.48328 85.0807 -0.322244
7898 2 4.57088 86.6632 1.01841
1655 1 9.1208 85.0699 2.26623
1656 1 8.2104 86.6661 -0.309148
7851 2 10.0271 86.6632 1.01841
7897 2 7.2999 85.0786 1.0051
1676 1 0.93325 89.8184 2.3118
1687 1 2.75188 89.8352 -0.277856
1719 1 0.0249401 88.251 -0.294314
7930 2 1.84178 88.2473 1.03347
1638 1 6.38949 89.8184 2.3118
1685 1 3.66252 88.2361 2.29491
1686 1 5.48118 88.251 -0.294314
7884 2 4.56885 89.8307 1.05017
1637 1 9.11876 88.2361 2.29491
1642 1 8.20811 89.8352 -0.277856
7850 2 10.0251 89.8307 1.05017
7900 2 7.29802 88.2473 1.03347
1675 1 0.930774 92.9812 2.35003
1677 1 2.74932 93.0015 -0.240576
1717 1 0.0225053 91.4187 -0.259899
7931 2 1.83963 91.4134 1.06838
1621 1 6.38701 92.9812 2.35003
1674 1 3.66016 91.4001 2.33022
1689 1 5.47874 91.4187 -0.259899
7883 2 4.5666 92.9953 1.08796
1640 1 9.1164 91.4001 2.33022
1641 1 8.20556 93.0015 -0.240576
7835 2 10.0228 92.9953 1.08796
7882 2 7.29586 91.4134 1.06838
7909 2 2.75875 77.1486 3.52714
1695 1 1.85093 78.7311 4.80436
7936 2 0.0303543 78.7328 3.53046
1650 1 4.57935 77.1482 4.80099
7910 2 5.48659 78.7328 3.53046
1596 1 10.0356 77.1482 4.80099
7857 2 8.21499 77.1486 3.52714
1648 1 7.30717 78.7311 4.80436
7895 2 2.75802 80.3168 3.53596
1680 1 1.84977 81.8964 4.81771
7937 2 0.0292758 81.9005 3.54359
1649 1 4.57856 80.3139 4.80995
7893 2 5.48551 81.9005 3.54359
1595 1 10.0348 80.3139 4.80995
7856 2 8.21426 80.3168 3.53596
1651 1 7.30601 81.8964 4.81771
7894 2 2.75662 83.4839 3.5533
1635 1 4.57706 83.4786 4.82758
1594 1 10.0333 83.4786 4.82758
7849 2 8.21286 83.4839 3.5533
1681 1 1.84798 85.0605 4.83948
7880 2 2.75471 86.6494 3.57862
7928 2 0.0276035 85.0668 3.56501
1634 1 4.57501 86.6419 4.85332
7896 2 5.48384 85.0668 3.56501
1587 1 10.0312 86.6419 4.85332
1633 1 7.30421 85.0605 4.83948
7848 2 8.21095 86.6494 3.57862
7929 2 0.0254818 88.2314 3.59402
7879 2 2.75242 89.8128 3.6111
1672 1 1.8457 88.2229 4.86898
7878 2 5.48172 88.2314 3.59402
1620 1 4.57255 89.8034 4.88635
7834 2 8.20865 89.8128 3.6111
1636 1 7.30194 88.2229 4.86898
1586 1 10.0288 89.8034 4.88635
7927 2 0.0230487 91.3937 3.62971
7869 2 2.74987 92.9739 3.64971
1673 1 1.8431 91.3833 4.90528
7881 2 5.47929 91.3937 3.62971
1619 1 4.56983 92.9627 4.92562
7833 2 8.20611 92.9739 3.64971
1618 1 7.29934 91.3833 4.90528
1572 1 10.0261 92.9627 4.92562
1646 1 2.76268 77.1498 7.36784
7891 2 0.942474 77.1495 6.09013
1678 1 0.0341653 78.7308 7.37148
7888 2 1.85413 78.7305 8.65796
7842 2 4.58271 77.1504 8.65419
7854 2 6.39871 77.1495 6.09013
1647 1 5.4904 78.7308 7.37148
7889 2 3.67024 78.7315 6.09365
1593 1 8.21892 77.1498 7.36784
7800 2 10.0389 77.1504 8.65419
7840 2 7.31037 78.7305 8.65796
7855 2 9.12648 78.7315 6.09365
1631 1 2.76168 80.3116 7.37742
7890 2 0.941575 80.3134 6.09942
1679 1 0.0327721 81.8922 7.38562
7872 2 1.85255 81.8901 8.67247
7841 2 4.58156 80.3104 8.66407
7846 2 6.39781 80.3134 6.09942
1629 1 5.48901 81.8922 7.38562
7892 2 3.66897 81.895 6.1074
1592 1 8.21792 80.3116 7.37742
7799 2 10.0378 80.3104 8.66407
7843 2 7.30879 81.8901 8.67247
7844 2 9.1252 81.895 6.1074
1630 1 2.75993 83.4726 7.396
7876 2 0.939958 83.4763 6.11751
7873 2 1.85025 85.0486 8.69579
1670 1 0.0307082 85.0526 7.40848
7827 2 4.57959 83.4695 8.68307
7845 2 6.3962 83.4763 6.11751
1632 1 5.48695 85.0526 7.40848
1585 1 8.21617 83.4726 7.396
7798 2 10.0358 83.4695 8.68307
7825 2 7.30649 85.0486 8.69579
1616 1 2.7576 86.6322 7.42295
7875 2 0.937782 86.6379 6.14379
7826 2 4.57702 86.6274 8.71052
7831 2 6.39402 86.6379 6.14379
7874 2 3.66705 85.0573 6.12968
1584 1 8.21384 86.6322 7.42295
7792 2 10.0333 86.6274 8.71052
7847 2 9.12329 85.0573 6.12968
1615 1 2.75487 89.7901 7.45735
1671 1 0.0281573 88.2114 7.43928
7864 2 1.84745 88.2057 8.72712
7868 2 0.935207 89.7976 6.17737
1614 1 5.4844 88.2114 7.43928
7815 2 4.57404 89.7836 8.74546
7830 2 6.39145 89.7976 6.17737
7877 2 3.66465 88.218 6.15973
1571 1 8.21111 89.7901 7.45735
7791 2 10.0303 89.7836 8.74546
7828 2 7.30369 88.2057 8.72712
7829 2 9.12089 88.218 6.15973
1605 1 2.75185 92.9462 7.49804
1669 1 0.025269 91.3684 7.47699
7865 2 1.84432 91.3611 8.76536
7867 2 0.932357 92.9553 6.21715
1617 1 5.48151 91.3684 7.47699
7814 2 4.57078 92.938 8.78666
7816 2 6.3886 92.9553 6.21715
7866 2 3.66193 91.3768 6.19656
1570 1 8.20809 92.9462 7.49804
7784 2 10.027 92.938 8.78666
7813 2 7.30056 91.3611 8.76536
7832 2 9.11817 91.3768 6.19656
1627 1 0.946804 77.1509 9.93287
7838 2 2.76727 77.1512 11.2182
7870 2 0.0385318 78.7293 11.2223
1624 1 1.85908 78.7288 12.5011
1590 1 6.40304 77.1509 9.93287
1578 1 4.58792 77.1516 12.4968
1625 1 3.6744 78.73 9.9368
7839 2 5.49477 78.7293 11.2223
7797 2 8.22351 77.1512 11.2182
1548 1 10.0442 77.1516 12.4968
1591 1 9.13064 78.73 9.9368
1576 1 7.31531 78.7288 12.5011
1626 1 0.945501 80.309 9.94313
7823 2 2.76575 80.3074 11.2288
7871 2 0.0364822 81.8852 11.2377
1608 1 1.85672 81.8829 12.5171
1582 1 6.40174 80.309 9.94313
1577 1 4.58615 80.306 12.5079
1628 1 3.67262 81.8877 9.95182
7821 2 5.49272 81.8852 11.2377
7796 2 8.22199 80.3074 11.2288
1547 1 10.0424 80.306 12.5079
1580 1 9.12886 81.8877 9.95182
1579 1 7.31296 81.8829 12.5171
1612 1 0.943315 83.4663 9.96278
7822 2 2.76325 83.4628 11.2489
7862 2 0.0336099 85.0401 11.2622
1609 1 1.85349 85.0361 12.5426
1581 1 6.39955 83.4663 9.96278
1564 1 4.58331 83.4596 12.5287
7824 2 5.48985 85.0401 11.2622
1610 1 3.67009 85.0445 9.97591
7790 2 8.21949 83.4628 11.2489
1546 1 10.0395 83.4596 12.5287
1562 1 7.30973 85.0361 12.5426
1583 1 9.12633 85.0445 9.97591
1611 1 0.940507 86.6223 9.9911
7811 2 2.76008 86.6171 11.2777
7863 2 0.0302219 88.1936 11.2951
1600 1 1.84977 88.188 12.5767
1568 1 6.39675 86.6223 9.9911
1563 1 4.5798 86.6122 12.5587
7809 2 5.48646 88.1936 11.2951
1613 1 3.66706 88.1998 10.0082
7789 2 8.21632 86.6171 11.2777
1543 1 10.036 86.6122 12.5587
1565 1 7.30601 88.188 12.5767
1566 1 9.1233 88.1998 10.0082
1604 1 0.937302 89.7769 10.0271
7810 2 2.75653 89.7698 11.3143
7861 2 0.0265319 91.3456 11.3351
1567 1 6.39354 89.7769 10.0271
7812 2 5.48277 91.3456 11.3351
1602 1 3.66371 91.3535 10.0475
7783 2 8.21276 89.7698 11.3143
1569 1 9.11995 91.3535 10.0475
1603 1 0.933831 92.9297 10.0694
7804 2 2.75273 92.921 11.3572
8294 2 0.0226438 94.496 11.3806
1557 1 6.39007 92.9297 10.0694
8245 2 5.47888 94.496 11.3806
7782 2 8.20897 92.921 11.3572
1574 1 2.77372 77.1519 15.0599
7819 2 0.952609 77.1516 13.7817
1606 1 0.0445844 78.7271 15.0645
7794 2 6.40885 77.1516 13.7817
1575 1 5.50082 78.7271 15.0645
7817 2 3.67988 78.7278 13.7861
1545 1 8.22996 77.1519 15.0599
7795 2 9.13611 78.7278 13.7861
1560 1 2.77127 80.3023 15.0718
7818 2 0.950538 80.3039 13.7931
1607 1 0.0413688 81.8774 15.0817
7787 2 6.40678 80.3039 13.7931
1558 1 5.49761 81.8774 15.0817
7820 2 3.67713 81.8798 13.8026
1544 1 8.2275 80.3023 15.0718
7785 2 9.13337 81.8798 13.8026
1559 1 2.76746 83.4522 15.0941
7807 2 0.94725 83.4556 13.8144
1598 1 0.0371365 85.0268 15.1089
7786 2 6.40349 83.4556 13.8144
1561 1 5.49337 85.0268 15.1089
7805 2 3.67343 85.031 13.8286
1541 1 8.2237 83.4522 15.0941
7788 2 9.12967 85.031 13.8286
1552 1 2.76295 86.6011 15.1259
7806 2 0.943245 86.6062 13.845
1599 1 0.0324595 88.1751 15.145
7780 2 6.39948 86.6062 13.845
1550 1 5.4887 88.1751 15.145
7808 2 3.66922 88.181 13.8633
1540 1 8.21919 86.6011 15.1259
7778 2 9.12546 88.181 13.8633
1601 1 1.84579 91.3383 12.618
1597 1 0.0276407 91.3221 15.1886
1551 1 2.75818 89.7488 15.166
7803 2 0.938901 89.7555 13.8835
7801 2 3.66479 91.3296 13.9053
1553 1 5.48388 91.3221 15.1886
1556 1 4.57592 89.7633 12.5965
7779 2 6.39514 89.7555 13.8835
7781 2 9.12102 91.3296 13.9053
1554 1 7.30203 91.3383 12.618
1542 1 10.0322 89.7633 12.5965
1538 1 8.21442 89.7488 15.166
2006 1 0.0227505 94.4678 15.2378
7802 2 0.934403 92.9034 13.9285
1549 1 2.75332 92.8951 15.2126
2007 1 1.84163 94.4872 12.6649
7777 2 6.39064 92.9034 13.9285
1555 1 4.57185 92.913 12.6408
1957 1 5.47899 94.4678 15.2378
8244 2 3.66023 94.4768 13.9528
1539 1 10.0281 92.913 12.6408
1537 1 8.20956 92.8951 15.2126
1972 1 7.29787 94.4872 12.6649
8201 2 9.11647 94.4768 13.9528
8142 2 2.78277 77.1506 18.9074
1918 1 0.960683 77.1515 17.6224
8154 2 0.052938 78.7221 18.9124
8160 2 1.86587 78.7256 16.3495
8146 2 4.59519 77.1515 16.3448
1895 1 6.41692 77.1515 17.6224
8143 2 5.50918 78.7221 18.9124
1916 1 3.68734 78.7245 17.6273
8097 2 8.23901 77.1506 18.9074
8100 2 10.0514 77.1515 16.3448
8144 2 7.32211 78.7256 16.3495
1896 1 9.14358 78.7245 17.6273
1917 1 0.957194 80.2975 17.6351
8134 2 2.77869 80.2937 18.9203
8155 2 0.0477029 81.8653 18.931
8156 2 1.86211 81.8734 16.367
8145 2 4.5923 80.2995 16.3569
1891 1 6.41343 80.2975 17.6351
1919 1 3.68286 81.8704 17.6457
8132 2 5.50394 81.8653 18.931
8096 2 8.23492 80.2937 18.9203
8099 2 10.0485 80.2995 16.3569
1889 1 9.1391 81.8704 17.6457
8147 2 7.31835 81.8734 16.367
1911 1 0.951994 83.4433 17.6589
8133 2 2.77264 83.4368 18.9445
8157 2 1.85723 85.0207 16.3947
8150 2 0.0411752 85.0083 18.9606
8138 2 4.58788 83.4472 16.3797
1890 1 6.40823 83.4433 17.6589
1909 1 3.67721 85.0159 17.6747
8135 2 5.49741 85.0083 18.9606
8089 2 8.22888 83.4368 18.9445
8098 2 10.0441 83.4472 16.3797
1892 1 9.13345 85.0159 17.6747
8136 2 7.31346 85.0207 16.3947
1910 1 0.946119 86.5884 17.6929
8120 2 2.7659 86.5795 18.9792
8152 2 1.85191 88.167 16.4316
8151 2 0.0343981 88.1505 19.0001
8137 2 4.58271 86.594 16.4121
1879 1 6.40236 86.5884 17.6929
1912 1 3.67126 88.1605 17.7133
8118 2 5.49064 88.1505 19.0001
8088 2 8.22213 86.5795 18.9792
8091 2 10.0389 86.594 16.4121
8139 2 7.30815 88.167 16.4316
1877 1 9.1275 88.1605 17.7133
1904 1 0.94019 89.7323 17.7357
8119 2 2.75919 89.7213 19.0229
8153 2 1.84652 91.312 16.4761
8149 2 0.027804 91.2917 19.0475
1878 1 6.39643 89.7323 17.7357
8124 2 4.57733 89.7396 16.453
1902 1 3.66538 91.3039 17.7597
8121 2 5.48404 91.2917 19.0475
8074 2 8.21543 89.7213 19.0229
8090 2 10.0336 89.7396 16.453
1880 1 9.12162 91.3039 17.7597
8122 2 7.30275 91.312 16.4761
1903 1 0.934359 92.8751 17.7852
8109 2 2.75271 92.862 19.0734
8567 2 1.84113 94.4559 16.526
8566 2 0.0214092 94.432 19.1003
1861 1 6.3906 92.8751 17.7852
8123 2 4.57194 92.8841 16.5005
8549 2 5.47765 94.432 19.1003
2304 1 3.65958 94.446 17.8117
8073 2 8.20894 92.862 19.0734
8075 2 10.0282 92.8841 16.5005
8556 2 7.29737 94.4559 16.526
2278 1 9.11582 94.446 17.8117
8130 2 0.97189 77.1486 21.4701
1915 1 1.87507 78.7204 20.1898
1887 1 4.60532 77.1502 20.1845
8094 2 6.42813 77.1486 21.4701
8128 2 3.69752 78.717 21.4753
1836 1 10.0616 77.1502 20.1845
1885 1 7.33131 78.7204 20.1898
8095 2 9.15376 78.717 21.4753
8129 2 0.966022 80.2856 21.4834
1907 1 1.86873 81.8614 20.2091
1886 1 4.60029 80.2908 20.1979
8086 2 6.42226 80.2856 21.4834
8131 2 3.69014 81.8545 21.4947
1835 1 10.0565 80.2908 20.1979
1888 1 7.32497 81.8614 20.2091
8084 2 9.14638 81.8545 21.4947
8116 2 0.957683 83.4236 21.5089
1908 1 1.86112 85.0025 20.2401
1875 1 4.5931 83.432 20.2232
8085 2 6.41392 83.4236 21.5089
8114 2 3.68136 84.9927 21.5261
1834 1 10.0493 83.432 20.2232
1873 1 7.31736 85.0025 20.2401
8087 2 9.1376 84.9927 21.5261
8115 2 0.948847 86.5617 21.5461
1900 1 1.85353 88.143 20.2817
1874 1 4.5854 86.5729 20.2597
8071 2 6.40509 86.5617 21.5461
8117 2 3.67271 88.1305 21.5687
1827 1 10.0416 86.5729 20.2597
1876 1 7.30977 88.143 20.2817
8069 2 9.12895 88.1305 21.5687
8108 2 0.940488 89.6991 21.5934
1901 1 1.84634 91.2824 20.3316
1860 1 4.57801 89.7128 20.3058
8070 2 6.39673 89.6991 21.5934
8106 2 3.66464 91.2674 21.6198
1826 1 10.0342 89.7128 20.3058
1858 1 7.30258 91.2824 20.3316
8072 2 9.12088 91.2674 21.6198
8107 2 0.932675 92.8356 21.6475
2298 1 1.83944 94.4207 20.3869
1859 1 4.57098 92.8516 20.3588
8053 2 6.38891 92.8356 21.6475
8548 2 3.65704 94.4038 21.676
1811 1 10.0272 92.8516 20.3588
2277 1 7.29567 94.4207 20.3869
8501 2 9.11328 94.4038 21.676
1867 1 0.987942 77.1423 25.3117
1883 1 2.79551 77.1473 22.7472
1905 1 0.0642579 78.7141 22.7523
8127 2 1.88736 78.7092 24.0386
1830 1 6.44418 77.1423 25.3117
8082 2 4.61911 77.1448 24.0337
1865 1 3.71145 78.7047 25.316
1884 1 5.5205 78.7141 22.7523
1833 1 8.25175 77.1473 22.7472
8028 2 10.0754 77.1448 24.0337
1831 1 9.16769 78.7047 25.316
8080 2 7.3436 78.7092 24.0386
1866 1 0.977197 80.2681 25.3235
1871 1 2.78817 80.2814 22.7606
1906 1 0.0551942 81.8492 22.7721
8112 2 1.87687 81.8401 24.058
1822 1 6.43344 80.2681 25.3235
8081 2 4.61062 80.2743 24.0466
1868 1 3.69843 81.8326 25.3347
1869 1 5.51143 81.8492 22.7721
1832 1 8.24441 80.2814 22.7606
8027 2 10.0669 80.2743 24.0466
1820 1 9.15467 81.8326 25.3347
8083 2 7.3331 81.8401 24.058
1852 1 0.963172 83.3978 25.35
1870 1 2.77816 83.4172 22.7869
1898 1 0.0448967 84.9854 22.805
8113 2 1.86502 84.9727 24.0913
1821 1 6.41941 83.3978 25.35
8067 2 4.59905 83.4063 24.0728
1850 1 3.68444 84.9634 25.3695
1872 1 5.50114 84.9854 22.805
1825 1 8.2344 83.4172 22.7869
8026 2 10.0553 83.4063 24.0728
1823 1 9.14068 84.9634 25.3695
8065 2 7.32126 84.9727 24.0913
1851 1 0.949905 86.5289 25.3928
1856 1 2.76805 86.5535 22.8263
1899 1 0.0352165 88.1214 22.8503
8104 2 1.85402 88.1054 24.1376
1807 1 6.40614 86.5289 25.3928
8066 2 4.58748 86.5391 24.113
1853 1 3.67213 88.094 25.4195
1854 1 5.49145 88.1214 22.8503
1824 1 8.22429 86.5535 22.8263
8019 2 10.0437 86.5391 24.113
1805 1 9.12837 88.094 25.4195
8068 2 7.31026 88.1054 24.1376
1844 1 0.938509 89.6587 25.4488
1855 1 2.75885 89.6889 22.8766
1897 1 0.0264345 91.2561 22.9047
8105 2 1.84419 91.2372 24.1934
1806 1 6.39475 89.6587 25.4488
8052 2 4.5771 89.6713 24.1646
1842 1 3.66145 91.2231 25.4798
1857 1 5.48267 91.2561 22.9047
8050 2 7.30043 91.2372 24.1934
1808 1 9.11769 91.2231 25.4798
8018 2 10.0333 89.6713 24.1646
1810 1 8.21509 89.6889 22.8766
8534 2 1.83519 94.3693 24.2535
2297 1 0.0182313 94.3902 22.9639
1845 1 2.75039 92.8232 22.934
1843 1 0.928378 92.7874 25.5115
2266 1 5.47447 94.3902 22.9639
2265 1 3.65176 94.3522 25.5433
8051 2 4.56772 92.803 24.2232
1790 1 6.38462 92.7874 25.5115
8500 2 7.29142 94.3693 24.2535
2213 1 9.108 94.3522 25.5433
8004 2 10.024 92.803 24.2232
1809 1 8.20663 92.8232 22.934
8078 2 2.81235 77.1389 26.5996
1864 1 1.90464 78.691 27.8823
8110 2 0.0789192 78.6983 26.6032
8059 2 1.00847 77.1313 29.17
1818 1 4.63964 77.1345 27.8806
8079 2 5.53516 78.6983 26.6032
8022 2 6.46471 77.1313 29.17
8057 2 3.72878 78.6841 29.17
1770 1 10.0959 77.1345 27.8806
8025 2 8.26859 77.1389 26.5996
1816 1 7.36087 78.691 27.8823
8023 2 9.18502 78.6841 29.17
8063 2 2.80003 80.2589 26.61
1848 1 1.8859 81.8104 27.8972
8111 2 0.0639353 81.8208 26.6208
8058 2 0.990595 80.2388 29.1735
1817 1 4.62384 80.2498 27.8876
8061 2 5.52017 81.8208 26.6208
8014 2 6.44683 80.2388 29.1735
8060 2 3.70723 81.7956 29.1823
1769 1 10.0801 80.2498 27.8876
8024 2 8.25627 80.2589 26.61
1819 1 7.34214 81.8104 27.8972
8012 2 9.16347 81.7956 29.1823
8062 2 2.78391 83.3836 26.6359
1849 1 1.86665 84.9347 27.9335
8102 2 0.0479299 84.9468 26.6557
8044 2 0.967855 83.3539 29.1972
1803 1 4.604 83.3723 27.9126
8064 2 5.50417 84.9468 26.6557
8013 2 6.42409 83.3539 29.1972
8042 2 3.68547 84.9126 29.2187
1768 1 10.0602 83.3723 27.9126
8017 2 8.24015 83.3836 26.6359
1801 1 7.32289 84.9347 27.9335
8015 2 9.14171 84.9126 29.2187
8048 2 2.76879 86.51 26.6796
1840 1 1.85103 88.0583 27.9906
8103 2 0.034012 88.0729 26.7072
8043 2 0.948131 86.4713 29.246
1802 1 4.58651 86.4968 27.96
8046 2 5.49025 88.0729 26.7072
8000 2 6.40437 86.4713 29.246
1761 1 10.0428 86.4968 27.96
8016 2 8.22503 86.51 26.6796
1804 1 7.30726 88.0583 27.9906
8047 2 2.75598 89.6357 26.7373
1841 1 1.83821 91.1797 28.0583
8101 2 0.022105 91.1985 26.769
1789 1 4.5725 89.6191 28.0239
8049 2 5.47834 91.1985 26.769
1760 1 10.0287 89.6191 28.0239
8003 2 8.21222 89.6357 26.7373
1787 1 7.29445 91.1797 28.0583
8037 2 2.74479 92.7618 26.8012
2247 1 1.827 94.3038 28.1257
8533 2 0.0115702 94.3261 26.8332
1788 1 4.56051 92.7411 28.0925
8485 2 5.46781 94.3261 26.8332
1749 1 10.0168 92.7411 28.0925
8002 2 8.20102 92.7618 26.8012
2212 1 7.28324 94.3038 28.1257
1814 1 2.83974 77.1258 30.4583
1846 1 0.101347 78.6735 30.4547
8056 2 1.92567 78.6698 31.7419
8010 2 4.66472 77.1245 31.7477
1815 1 5.55759 78.6735 30.4547
1767 1 8.29598 77.1258 30.4583
7980 2 10.121 77.1245 31.7477
8008 2 7.38191 78.6698 31.7419
1799 1 2.81549 80.2253 30.4544
1847 1 0.0739251 81.7811 30.4605
8040 2 1.89362 81.7643 31.7409
8009 2 4.63862 80.2153 31.7364
1797 1 5.53016 81.7811 30.4605
1766 1 8.27173 80.2253 30.4544
7979 2 10.0949 80.2153 31.7364
8011 2 7.34986 81.7643 31.7409
1798 1 2.78699 83.3387 30.4751
1838 1 0.0465364 84.8968 30.499
8041 2 1.86378 84.8664 31.7789
7996 2 4.60548 83.3152 31.7539
1800 1 5.50277 84.8968 30.499
1759 1 8.24323 83.3387 30.4751
7978 2 10.0617 83.3152 31.7539
7994 2 7.32002 84.8664 31.7789
1785 1 2.76383 86.4538 30.5302
1839 1 0.0270195 88.0094 30.5666
8032 2 1.84193 87.9693 31.851
7995 2 4.57992 86.4179 31.8119
1783 1 5.48326 88.0094 30.5666
8045 2 3.668 88.0297 29.2778
1758 1 8.22007 86.4538 30.5302
7975 2 10.0362 86.4179 31.8119
7997 2 7.29817 87.9693 31.851
7998 2 9.12424 88.0297 29.2778
1784 1 2.74733 89.5643 30.6049
8036 2 0.932467 89.5882 29.3123
1837 1 0.0119507 91.1207 30.6423
8033 2 1.82537 91.0793 31.9293
7988 2 4.56117 89.5227 31.8909
7999 2 6.38871 89.5882 29.3123
1786 1 5.46819 91.1207 30.6423
8034 2 3.65372 91.1476 29.3475
1748 1 8.20357 89.5643 30.6049
7974 2 10.0174 89.5227 31.8909
7986 2 7.28161 91.0793 31.9293
8001 2 9.10996 91.1476 29.3475
1776 1 2.73352 92.6796 30.6778
8035 2 0.919344 92.7086 29.382
8463 2 1.81329 94.203 31.9987
7987 2 4.54688 92.6393 31.9653
7989 2 6.37558 92.7086 29.382
2197 1 5.45585 94.2415 30.7112
8484 2 3.64185 94.2716 29.4153
8428 2 7.26953 94.203 31.9987
5318 1 10.9121 94.2415 30.7112
1747 1 8.18976 92.6796 30.6778
7971 2 10.0031 92.6393 31.9653
8429 2 9.09809 94.2716 29.4153
1795 1 1.04507 77.1216 33.0467
8006 2 2.87432 77.1229 34.3334
8038 2 0.127575 78.6634 34.3224
1792 1 1.96408 78.6631 35.6442
1764 1 6.50131 77.1216 33.0467
1793 1 3.76155 78.6619 33.0432
8007 2 5.58381 78.6634 34.3224
1752 1 4.70549 77.1229 35.6411
7977 2 8.33056 77.1229 34.3334
1765 1 9.21779 78.6619 33.0432
1734 1 10.1617 77.1229 35.6411
1750 1 7.42032 78.6631 35.6442
1794 1 1.01033 80.1976 33.0337
7992 2 2.83263 80.1997 34.3046
8039 2 0.0752952 81.7288 34.29
1777 1 1.90648 81.7071 35.6255
1756 1 6.46656 80.1976 33.0337
1796 1 3.71524 81.7414 33.026
7990 2 5.53153 81.7288 34.29
1751 1 4.66806 80.2036 35.6592
7976 2 8.28887 80.1997 34.3046
1754 1 9.17148 81.7414 33.026
1733 1 10.1243 80.2036 35.6592
1753 1 7.36272 81.7071 35.6255
1781 1 0.964601 83.2936 33.0438
7991 2 2.78308 83.264 34.3021
8030 2 0.0334154 84.8006 34.3312
1778 1 1.83192 84.7422 35.6772
1755 1 6.42084 83.2936 33.0438
1779 1 3.67587 84.8432 33.0717
7993 2 5.48965 84.8006 34.3312
1741 1 4.57134 83.2025 35.6363
7973 2 8.23932 83.264 34.3021
1757 1 9.13211 84.8432 33.0717
1732 1 10.0276 83.2025 35.6363
1739 1 7.28816 84.7422 35.6772
1780 1 0.935865 86.3897 33.1119
7984 2 2.74933 86.3384 34.3787
8031 2 0.00914775 87.8815 34.4274
1771 1 1.81304 87.8061 35.7603
1745 1 6.3921 86.3897 33.1119
1782 1 3.65474 87.9345 33.1554
7982 2 5.46539 87.8815 34.4274
1740 1 4.55203 86.2605 35.7243
1742 1 7.26928 87.8061 35.7603
7972 2 8.20557 86.3384 34.3787
1743 1 9.11098 87.9345 33.1554
1731 1 10.0083 86.2605 35.7243
1775 1 0.917359 89.4836 33.1956
7983 2 2.72818 89.4313 34.4725
1772 1 1.80087 90.9209 35.827
7985 2 5.44904 90.9883 34.5126
1737 1 4.53463 89.3574 35.7964
1735 1 7.2571 90.9209 35.827
1744 1 6.3736 89.4836 33.1956
1773 1 3.63767 91.0376 33.233
11293 2 10.9053 90.9883 34.5126
1730 1 9.99087 89.3574 35.7964
1746 1 9.09391 91.0376 33.233
7970 2 8.18442 89.4313 34.4725
2175 1 1.79362 94.0645 35.8821
2196 1 3.62573 94.1622 33.298
7981 2 2.71527 92.551 34.5484
1774 1 0.902888 92.5975 33.2669
1736 1 4.52469 92.4902 35.8554
2146 1 7.24986 94.0645 35.8821
8413 2 5.43919 94.1187 34.5807
1738 1 6.35913 92.5975 33.2669
7969 2 8.17151 92.551 34.5484
11726 2 10.8954 94.1187 34.5807
2147 1 9.08197 94.1622 33.298
1729 1 9.98093 92.4902 35.8554
8182 2 1.11197 77.1398 36.918
13911 1 2.18414 75.6164 38.2495
8171 2 6.5682 77.1398 36.918
14296 1 4.90683 77.2055 38.2553
8180 2 3.82597 78.6802 36.8993
13881 1 7.64038 75.6164 38.2495
8172 2 9.2822 78.6802 36.8993
17124 1 10.3631 77.2055 38.2553
8181 2 1.04569 80.2238 36.8697
14297 1 2.18304 78.855 38.2453
8168 2 6.50193 80.2238 36.8697
14298 1 4.91523 80.5539 38.3104
8183 2 3.68539 81.7117 36.8652
14262 1 7.63928 78.855 38.2453
8166 2 9.14163 81.7117 36.8652
17122 1 10.3715 80.5539 38.3104
8178 2 0.916515 83.1934 36.8203
14293 1 2.1733 82.4037 38.385
8167 2 6.37275 83.1934 36.8203
14291 1 5.16503 84.1289 38.4322
8176 2 3.65436 84.6848 36.8814
14261 1 7.62954 82.4037 38.385
8169 2 9.1106 84.6848 36.8814
17123 1 10.6213 84.1289 38.4322
8177 2 0.911044 86.2136 36.9404
14292 1 2.6329 85.9408 38.329
8179 2 3.62602 87.7497 37.0033
8164 2 6.36728 86.2136 36.9404
14294 1 5.38673 87.5452 38.3617
14256 1 8.08914 85.9408 38.329
8162 2 9.08226 87.7497 37.0033
17120 1 10.843 87.5452 38.3617
8175 2 0.891981 89.3063 37.0504
14282 1 2.67309 89.1594 38.3881
8173 2 3.61477 90.8709 37.0906
8163 2 6.34822 89.3063 37.0504
14280 1 5.40912 90.7588 38.4094
14255 1 8.12933 89.1594 38.3881
8165 2 9.07101 90.8709 37.0906
17121 1 10.8654 90.7588 38.4094
8592 2 3.60962 94.0197 37.1561
8174 2 0.883439 92.443 37.1253
14281 1 2.68646 92.3561 38.4324
8161 2 6.33968 92.443 37.1253
14283 1 5.41763 93.9493 38.4559
8578 2 9.06586 94.0197 37.1561
14242 1 8.1427 92.3561 38.4324
17119 1 10.8739 93.9493 38.4559
19919 2 1.50269 77.2688 39.488
13909 1 0.624345 75.6589 40.7856
19509 2 2.49243 75.6504 42.0211
14295 1 3.36579 77.328 40.7688
19901 2 5.23188 77.3092 42.0052
13861 1 6.08058 75.6589 40.7856
19523 2 4.2189 75.627 39.5078
19908 2 6.95893 77.2688 39.488
14258 1 8.82203 77.328 40.7688
19473 2 7.94867 75.6504 42.0211
19475 2 9.67514 75.627 39.5078
22738 2 10.6881 77.3092 42.0052
19920 2 1.57078 80.6036 39.4169
19902 2 2.52446 78.981 41.9799
14289 1 0.678613 79.0182 40.7239
14287 1 3.48048 80.7095 40.633
19906 2 4.25439 78.9076 39.4583
19903 2 5.28357 80.6613 41.9477
14259 1 6.13485 79.0182 40.7239
19904 2 7.02702 80.6036 39.4169
14260 1 8.93672 80.7095 40.633
19857 2 7.9807 78.981 41.9799
19860 2 9.71063 78.9076 39.4583
22734 2 10.7398 80.6613 41.9477
19916 2 1.74089 84.2715 39.4393
14288 1 0.827414 82.4298 40.5637
19894 2 2.59511 82.3351 41.9445
14290 1 3.55021 84.0168 40.7032
19905 2 4.35573 82.3975 39.3837
14253 1 6.28365 82.4298 40.5637
19892 2 5.35927 83.9988 41.9766
19907 2 7.19713 84.2715 39.4393
22735 2 10.8155 83.9988 41.9766
14251 1 9.00645 84.0168 40.7032
19856 2 8.05135 82.3351 41.9445
19859 2 9.81197 82.3975 39.3837
19917 2 1.77807 87.5234 39.5717
14278 1 0.801539 85.681 40.8587
19893 2 2.65765 85.6764 42.0487
14276 1 3.54765 87.3328 40.8977
19898 2 4.50151 85.9029 39.5142
14252 1 6.25778 85.681 40.8587
19895 2 5.40224 87.3378 42.107
19896 2 7.23431 87.5234 39.5717
22730 2 10.8585 87.3378 42.107
14254 1 9.00389 87.3328 40.8977
19849 2 8.11389 85.6764 42.0487
19858 2 9.95775 85.9029 39.5142
19912 2 1.78319 90.7245 39.6545
14277 1 0.840069 88.9792 40.9273
19880 2 2.68306 88.9669 42.1569
14279 1 3.58049 90.6043 40.9583
19897 2 4.51072 89.1263 39.6144
14239 1 6.29631 88.9792 40.9273
19878 2 5.41605 90.5856 42.1993
19899 2 7.23943 90.7245 39.6545
22731 2 10.8723 90.5856 42.1993
14237 1 9.03673 90.6043 40.9583
19848 2 8.1393 88.9669 42.1569
19851 2 9.96695 89.1263 39.6144
19913 2 1.78446 93.9107 39.7197
14270 1 0.859789 92.2231 40.9864
19879 2 2.69102 92.1969 42.2366
14268 1 3.59334 93.8334 41.0121
14238 1 6.31603 92.2231 40.9864
19881 2 5.42117 93.8038 42.2701
19884 2 4.51213 92.3179 39.6886
19882 2 7.2407 93.9107 39.7197
22729 2 10.8774 93.8038 42.2701
14240 1 9.04958 93.8334 41.0121
19834 2 8.14726 92.1969 42.2366
19850 2 9.96837 92.3179 39.6886
14285 1 1.64065 77.343 43.2519
19507 2 0.744036 75.6581 44.5324
19900 2 3.47793 77.3189 44.5243
13845 1 2.5963 75.6581 45.7813
13859 1 4.35366 75.6652 43.2751
19454 2 6.20027 75.6581 44.5324
14257 1 7.09689 77.343 43.2519
14244 1 5.32757 77.3153 45.7759
17104 1 10.7838 77.3153 45.7759
19853 2 8.93417 77.3189 44.5243
13811 1 9.8099 75.6652 43.2751
13809 1 8.05254 75.6581 45.7813
14286 1 1.67829 80.6671 43.2003
19890 2 0.761067 78.9765 44.514
19888 2 3.50742 80.6271 44.5093
14245 1 2.60614 78.9645 45.7729
14249 1 4.39092 79.0128 43.2163
19854 2 6.21731 78.9765 44.514
14247 1 7.13453 80.6671 43.2003
14246 1 5.34548 80.6027 45.7804
17092 1 10.8017 80.6027 45.7804
14196 1 9.84716 79.0128 43.2163
19855 2 8.96366 80.6271 44.5093
14193 1 8.06238 78.9645 45.7729
14274 1 1.72695 83.9224 43.26
19889 2 0.80151 82.2735 44.5196
19891 2 3.55161 83.9166 44.5461
14231 1 2.63246 82.2359 45.7963
14248 1 4.42956 82.2902 43.2242
19846 2 6.25775 82.2735 44.5196
14250 1 7.18319 83.9224 43.26
14229 1 5.37651 83.8658 45.8246
17093 1 10.8328 83.8658 45.8246
14195 1 9.8858 82.2902 43.2242
19844 2 9.00784 83.9166 44.5461
14192 1 8.08869 82.2359 45.7963
14275 1 1.75795 87.2073 43.3886
19876 2 0.840179 85.5591 44.589
19874 2 3.58355 87.2024 44.6404
14230 1 2.66452 85.4951 45.8625
14235 1 4.47935 85.5609 43.3119
19845 2 6.29642 85.5591 44.589
14233 1 7.21419 87.2073 43.3886
14232 1 5.40476 87.1269 45.9103
17084 1 10.861 87.1269 45.9103
14194 1 9.93558 85.5609 43.3119
19847 2 9.03979 87.2024 44.6404
14185 1 8.12075 85.4951 45.8625
14266 1 1.76682 90.4837 43.4863
19875 2 0.864875 88.8406 44.6904
19877 2 3.59908 90.4698 44.7352
14234 1 4.48837 88.8493 43.446
19831 2 6.32111 88.8406 44.6904
14236 1 7.22306 90.4837 43.4863
14187 1 9.94461 88.8493 43.446
19829 2 9.05532 90.4698 44.7352
14267 1 1.77791 93.7305 43.5535
19868 2 0.875055 92.091 44.7754
19866 2 3.60609 93.707 44.8116
14220 1 4.50115 92.1105 43.5216
19830 2 6.33129 92.091 44.7754
14218 1 7.23414 93.7305 43.5535
19832 2 9.06232 93.707 44.8116
14186 1 9.95738 92.1105 43.5216
19886 2 1.704 77.3047 47.0604
13843 1 0.815139 75.6515 48.3196
14243 1 3.54467 77.2926 48.3224
13792 1 6.27138 75.6515 48.3196
19452 2 4.42874 75.6552 47.0612
19852 2 7.16024 77.3047 47.0604
14189 1 9.00091 77.2926 48.3224
19413 2 9.88498 75.6552 47.0612
14227 1 0.820417 78.93 48.3297
19887 2 1.72183 80.5893 47.0695
14225 1 3.55499 80.5634 48.3421
14190 1 6.27666 78.93 48.3297
19842 2 4.43918 78.9496 47.0623
19840 2 7.17807 80.5893 47.0695
14191 1 9.01122 80.5634 48.3421
19794 2 9.89542 78.9496 47.0623
14226 1 0.835833 82.193 48.3607
19872 2 1.74769 83.857 47.11
14228 1 3.5744 83.8199 48.3861
14182 1 6.29207 82.193 48.3607
19841 2 4.4625 82.2246 47.085
19843 2 7.20392 83.857 47.11
14180 1 9.03064 83.8199 48.3861
19793 2 9.91874 82.2246 47.085
14212 1 0.857317 85.4459 48.4181
19873 2 1.77078 87.12 47.1845
14210 1 3.59517 87.0718 48.4558
14181 1 6.31356 85.4459 48.4181
19827 2 4.48817 85.4885 47.1443
19825 2 7.22702 87.12 47.1845
14183 1 9.0514 87.0718 48.4558
19792 2 9.94441 85.4885 47.1443
14211 1 0.874964 88.6982 48.4976
19864 2 1.78608 90.3795 47.2712
14213 1 3.60871 90.3248 48.5408
14216 1 2.6844 88.7608 45.962
14167 1 6.3312 88.6982 48.4976
14214 1 5.41706 90.3928 46.0096
19826 2 4.50771 88.751 47.228
19828 2 7.24232 90.3795 47.2712
17085 1 10.8733 90.3928 46.0096
14165 1 9.06494 90.3248 48.5408
19785 2 9.96395 88.751 47.228
14184 1 8.14064 88.7608 45.962
14204 1 0.884413 91.9502 48.5824
14215 1 2.6925 92.0207 46.0509
19865 2 1.79383 93.6242 47.3496
14202 1 3.61535 93.5732 48.6211
14166 1 6.34065 91.9502 48.5824
14217 1 5.42391 93.644 46.0876
19813 2 4.5187 92.0039 47.3118
19811 2 7.25007 93.6242 47.3496
17083 1 10.8802 93.644 46.0876
14168 1 9.07159 93.5732 48.6211
14170 1 8.14874 92.0207 46.0509
19784 2 9.97494 92.0039 47.3118
14223 1 1.75308 77.2786 50.8781
19440 2 2.6441 75.6513 49.6067
19438 2 0.851417 75.6489 52.1622
19836 2 3.581 77.2771 52.166
19837 2 5.37449 77.2888 49.6095
13790 1 4.47999 75.6482 50.8738
14188 1 7.20932 77.2786 50.8781
19402 2 6.30766 75.6489 52.1622
22705 2 10.8307 77.2888 49.6095
13760 1 9.93623 75.6482 50.8738
19411 2 8.10034 75.6513 49.6067
19787 2 9.03724 77.2771 52.166
14224 1 1.75993 80.5346 50.9019
19838 2 2.65084 78.9238 49.6165
19819 2 0.855783 78.9041 52.1745
19817 2 3.58809 80.5295 52.1878
14178 1 4.48385 78.9075 50.8875
19839 2 5.38537 80.5557 49.6284
14176 1 7.21617 80.5346 50.9019
19788 2 6.31202 78.9041 52.1745
22690 2 10.8416 80.5557 49.6284
14136 1 9.94009 78.9075 50.8875
19791 2 8.10708 78.9238 49.6165
19789 2 9.04433 80.5295 52.1878
14208 1 1.77264 83.7834 50.9453
19823 2 2.66508 82.1846 49.6463
19818 2 0.865155 82.1534 52.2061
19820 2 3.59915 83.7759 52.229
14177 1 4.49383 82.1598 50.9211
19821 2 5.4018 83.8114 49.6704
14179 1 7.22888 83.7834 50.9453
19780 2 6.32139 82.1534 52.2061
22691 2 10.858 83.8114 49.6704
14135 1 9.95007 82.1598 50.9211
19790 2 8.12132 82.1846 49.6463
19778 2 9.05538 83.7759 52.229
14209 1 1.78746 87.0283 51.007
19822 2 2.68227 85.4372 49.7003
19803 2 3.61135 87.0191 52.2871
19805 2 0.877172 85.3977 52.2562
14163 1 4.50827 85.406 50.9741
19824 2 5.41847 87.0626 49.7348
14161 1 7.2437 87.0283 51.007
19779 2 6.33341 85.3977 52.2562
22682 2 10.8747 87.0626 49.7348
14134 1 9.96451 85.406 50.9741
19783 2 8.1385 85.4372 49.7003
19781 2 9.06758 87.0191 52.2871
19806 2 3.6219 90.2611 52.3563
19804 2 0.888841 88.6402 52.3208
14200 1 1.79937 90.2728 51.0812
19809 2 2.6974 88.6877 49.7725
19769 2 6.34508 88.6402 52.3208
14162 1 4.52212 88.6506 51.0431
19807 2 5.43136 90.3122 49.8115
14164 1 7.25561 90.2728 51.0812
22683 2 10.8876 90.3122 49.8115
19767 2 9.07814 90.2611 52.3563
14128 1 9.97836 88.6506 51.0431
19782 2 8.15364 88.6877 49.7725
19797 2 3.62943 93.5006 52.4287
19799 2 0.897943 91.8813 52.3925
14201 1 1.80653 93.5157 51.1578
19808 2 2.7078 91.9352 49.8504
19768 2 6.35418 91.8813 52.3925
14151 1 4.53161 91.8947 51.1199
19810 2 5.43935 93.556 49.8879
14149 1 7.26277 93.5157 51.1578
19770 2 9.08567 93.5006 52.4287
22681 2 10.8956 93.556 49.8879
14127 1 9.98785 91.8947 51.1199
19772 2 8.16403 91.9352 49.8504
19815 2 1.78252 77.2693 54.7265
13780 1 2.68292 75.6471 53.4345
14173 1 5.41199 77.27 53.4387
19400 2 4.50966 75.6482 54.7227
19786 2 7.23876 77.2693 54.7265
17042 1 10.8682 77.27 53.4387
13758 1 8.13916 75.6471 53.4345
19393 2 9.9659 75.6482 54.7227
14174 1 2.68587 78.8923 53.4481
19816 2 1.78745 80.5101 54.7481
14175 1 5.41705 80.5138 53.4622
19776 2 4.51264 78.8901 54.735
19774 2 7.24368 80.5101 54.7481
17026 1 10.8733 80.5138 53.4622
14133 1 8.14211 78.8923 53.4481
19758 2 9.96888 78.8901 54.735
14159 1 2.693 82.1345 53.4808
19801 2 1.79537 83.7483 54.787
14157 1 5.42598 83.7545 53.5036
19775 2 4.51925 82.1295 54.7655
19777 2 7.25161 83.7483 54.787
17027 1 10.8822 83.7545 53.5036
14132 1 8.14924 82.1345 53.4808
19757 2 9.97548 82.1295 54.7655
14158 1 2.70323 85.374 53.5301
19802 2 1.80458 86.9847 54.8404
19763 2 7.26082 86.9847 54.8404
14160 1 5.43681 86.9932 53.5599
19765 2 4.52806 85.3666 54.8122
17018 1 10.893 86.9932 53.5599
19756 2 9.98429 85.3666 54.8122
14126 1 8.15947 85.374 53.5301
19795 2 1.81321 90.2205 54.904
14147 1 2.71389 88.6123 53.5925
19766 2 7.26944 90.2205 54.904
19764 2 4.53719 88.6027 54.8713
14145 1 5.44663 90.2314 53.627
17019 1 10.9029 90.2314 53.627
19755 2 9.99343 88.6027 54.8713
14125 1 8.17013 88.6123 53.5925
19796 2 1.81999 93.4553 54.9723
14146 1 2.72239 91.8503 53.6627
19761 2 4.54499 91.8381 54.9379
14148 1 5.45362 93.4689 53.6987
19759 2 7.27623 93.4553 54.9723
19754 2 10.0012 91.8381 54.9379
14119 1 8.17863 91.8503 53.6627
17017 1 10.9099 93.4689 53.6987
14471 1 1.8076 77.2615 58.5649
13778 1 0.882153 75.6473 55.9977
19719 2 2.70815 75.6486 57.2852
14172 1 3.61102 77.2646 56.0015
20104 2 5.43697 77.2645 57.2886
14075 1 4.53513 75.6484 58.5616
13753 1 6.33839 75.6473 55.9977
14460 1 7.26384 77.2615 58.5649
14129 1 9.06725 77.2646 56.0015
14027 1 9.99137 75.6484 58.5616
19689 2 8.16439 75.6486 57.2852
22932 2 10.8932 77.2645 57.2886
14155 1 0.884469 78.8818 56.0101
14472 1 1.81074 80.4876 58.5847
20105 2 2.71032 78.8803 57.2965
14153 1 3.61495 80.4987 56.0233
14130 1 6.34071 78.8818 56.0101
14458 1 4.53698 78.8745 58.5727
20106 2 5.44061 80.4959 57.3088
14456 1 7.26698 80.4876 58.5847
14412 1 9.99321 78.8745 58.5727
14131 1 9.07119 80.4987 56.0233
20070 2 8.16656 78.8803 57.2965
22930 2 10.8969 80.4959 57.3088
14154 1 0.889907 82.1155 56.0406
14468 1 1.81608 83.7141 58.6201
20101 2 2.71526 82.1113 57.325
14156 1 3.62168 83.732 56.0618
14457 1 4.54131 82.1008 58.6006
14123 1 6.34615 82.1155 56.0406
20099 2 5.44662 83.7266 57.345
14459 1 7.27232 83.7141 58.6201
14411 1 9.99755 82.1008 58.6006
14121 1 9.07792 83.732 56.0618
20069 2 8.1715 82.1113 57.325
22931 2 10.9029 83.7266 57.345
14143 1 0.897612 85.3483 56.0863
14469 1 1.8227 86.941 58.6685
20100 2 2.72204 85.3417 57.3683
14141 1 3.62995 86.9647 56.1138
14450 1 4.54742 85.3275 58.6429
14122 1 6.35385 85.3483 56.0863
20102 2 5.45384 86.9569 57.3945
14448 1 7.27894 86.941 58.6685
14410 1 10.0037 85.3275 58.6429
14124 1 9.08619 86.9647 56.1138
20064 2 8.17828 85.3417 57.3683
22928 2 10.9101 86.9569 57.3945
14142 1 0.905986 88.581 56.1438
14464 1 1.8294 90.1685 58.7264
20109 2 0.00474784 90.1872 57.4537
20090 2 2.72938 88.572 57.4231
14144 1 3.63799 90.1974 56.1758
14449 1 4.55423 88.5547 58.6965
14116 1 6.36222 88.581 56.1438
20088 2 5.46099 90.1872 57.4537
14403 1 10.0105 88.5547 58.6965
14451 1 7.28564 90.1685 58.7264
14114 1 9.09423 90.1974 56.1758
20063 2 8.18562 88.572 57.4231
14139 1 0.913327 91.8137 56.2091
14465 1 1.83515 93.3965 58.7903
20107 2 0.0107933 93.4173 57.5184
20089 2 2.73607 91.8023 57.4856
14137 1 3.64439 93.4299 56.2432
14436 1 4.56056 91.7825 58.7578
14115 1 6.36957 91.8137 56.2091
20091 2 5.46703 93.4173 57.5184
14402 1 10.0168 91.7825 58.7578
14434 1 7.29139 93.3965 58.7903
14117 1 9.10063 93.4299 56.2432
20050 2 8.19231 91.8023 57.4856
14061 1 2.73009 75.6502 61.1253
19717 2 0.904259 75.6498 59.8481
20103 2 3.6329 77.2616 59.8511
20093 2 1.82715 77.26 62.4133
14470 1 0.00242834 77.2597 61.1281
14453 1 5.45867 77.2597 61.1281
19669 2 6.3605 75.6498 59.8481
19667 2 4.55488 75.6517 62.4107
20066 2 9.08914 77.2616 59.8511
14025 1 8.18633 75.6502 61.1253
20065 2 7.28339 77.26 62.4133
19619 2 10.0111 75.6517 62.4107
14454 1 2.73157 78.8693 61.1351
14466 1 0.00499731 80.4791 61.146
20097 2 0.905912 78.8734 59.8583
20095 2 3.63573 80.4853 59.8696
20094 2 1.82944 80.4768 62.4301
14455 1 5.46124 80.4791 61.146
20067 2 6.36215 78.8734 59.8583
20057 2 4.55618 78.8683 62.4198
14409 1 8.18781 78.8693 61.1351
20068 2 9.09197 80.4853 59.8696
20004 2 10.0124 78.8683 62.4198
20055 2 7.28568 80.4768 62.4301
14446 1 2.73512 82.0891 61.1606
14467 1 0.00938798 83.6994 61.1787
20096 2 0.909802 82.0972 59.8846
20082 2 1.83338 83.6944 62.4612
20098 2 3.64051 83.7091 59.9031
14444 1 5.46563 83.6994 61.1787
20061 2 6.36604 82.0972 59.8846
20056 2 4.55936 82.0855 62.444
14408 1 8.19136 82.0891 61.1606
20059 2 9.09674 83.7091 59.9031
20003 2 10.0156 82.0855 62.444
20058 2 7.28962 83.6944 62.4612
14445 1 2.74017 85.3099 61.1999
14462 1 0.0148832 86.9208 61.2239
20086 2 0.915251 85.3213 59.9248
20083 2 1.83835 86.9131 62.5044
14447 1 5.47112 86.9208 61.2239
20060 2 6.37149 85.3213 59.9248
20084 2 3.64639 86.9336 59.9492
20043 2 4.5639 85.3036 62.4815
14401 1 8.19641 85.3099 61.1999
20062 2 9.10263 86.9336 59.9492
20002 2 10.0201 85.3036 62.4815
20041 2 7.29459 86.9131 62.5044
14432 1 2.74589 88.5319 61.2502
14463 1 0.0206143 90.1433 61.2785
20085 2 0.921338 88.546 59.9761
20074 2 1.84362 90.1331 62.5571
14430 1 5.47685 90.1433 61.2785
20047 2 6.37758 88.546 59.9761
20087 2 3.65245 90.1586 60.0048
20042 2 4.56911 88.523 62.5298
14400 1 8.20213 88.5319 61.2502
20045 2 9.10868 90.1586 60.0048
19995 2 10.0254 88.523 62.5298
20044 2 7.29986 90.1331 62.5571
14431 1 2.75143 91.7549 61.3084
14461 1 0.0257945 93.3668 61.3396
20078 2 0.927147 91.7714 60.0351
14433 1 5.48203 93.3668 61.3396
20046 2 6.38339 91.7714 60.0351
20076 2 3.65785 93.3843 60.0666
20028 2 4.57427 91.7436 62.5861
14386 1 8.20767 91.7549 61.3084
20048 2 9.11409 93.3843 60.0666
19994 2 10.0305 91.7436 62.5861
20092 2 0.0200414 77.2591 64.9746
14059 1 0.923654 75.6525 63.6887
19653 2 2.74787 75.6541 64.9724
14452 1 3.65212 77.2589 63.6911
20052 2 5.47628 77.2591 64.9746
14006 1 6.37989 75.6525 63.6887
14405 1 9.10836 77.2589 63.6911
19617 2 8.20411 75.6541 64.9724
14442 1 0.924841 78.8654 63.6974
20053 2 2.7489 78.8642 64.9804
20080 2 0.0219327 80.4695 64.9899
14406 1 6.38108 78.8654 63.6974
14440 1 3.65425 80.4722 63.7074
20054 2 5.47817 80.4695 64.9899
14407 1 9.11048 80.4722 63.7074
20001 2 8.20514 78.8642 64.9804
14441 1 0.927811 82.0792 63.7209
20039 2 2.75158 82.0751 65.0028
20081 2 0.0252948 83.681 65.0189
14398 1 6.38405 82.0792 63.7209
14443 1 3.65795 83.6866 63.7378
20037 2 5.48153 83.681 65.0189
14396 1 9.11418 83.6866 63.7378
20000 2 8.20781 82.0751 65.0028
14428 1 0.932094 85.2944 63.7577
20038 2 2.7555 85.2874 65.038
20072 2 0.0296328 86.8941 65.0598
14397 1 6.38833 85.2944 63.7577
14426 1 3.66265 86.9026 63.7802
20040 2 5.48587 86.8941 65.0598
14399 1 9.11889 86.9026 63.7802
19993 2 8.21174 85.2874 65.038
14427 1 0.937048 88.5112 63.8052
20024 2 2.7601 88.5013 65.0839
20073 2 0.0343566 90.109 65.11
14383 1 6.39329 88.5112 63.8052
14429 1 3.66768 90.1201 63.8322
20022 2 5.4906 90.109 65.11
14381 1 9.12392 90.1201 63.8322
19992 2 8.21634 88.5013 65.0839
14420 1 0.942 91.7295 63.8609
20023 2 2.7648 91.7172 65.1379
20071 2 0.038912 93.3257 65.1671
20075 2 1.84852 93.3543 62.6163
14382 1 6.39824 91.7295 63.8609
14418 1 3.67241 93.3392 63.8909
20025 2 5.49515 93.3257 65.1671
19978 2 8.22104 91.7172 65.1379
20026 2 7.30476 93.3543 62.6163
14384 1 9.12865 93.3392 63.8909
14438 1 1.84433 77.2588 66.2549
19651 2 0.939519 75.6569 67.5323
14437 1 0.0352661 77.2594 68.8229
13992 1 2.76319 75.659 68.8211
20051 2 3.66784 77.2586 67.5341
14004 1 4.57219 75.6553 66.2528
19600 2 6.39576 75.6569 67.5323
14389 1 5.4915 77.2594 68.8229
14404 1 7.30056 77.2588 66.2549
19997 2 9.12408 77.2586 67.5341
13965 1 10.0284 75.6553 66.2528
13963 1 8.21943 75.659 68.8211
14439 1 1.84608 80.4662 66.2698
20035 2 0.940325 78.8605 67.5394
14390 1 2.76395 78.86 68.8282
14422 1 0.0367516 80.4608 68.8369
14394 1 4.57313 78.8623 66.2605
19998 2 6.39656 78.8605 67.5394
20033 2 3.66943 80.4625 67.5482
14391 1 5.49299 80.4608 68.8369
14346 1 10.0294 78.8623 66.2605
14392 1 7.30232 80.4662 66.2698
19999 2 9.12566 80.4625 67.5482
14343 1 8.22019 78.86 68.8282
14424 1 1.84925 83.6749 66.2983
20034 2 0.942631 82.065 67.5603
14375 1 2.76611 82.062 68.8489
14423 1 0.039515 83.6636 68.864
14393 1 4.57564 82.0703 66.2825
19990 2 6.39887 82.065 67.5603
20036 2 3.67237 83.6678 67.5755
14373 1 5.49575 83.6636 68.864
14345 1 10.0319 82.0703 66.2825
14395 1 7.30549 83.6749 66.2983
19988 2 9.12861 83.6678 67.5755
14342 1 8.22235 82.062 68.8489
14425 1 1.85337 86.8854 66.3386
20020 2 0.946123 85.2712 67.5936
14374 1 2.76938 85.2658 68.8819
14414 1 0.0431839 86.8686 68.9026
14379 1 4.57935 85.2799 66.3171
19989 2 6.40236 85.2712 67.5936
20018 2 3.67629 86.8751 67.6143
14376 1 5.49942 86.8686 68.9026
14344 1 10.0356 85.2799 66.3171
14377 1 7.30961 86.8854 66.3386
19991 2 9.13253 86.8751 67.6143
14335 1 8.22562 85.2658 68.8819
14416 1 1.8579 90.098 66.3884
20019 2 0.950343 88.4796 67.6374
14361 1 2.77333 88.472 68.9255
14415 1 0.0472979 90.0761 68.9505
14378 1 4.58374 88.4914 66.3625
19975 2 6.40658 88.4796 67.6374
20021 2 3.68069 90.0848 67.6626
14359 1 5.50354 90.0761 68.9505
14337 1 10.04 88.4914 66.3625
14380 1 7.31414 90.098 66.3884
19973 2 9.13692 90.0848 67.6626
14334 1 8.22957 88.472 68.9255
14417 1 1.86231 93.3127 66.4451
20012 2 0.954785 91.6906 67.6895
14360 1 2.7775 91.6809 68.9773
14413 1 0.0514023 93.2864 69.0056
14365 1 4.58827 91.7051 66.4161
19974 2 6.41102 91.6906 67.6895
20010 2 3.68506 93.297 67.7179
14362 1 5.50764 93.2864 69.0056
14336 1 10.0445 91.7051 66.4161
14363 1 7.31855 93.3127 66.4451
19976 2 9.1413 93.297 67.7179
14324 1 8.23373 91.6809 68.9773
20031 2 1.85895 77.2574 70.0884
13990 1 0.950466 75.6618 71.4054
14388 1 3.67875 77.259 71.4071
13954 1 6.4067 75.6618 71.4054
19598 2 4.58688 75.6592 70.0867
14339 1 9.13499 77.259 71.4071
19996 2 7.31519 77.2574 70.0884
19568 2 10.0431 75.6592 70.0867
14371 1 0.951127 78.8563 71.4122
20032 2 1.86043 80.4544 70.1021
14340 1 6.40737 78.8563 71.4122
14369 1 3.68005 80.4539 71.4207
19986 2 4.58764 78.8557 70.0936
14341 1 9.13629 80.4539 71.4207
19944 2 10.0439 78.8557 70.0936
19984 2 7.31667 80.4544 70.1021
14370 1 0.95302 82.0519 71.4323
20016 2 1.86318 83.653 70.1285
14332 1 6.40926 82.0519 71.4323
14372 1 3.68247 83.6505 71.4469
19985 2 4.58979 82.0534 70.1138
14330 1 9.13871 83.6505 71.4469
19943 2 10.046 82.0534 70.1138
19987 2 7.31942 83.653 70.1285
14357 1 0.955885 85.2498 71.4643
20017 2 1.86684 86.8542 70.1662
14331 1 6.41212 85.2498 71.4643
14355 1 3.68569 86.8498 71.4843
19971 2 4.59305 85.2532 70.1461
14333 1 9.14193 86.8498 71.4843
19942 2 10.0493 85.2532 70.1461
19969 2 7.32308 86.8542 70.1662
14356 1 0.959354 88.4506 71.5066
20008 2 1.87096 90.0584 70.2132
14321 1 6.41559 88.4506 71.5066
14358 1 3.68931 90.0523 71.531
19970 2 4.59699 88.4559 70.1887
14319 1 9.14554 90.0523 71.531
19936 2 10.0532 88.4559 70.1887
19972 2 7.3272 90.0584 70.2132
14351 1 0.96302 91.6549 71.5571
20009 2 1.87509 93.2662 70.2673
14320 1 6.41926 91.6549 71.5571
14349 1 3.69293 93.2584 71.5846
19959 2 4.60117 91.6618 70.2395
14322 1 9.14917 93.2584 71.5846
19935 2 10.0574 91.6618 70.2395
19957 2 7.33133 93.2662 70.2673
14367 1 1.83496 77.2607 74.0657
20030 2 0.0477174 77.2552 72.6295
19586 2 0.948359 75.6641 75.1182
19588 2 2.77565 75.6609 72.6278
19980 2 3.6766 77.2549 75.1198
19981 2 5.50396 77.2552 72.6295
13952 1 4.56308 75.6665 74.0641
19561 2 6.4046 75.6641 75.1182
14338 1 7.2912 77.2607 74.0657
19937 2 9.13284 77.2549 75.1198
13945 1 10.0193 75.6665 74.0641
19566 2 8.23189 75.6609 72.6278
14368 1 1.83495 80.4499 74.0791
19963 2 0.948847 78.846 75.1246
19982 2 2.77639 78.8496 72.6345
20014 2 0.0491649 80.4444 72.6428
14328 1 4.56308 78.8551 74.0708
19938 2 6.40509 78.846 75.1246
19961 2 3.67756 80.4376 75.1325
19983 2 5.5054 80.4444 72.6428
14310 1 10.0193 78.8551 74.0708
14326 1 7.29119 80.4499 74.0791
19939 2 9.1338 80.4376 75.1325
19941 2 8.23263 78.8496 72.6345
14353 1 1.83494 83.6413 74.1051
19962 2 0.950241 82.0299 75.1435
19967 2 2.77849 82.0398 72.6542
20015 2 0.0518538 83.6358 72.6685
14327 1 4.56307 82.0453 74.0906
19931 2 6.40648 82.0299 75.1435
19964 2 3.67934 83.623 75.1573
19965 2 5.50809 83.6358 72.6685
14309 1 10.0193 82.0453 74.0906
14329 1 7.29118 83.6413 74.1051
19929 2 9.13558 83.623 75.1573
19940 2 8.23473 82.0398 72.6542
14354 1 1.83492 86.836 74.1422
19951 2 0.952337 85.2172 75.1738
19966 2 2.78167 85.2327 72.6857
20006 2 0.0554185 86.8305 72.7053
14317 1 4.56305 85.2382 74.1224
19930 2 6.40858 85.2172 75.1738
19949 2 3.68168 86.8125 75.1928
19968 2 5.51166 86.8305 72.7053
14308 1 10.0193 85.2382 74.1224
14315 1 7.29116 86.836 74.1422
19932 2 9.13792 86.8125 75.1928
19934 2 8.23791 85.2327 72.6857
14347 1 1.83485 90.0347 74.1885
19950 2 0.95484 88.4091 75.2141
19955 2 2.78551 88.4293 72.7273
20007 2 0.059414 90.0293 72.7513
14316 1 4.56302 88.4348 74.1644
19924 2 6.41108 88.4091 75.2141
19952 2 3.68426 90.0071 75.2373
19953 2 5.51565 90.0293 72.7513
14307 1 10.0193 88.4348 74.1644
14318 1 7.29109 90.0347 74.1885
19922 2 9.1405 90.0071 75.2373
19933 2 8.24175 88.4293 72.7273
14348 1 1.83466 93.2377 74.2418
19947 2 0.95742 91.6064 75.2623
19954 2 2.78955 91.6303 72.777
20005 2 0.0634084 93.2326 72.8043
19956 2 5.51965 93.2326 72.8043
14313 1 4.5629 91.6356 74.2144
19923 2 6.41366 91.6064 75.2623
19945 2 3.68676 93.2072 75.2887
19927 2 8.24579 91.6303 72.777
19925 2 9.143 93.2072 75.2887
14311 1 7.2909 93.2377 74.2418
14306 1 10.0191 91.6356 74.2144
2111 1 1.85497 94.5974 -2.88205
8361 2 0.924981 96.1843 -1.41827
8369 2 2.74937 96.2061 -3.91609
8376 2 0.0231032 94.6226 -3.93697
2098 1 4.5798 96.1802 -2.86065
8331 2 6.38122 96.1843 -1.41827
8367 2 3.65417 94.6025 -1.43974
8368 2 5.47934 94.6226 -3.93697
2052 1 10.036 96.1802 -2.86065
2100 1 7.31121 94.5974 -2.88205
8330 2 9.11041 94.6025 -1.43974
8334 2 8.20561 96.2061 -3.91609
2112 1 1.84829 97.7621 -2.83834
8360 2 0.92283 99.3452 -1.37279
8365 2 2.74559 99.3698 -3.87182
8374 2 0.0193731 97.7885 -3.89433
2097 1 4.57294 99.3431 -2.81528
8325 2 6.37907 99.3452 -1.37279
8359 2 3.65203 97.7653 -1.39591
8370 2 5.47561 97.7885 -3.89433
2051 1 10.0292 99.3431 -2.81528
2096 1 7.30453 97.7621 -2.83834
8332 2 9.10826 97.7653 -1.39591
8333 2 8.20183 99.3698 -3.87182
2108 1 1.84131 100.923 -2.79162
8350 2 0.92067 102.502 -1.32491
8364 2 2.74175 102.529 -3.82517
8375 2 0.0155508 100.95 -3.84872
2090 1 4.56589 102.502 -2.76751
8324 2 6.37691 102.502 -1.32491
8362 2 3.64987 100.924 -1.34907
8363 2 5.47179 100.95 -3.84872
2050 1 10.0221 102.502 -2.76751
2099 1 7.29755 100.923 -2.79162
8323 2 9.10611 100.924 -1.34907
8328 2 8.19799 102.529 -3.82517
2109 1 1.83423 104.08 -2.7431
8349 2 0.9185 105.656 -1.27587
8354 2 2.73792 105.684 -3.77732
8372 2 0.0117076 104.107 -3.80133
2089 1 4.55884 105.658 -2.71856
8311 2 6.37474 105.656 -1.27587
8348 2 3.64771 104.079 -1.30046
8366 2 5.46795 104.107 -3.80133
2043 1 10.0151 105.658 -2.71856
2088 1 7.29047 104.08 -2.7431
8326 2 9.10394 104.079 -1.30046
8327 2 8.19416 105.684 -3.77732
2104 1 1.82727 107.234 -2.694
8342 2 0.916314 108.805 -1.22678
8353 2 2.73416 108.835 -3.72935
8373 2 0.00790461 107.26 -3.75329
2076 1 4.552 108.809 -2.66957
8310 2 6.37255 108.805 -1.22678
8351 2 3.64553 107.231 -1.25126
8352 2 5.46414 107.26 -3.75329
2042 1 10.0082 108.809 -2.66957
2091 1 7.2835 107.234 -2.694
8309 2 9.10177 107.231 -1.25126
8314 2 8.19039 108.835 -3.72935
2105 1 1.82058 110.384 -2.64538
8341 2 0.914115 111.952 -1.17867
8343 2 2.73052 111.981 -3.68226
8371 2 0.00419839 110.408 -3.70564
2075 1 4.54552 111.958 -2.62156
8293 2 6.37035 111.952 -1.17867
8340 2 3.64333 110.379 -1.20255
8355 2 5.46044 110.408 -3.70564
2027 1 10.0018 111.958 -2.62156
2074 1 7.27682 110.384 -2.64538
8312 2 9.09957 110.379 -1.20255
8313 2 8.18676 111.981 -3.68226
2082 1 0.928123 96.1413 2.39322
2094 1 2.74659 96.1647 -0.198414
2110 1 0.0198517 94.5835 -0.220031
8357 2 1.8373 94.5765 1.10876
2046 1 6.38436 96.1413 2.39322
2092 1 3.65759 94.5616 2.37108
2093 1 5.47609 94.5835 -0.220031
8321 2 4.56422 96.157 1.13064
2045 1 9.11382 94.5616 2.37108
2049 1 8.20283 96.1647 -0.198414
8268 2 10.0205 96.157 1.13064
8329 2 7.29354 94.5765 1.10876
2081 1 0.925351 99.2987 2.4401
2086 1 2.74375 99.3246 -0.15258
2106 1 0.0170598 97.745 -0.175878
8358 2 1.83487 97.7366 1.15342
2038 1 6.38159 99.2987 2.4401
2080 1 3.65487 97.7204 2.41628
2095 1 5.4733 97.745 -0.175878
8320 2 4.56175 99.3154 1.17697
2047 1 9.11111 97.7204 2.41628
2048 1 8.19999 99.3246 -0.15258
8267 2 10.018 99.3154 1.17697
8319 2 7.29111 97.7366 1.15342
2068 1 0.922486 102.453 2.48937
2085 1 2.74084 102.481 -0.104329
2107 1 0.0141821 100.903 -0.128678
8346 2 1.83237 100.893 1.2011
2037 1 6.37872 102.453 2.48937
2083 1 3.65205 100.876 2.46451
2084 1 5.47042 100.903 -0.128678
8307 2 4.55921 102.471 1.22567
2036 1 9.10829 100.876 2.46451
2041 1 8.19708 102.481 -0.104329
8266 2 10.0155 102.471 1.22567
8322 2 7.28861 100.893 1.2011
2067 1 0.919557 105.605 2.53975
2072 1 2.7379 105.634 -0.0548944
2102 1 0.0112533 104.058 -0.0796847
8347 2 1.82981 104.047 1.25052
2023 1 6.37579 105.605 2.53975
2066 1 3.64915 104.03 2.51449
2087 1 5.46749 104.058 -0.0796847
8306 2 4.55663 105.623 1.27551
2039 1 9.10539 104.03 2.51449
2040 1 8.19414 105.634 -0.0548944
8259 2 10.0129 105.623 1.27551
8305 2 7.28605 104.047 1.25052
2071 1 2.73495 108.785 -0.00543356
2103 1 0.00830233 107.21 -0.0300994
8338 2 1.82721 107.198 1.30048
2069 1 3.6462 107.18 2.56498
2070 1 5.46454 107.21 -0.0300994
8292 2 4.55401 108.773 1.32531
2021 1 9.10243 107.18 2.56498
2026 1 8.19119 108.785 -0.00543356
8258 2 10.0103 108.773 1.32531
8308 2 7.28344 107.198 1.30048
2061 1 2.73202 111.932 0.0430219
2101 1 0.00536085 110.359 0.0189785
8339 2 1.82458 110.347 1.34987
2073 1 5.4616 110.359 0.0189785
8291 2 4.55139 111.92 1.37405
2025 1 8.18826 111.932 0.0430219
8243 2 10.0076 111.92 1.37405
8290 2 7.28082 110.347 1.34987
2078 1 1.84027 94.5416 4.94722
8317 2 2.74715 96.1325 3.69327
8356 2 0.0204082 94.5536 3.67095
2034 1 4.56691 96.1199 4.96991
8316 2 5.47665 94.5536 3.67095
1980 1 10.0231 96.1199 4.96991
2044 1 7.29651 94.5416 4.94722
8265 2 8.20339 96.1325 3.69327
2079 1 1.83728 97.6976 4.99352
8303 2 2.74431 99.2886 3.74048
8344 2 0.0176241 97.7109 3.7165
2033 1 4.56365 99.275 5.0186
8318 2 5.47386 97.7109 3.7165
1979 1 10.0199 99.275 5.0186
2032 1 7.29352 97.6976 4.99352
8264 2 8.20055 99.2886 3.74048
2064 1 1.83389 100.852 5.04355
8302 2 2.74137 102.442 3.79002
8345 2 0.0147312 100.866 3.76504
2019 1 4.5604 102.428 5.06889
8301 2 5.47097 100.866 3.76504
1978 1 10.0166 102.428 5.06889
2035 1 7.29013 100.852 5.04355
8257 2 8.19761 102.442 3.79002
2065 1 1.83066 104.003 5.09447
8288 2 2.73836 105.593 3.84061
8336 2 0.0117537 104.018 3.81526
2018 1 4.55715 105.578 5.12013
8304 2 5.46799 104.018 3.81526
1971 1 10.0134 105.578 5.12013
2017 1 7.2869 104.003 5.09447
8256 2 8.1946 105.593 3.84061
2060 1 0.916592 108.755 2.59006
2056 1 1.82738 107.153 5.14572
8287 2 2.73531 108.742 3.89106
8337 2 0.00872049 107.168 3.86592
2022 1 6.37283 108.755 2.59006
2004 1 4.55386 108.727 5.17111
8286 2 5.46496 107.168 3.86592
1970 1 10.0101 108.727 5.17111
2020 1 7.28362 107.153 5.14572
8242 2 8.19155 108.742 3.89106
2059 1 0.913635 111.903 2.63925
2057 1 1.8241 110.301 5.19617
8277 2 2.73228 111.89 3.94033
8335 2 0.005672 110.316 3.9159
2005 1 6.36987 111.903 2.63925
2058 1 3.64323 110.329 2.61485
2003 1 4.55059 111.875 5.22079
8289 2 5.46191 110.316 3.9159
2024 1 9.09947 110.329 2.61485
1956 1 10.0068 111.875 5.22079
2002 1 7.28034 110.301 5.19617
8241 2 8.18852 111.89 3.94033
2030 1 2.7486 96.1002 7.54373
2077 1 0.022132 94.5234 7.52034
8295 2 1.84095 94.5146 8.80919
8299 2 0.929303 96.1109 6.26186
2029 1 5.47837 94.5234 7.52034
8250 2 4.56732 96.0906 8.83277
8262 2 6.38554 96.1109 6.26186
8315 2 3.65897 94.5334 6.23897
1977 1 8.20484 96.1002 7.54373
8208 2 10.0236 96.0906 8.83277
8260 2 7.29719 94.5146 8.80919
8261 2 9.11521 94.5334 6.23897
2015 1 2.74514 99.2524 7.59314
2062 1 0.0188022 97.6766 7.56805
8296 2 1.83741 97.6663 8.85721
8298 2 0.926111 99.2644 6.31019
2031 1 5.47504 97.6766 7.56805
8249 2 4.5637 99.2416 8.88229
8254 2 6.38235 99.2644 6.31019
8297 2 3.65582 97.6879 6.28567
1976 1 8.20138 99.2524 7.59314
8207 2 10.0199 99.2416 8.88229
8248 2 7.29364 97.6663 8.85721
8263 2 9.11206 97.6879 6.28567
2014 1 2.7416 102.403 7.64459
2063 1 0.0152873 100.828 7.61873
8280 2 1.83372 100.817 8.90788
8284 2 0.922731 102.416 6.36072
2013 1 5.47153 100.828 7.61873
8235 2 4.55996 102.391 8.93376
8253 2 6.37897 102.416 6.36072
8300 2 3.65254 100.84 6.3353
1969 1 8.19784 102.403 7.64459
8206 2 10.0162 102.391 8.93376
8251 2 7.28996 100.817 8.90788
8252 2 9.10878 100.84 6.3353
2000 1 2.73796 105.552 7.69661
2054 1 0.0116634 103.978 7.67059
8281 2 1.82994 103.966 8.95977
8283 2 0.919316 105.566 6.41201
2016 1 5.4679 103.978 7.67059
8234 2 4.55615 105.54 8.98574
8239 2 6.37555 105.566 6.41201
8282 2 3.64915 103.991 6.38634
1968 1 8.1942 105.552 7.69661
8200 2 10.0124 105.54 8.98574
8233 2 7.28617 103.966 8.95977
8255 2 9.10538 103.991 6.38634
1999 1 2.73432 108.701 7.74809
2055 1 0.00801688 107.127 7.72248
8272 2 1.82614 107.114 9.01155
8276 2 0.915896 108.714 6.46293
1998 1 5.46426 107.127 7.72248
8223 2 4.55239 108.687 9.03706
8238 2 6.37213 108.714 6.46293
8285 2 3.64572 107.14 6.43758
1955 1 8.19056 108.701 7.74809
8199 2 10.0086 108.687 9.03706
8236 2 7.28238 107.114 9.01155
8237 2 9.10196 107.14 6.43758
1989 1 2.73077 111.848 7.79805
2053 1 0.00441254 110.274 7.77331
8273 2 1.82243 110.261 9.06217
8275 2 0.912532 111.862 6.51248
2001 1 5.46065 110.274 7.77331
8222 2 4.54875 111.835 9.08677
8224 2 6.36877 111.862 6.51248
8274 2 3.64232 110.288 6.48793
1954 1 8.18701 111.848 7.79805
8192 2 10.005 111.835 9.08677
8221 2 7.27867 110.261 9.06217
8240 2 9.09856 110.288 6.48793
2011 1 0.930156 96.0808 10.1167
8246 2 2.74876 96.0707 11.4049
8278 2 0.0186037 97.645 11.4301
1974 1 6.38639 96.0808 10.1167
2028 1 3.66014 94.5055 10.0925
8247 2 5.47484 97.645 11.4301
1973 1 9.11637 94.5055 10.0925
8205 2 8.205 96.0707 11.4049
2010 1 0.926308 99.2305 10.1673
8231 2 2.74466 99.2191 11.4558
8279 2 0.0144536 100.793 11.482
1966 1 6.38255 99.2305 10.1673
2009 1 3.65638 97.6558 10.1417
8229 2 5.47069 100.793 11.482
2012 1 3.65246 100.805 10.1934
1975 1 9.11262 97.6558 10.1417
8204 2 8.2009 99.2191 11.4558
1964 1 9.1087 100.805 10.1934
1996 1 0.922344 102.379 10.2197
8230 2 2.74047 102.367 11.5083
8270 2 0.0102567 103.94 11.5347
1965 1 6.37858 102.379 10.2197
8232 2 5.4665 103.94 11.5347
1994 1 3.64845 103.953 10.2461
8198 2 8.19671 102.367 11.5083
1967 1 9.10469 103.953 10.2461
1995 1 0.918325 105.527 10.2724
8219 2 2.73629 105.514 11.5609
8271 2 0.00611786 107.087 11.5869
1952 1 6.37456 105.527 10.2724
8217 2 5.46236 107.087 11.5869
1997 1 3.64445 107.101 10.2985
8197 2 8.19253 105.514 11.5609
1950 1 9.10069 107.101 10.2985
1988 1 0.914366 108.674 10.3243
8218 2 2.73223 108.661 11.6125
8269 2 0.00214846 110.234 11.6376
1951 1 6.3706 108.674 10.3243
8220 2 5.45839 110.234 11.6376
1986 1 3.64056 110.248 10.3496
8191 2 8.18846 108.661 11.6125
1953 1 9.0968 110.248 10.3496
1987 1 0.910568 111.822 10.3743
8212 2 2.72837 111.808 11.6622
2412 1 3.63687 113.395 10.3984
1941 1 6.36681 111.822 10.3743
8653 2 5.45467 113.382 11.6861
8190 2 8.18461 111.808 11.6622
2357 1 9.09311 113.395 10.3984
11966 2 10.9109 113.382 11.6861
1958 1 2.7484 96.0402 15.2639
8227 2 0.929801 96.05 13.9781
1990 1 0.017787 97.6124 15.2906
2008 1 1.83733 97.6348 12.7157
1962 1 4.56762 96.0611 12.6899
8202 2 6.38604 96.05 13.9781
1959 1 5.47403 97.6124 15.2906
8225 2 3.65559 97.623 14.0041
1929 1 8.20463 96.0402 15.2639
1932 1 10.0239 96.0611 12.6899
1960 1 7.29357 97.6348 12.7157
8203 2 9.11183 97.623 14.0041
1944 1 2.74341 99.1846 15.3177
8226 2 0.925126 99.1958 14.0305
1991 1 0.0127995 100.757 15.3449
1992 1 1.83292 100.781 12.7687
1961 1 4.56325 99.2082 12.742
8195 2 6.38136 99.1958 14.0305
1942 1 5.46904 100.757 15.3449
8228 2 3.6509 100.769 14.0573
1928 1 8.19965 99.1846 15.3177
1931 1 10.0195 99.2082 12.742
1963 1 7.28916 100.781 12.7687
8193 2 9.10714 100.769 14.0573
1943 1 2.73845 102.329 15.3722
8215 2 0.920448 102.341 14.0841
1982 1 0.00791037 103.901 15.3992
1993 1 1.82849 103.928 12.8222
1948 1 4.55882 102.355 12.7954
8194 2 6.37669 102.341 14.0841
1945 1 5.46415 103.901 15.3992
8213 2 3.64626 103.914 14.1108
1925 1 8.19469 102.329 15.3722
1930 1 10.0151 102.355 12.7954
8196 2 9.1025 103.914 14.1108
1946 1 7.28472 103.928 12.8222
1936 1 2.73367 105.474 15.4259
8214 2 0.915884 105.487 14.1372
1983 1 0.00326941 107.047 15.4522
1984 1 1.82415 107.074 12.875
1947 1 4.55441 105.501 12.8488
8188 2 6.37212 105.487 14.1372
1934 1 5.45951 107.047 15.4522
8216 2 3.64181 107.06 14.1633
1924 1 8.18991 105.474 15.4259
1927 1 10.0107 105.501 12.8488
8186 2 9.09804 107.06 14.1633
1949 1 7.28038 107.074 12.875
1935 1 2.7292 108.62 15.478
8211 2 0.911563 108.634 14.1889
1985 1 1.82003 110.221 12.9261
1940 1 4.55017 108.648 12.9008
8187 2 6.3678 108.634 14.1889
1937 1 5.45524 110.194 15.5031
8209 2 3.63765 110.207 14.214
5053 1 10.9115 110.194 15.5031
1938 1 7.27626 110.221 12.9261
8189 2 9.09388 110.207 14.214
1922 1 8.18544 108.62 15.478
1926 1 10.0064 108.648 12.9008
1933 1 2.72515 111.768 15.5275
8210 2 0.907585 111.781 14.2384
8652 2 3.63386 113.355 14.2621
2391 1 1.81622 113.369 12.9746
2341 1 5.45142 113.342 15.5511
1939 1 4.5462 111.795 12.9507
8185 2 6.36382 111.781 14.2384
2356 1 7.27246 113.369 12.9746
1921 1 8.18139 111.768 15.5275
5462 1 10.9077 113.342 15.5511
8609 2 9.0901 113.355 14.2621
1923 1 10.0024 111.795 12.9507
8550 2 2.74639 96.0021 19.1279
2302 1 0.928578 96.0169 17.839
8568 2 1.83576 97.5992 16.5793
8562 2 0.015185 97.5723 19.1558
8554 2 4.56656 96.0276 16.5524
2279 1 6.38482 96.0169 17.839
8551 2 5.47142 97.5723 19.1558
2300 1 3.65383 97.5877 17.8667
8505 2 8.20263 96.0021 19.1279
8508 2 10.0228 96.0276 16.5524
8552 2 7.292 97.5992 16.5793
2280 1 9.11006 97.5877 17.8667
2301 1 0.922865 99.1585 17.8946
8542 2 2.74028 99.1427 19.1838
8564 2 1.83047 100.742 16.6338
8563 2 0.00923842 100.713 19.2116
8553 2 4.56122 99.1708 16.6065
2275 1 6.3791 99.1585 17.8946
2303 1 3.64819 100.73 17.9224
8540 2 5.46548 100.713 19.2116
8504 2 8.19652 99.1427 19.1838
8507 2 10.0175 99.1708 16.6065
8555 2 7.2867 100.742 16.6338
2273 1 9.10443 100.73 17.9224
2295 1 0.91736 102.301 17.9501
8541 2 2.73455 102.285 19.2392
8565 2 1.82538 103.887 16.688
8546 2 4.55601 102.314 16.661
2274 1 6.3736 102.301 17.9501
2293 1 3.64286 103.873 17.9773
8497 2 8.19079 102.285 19.2392
8506 2 10.0122 102.314 16.661
2276 1 9.0991 103.873 17.9773
8544 2 7.28162 103.887 16.688
2294 1 0.912245 105.445 18.0041
8560 2 1.82066 107.032 16.7406
8545 2 4.55109 105.459 16.7146
2263 1 6.36848 105.445 18.0041
2296 1 3.638 107.018 18.0303
8499 2 10.0073 105.459 16.7146
8547 2 7.2769 107.032 16.7406
2261 1 9.09424 107.018 18.0303
2288 1 0.907661 108.591 18.0558
8561 2 1.81642 110.179 16.791
2286 1 3.63371 110.165 18.0806
2262 1 6.3639 108.591 18.0558
8532 2 4.5466 108.605 16.7661
8530 2 7.27265 110.179 16.791
8498 2 10.0028 108.605 16.7661
2264 1 9.08995 110.165 18.0806
2287 1 0.903669 111.739 18.1046
8975 2 1.81269 113.328 16.8385
2688 1 3.63001 113.314 18.1279
2245 1 6.35991 111.739 18.1046
8531 2 4.54261 111.753 16.8151
8964 2 7.26892 113.328 16.8385
8483 2 9.99884 111.753 16.8151
2662 1 9.08625 113.314 18.1279
8538 2 0.925272 95.9722 21.7049
2299 1 1.83276 97.5592 20.4443
2271 1 4.56418 95.9899 20.4155
8502 2 6.38151 95.9722 21.7049
8536 2 3.64986 97.541 21.7338
2220 1 10.0204 95.9899 20.4155
2269 1 7.289 97.5592 20.4443
8503 2 9.1061 97.541 21.7338
8537 2 0.918365 99.1103 21.7625
2291 1 1.82646 100.699 20.5013
2270 1 4.55767 99.1288 20.473
8494 2 6.3746 99.1103 21.7625
8539 2 3.64329 100.68 21.7908
2219 1 10.0139 99.1288 20.473
2272 1 7.2827 100.699 20.5013
8492 2 9.09953 100.68 21.7908
8558 2 0.00375675 103.856 19.2663
8524 2 0.912187 102.251 21.8185
2292 1 1.82077 103.841 20.5565
8543 2 5.46 103.856 19.2663
2259 1 4.55165 102.27 20.5292
8493 2 6.36843 102.251 21.8185
8522 2 3.63755 103.823 21.8455
2218 1 10.0079 102.27 20.5292
2257 1 7.27701 103.841 20.5565
8495 2 9.09379 103.823 21.8455
8528 2 2.72936 105.429 19.2929
8523 2 0.906906 105.395 21.8718
2284 1 1.81584 106.986 20.609
8525 2 3.63274 106.968 21.8974
8526 2 5.45513 107.002 19.3188
2258 1 4.54632 105.413 20.5831
8479 2 6.36314 105.395 21.8718
2260 1 7.27208 106.986 20.609
8496 2 8.1856 105.429 19.2929
2211 1 10.0026 105.413 20.5831
8477 2 9.08897 106.968 21.8974
11823 2 10.9114 107.002 19.3188
8527 2 2.72483 108.575 19.344
8516 2 0.902551 108.542 21.9222
2285 1 1.8117 110.134 20.6584
8514 2 3.62882 110.117 21.9461
8529 2 5.45094 110.149 19.3685
2244 1 4.54179 108.56 20.6341
8478 2 6.35879 108.542 21.9222
2242 1 7.26794 110.134 20.6584
8482 2 8.18107 108.575 19.344
2210 1 9.99803 108.56 20.6341
8480 2 9.08506 110.117 21.9461
11821 2 10.9072 110.149 19.3685
8517 2 2.72099 111.724 19.3922
8515 2 0.899046 111.693 21.9693
2682 1 1.80831 113.285 20.7046
8956 2 3.62569 113.269 21.9916
2243 1 4.53804 111.709 20.6819
8461 2 6.35528 111.693 21.9693
8957 2 5.44742 113.299 19.4151
2661 1 7.26455 113.285 20.7046
8481 2 8.17722 111.724 19.3922
2195 1 9.99428 111.709 20.6819
8909 2 9.08193 113.269 21.9916
12238 2 10.9037 113.299 19.4151
2251 1 0.919169 95.9178 25.5745
2267 1 2.74243 95.9575 22.9939
2289 1 0.0105516 97.5254 23.0237
8535 2 1.82702 97.5037 24.3135
2214 1 6.37541 95.9178 25.5745
8490 2 4.5591 95.9361 24.2837
2249 1 3.64313 97.4845 25.605
2268 1 5.46679 97.5254 23.0237
2217 1 8.19867 95.9575 22.9939
8436 2 10.0153 95.9361 24.2837
2215 1 9.09936 97.4845 25.605
8488 2 7.28326 97.5037 24.3135
2250 1 0.911206 99.0526 25.6345
2255 1 2.73511 99.094 23.053
2290 1 0.0036626 100.663 23.0816
8520 2 1.82 100.642 24.3711
2252 1 3.63592 100.622 25.663
2206 1 6.36744 99.0526 25.6345
8489 2 4.55147 99.0723 24.3427
2253 1 5.4599 100.663 23.0816
2216 1 8.19135 99.094 23.053
8435 2 10.0077 99.0723 24.3427
2204 1 9.09215 100.622 25.663
8491 2 7.27624 100.642 24.3711
2236 1 0.904781 102.193 25.6905
2254 1 2.72872 102.234 23.1095
8521 2 1.81428 103.785 24.4254
2234 1 3.63027 103.765 25.7169
2205 1 6.36102 102.193 25.6905
8475 2 4.54509 102.213 24.3987
2256 1 5.45405 103.805 23.1365
8473 2 7.27052 103.785 24.4254
2209 1 8.18496 102.234 23.1095
8434 2 10.0013 102.213 24.3987
2207 1 9.08651 103.765 25.7169
5354 1 10.9103 103.805 23.1365
2235 1 0.899872 105.338 25.7424
2240 1 2.72342 105.378 23.1627
8512 2 1.80981 106.932 24.4761
2237 1 3.62604 106.913 25.767
2191 1 6.35611 105.338 25.7424
8474 2 4.54002 105.358 24.4512
2238 1 5.4493 106.951 23.1881
8476 2 7.26605 106.932 24.4761
5355 1 10.9055 106.951 23.1881
2208 1 8.17966 105.378 23.1627
8427 2 9.99625 105.358 24.4512
2189 1 9.08228 106.913 25.767
2228 1 0.896262 108.488 25.7907
2239 1 2.71919 108.525 23.2126
8513 2 1.80642 110.083 24.5235
2226 1 3.62298 110.065 25.8136
2190 1 6.3525 108.488 25.7907
8460 2 4.53611 108.507 24.5002
2241 1 5.44556 110.101 23.2362
8458 2 7.26266 110.083 24.5235
5353 1 10.9018 110.101 23.2362
2194 1 8.17543 108.525 23.2126
8426 2 9.99235 108.507 24.5002
2192 1 9.07922 110.065 25.8136
2227 1 0.893676 111.642 25.8356
2229 1 2.7159 111.677 23.2591
8942 2 1.80389 113.237 24.5676
2649 1 3.6208 113.22 25.8569
2174 1 6.34991 111.642 25.8356
8459 2 4.53318 111.66 24.546
2650 1 5.44267 113.253 23.2811
8908 2 7.26013 113.237 24.5676
5753 1 10.8989 113.253 23.2811
2597 1 9.07704 113.22 25.8569
2193 1 8.17214 111.677 23.2591
8412 2 9.98942 111.66 24.546
8486 2 2.73499 95.8917 26.8645
2248 1 1.81775 97.4347 28.1881
8518 2 0.00262483 97.4587 26.8948
2202 1 4.55021 95.8683 28.1576
8487 2 5.45886 97.4587 26.8948
2200 1 7.27398 97.4347 28.1881
2154 1 10.0064 95.8683 28.1576
8433 2 8.19123 95.8917 26.8645
8471 2 2.72698 99.0272 26.9241
2232 1 1.81078 100.573 28.2449
2201 1 4.5421 99.0031 28.2171
8469 2 5.4518 100.597 26.9522
2203 1 7.26701 100.573 28.2449
2153 1 9.99834 99.0031 28.2171
8432 2 8.18321 99.0272 26.9241
11783 2 10.908 100.597 26.9522
8470 2 2.72085 102.169 26.9792
2233 1 1.80587 103.719 28.297
2187 1 4.53621 102.146 28.2715
8472 2 5.44655 103.742 27.0052
2185 1 7.26211 103.719 28.297
11774 2 10.9028 103.742 27.0052
2152 1 9.99245 102.146 28.2715
8425 2 8.17709 102.169 26.9792
8456 2 2.71639 105.316 27.0303
2224 1 1.80259 106.871 28.3451
2186 1 4.53217 105.294 28.3215
8454 2 5.4428 106.892 27.0544
2188 1 7.25882 106.871 28.3451
11775 2 10.899 106.892 27.0544
2145 1 9.98841 105.294 28.3215
8424 2 8.17263 105.316 27.0303
8455 2 2.71326 108.468 27.0777
2225 1 1.80048 110.026 28.3898
2173 1 4.52953 108.448 28.3679
8457 2 5.44021 110.046 27.1001
2171 1 7.25672 110.026 28.3898
11773 2 10.8964 110.046 27.1001
2144 1 9.98577 108.448 28.3679
8411 2 8.1695 108.468 27.0777
8445 2 2.71113 111.624 27.1218
2631 1 1.7992 113.186 28.4316
2172 1 4.52787 111.606 28.4111
8893 2 5.43846 113.203 27.1427
2596 1 7.25544 113.186 28.4316
2133 1 9.98411 111.606 28.4111
8410 2 8.16737 111.624 27.1218
12205 2 10.8947 113.203 27.1427
2198 1 2.72283 95.8065 30.7424
8467 2 0.90884 95.8369 29.447
8464 2 1.80541 97.3397 32.059
8465 2 3.63279 97.4044 29.4771
8418 2 4.537 95.7699 32.0298
8430 2 6.36508 95.8369 29.447
2199 1 5.4469 97.3744 30.7719
8416 2 7.26165 97.3397 32.059
5302 1 10.9031 97.3744 30.7719
2151 1 8.17907 95.8065 30.7424
8388 2 9.99324 95.7699 32.0298
8431 2 9.08903 97.4044 29.4771
2183 1 2.71552 98.9448 30.7997
8466 2 0.901183 98.974 29.5058
8448 2 1.80069 100.487 32.1124
8468 2 3.62643 100.546 29.5331
8417 2 4.53084 98.9121 32.0864
8422 2 6.35742 98.974 29.5058
2181 1 5.44106 100.518 30.8261
8419 2 7.25693 100.487 32.1124
5303 1 10.8973 100.518 30.8261
2150 1 8.17176 98.9448 30.7997
8387 2 9.98708 98.9121 32.0864
8420 2 9.08267 100.546 29.5331
2182 1 2.71094 102.092 30.8514
8452 2 0.895978 102.119 29.5592
8449 2 1.7981 103.641 32.1612
8450 2 3.62222 103.694 29.5842
8404 2 4.52731 102.063 32.1373
8421 2 6.35222 102.119 29.5592
2184 1 5.43754 103.668 30.8757
8402 2 7.25434 103.641 32.1612
5294 1 10.8938 103.668 30.8757
2143 1 8.16718 102.092 30.8514
8386 2 9.98354 102.063 32.1373
8423 2 9.07846 103.694 29.5842
2169 1 2.70829 105.246 30.899
8451 2 0.892623 105.27 29.6082
8440 2 1.79687 106.801 32.2064
8453 2 3.61959 106.848 29.6314
8403 2 4.52547 105.22 32.1842
8408 2 6.34886 105.27 29.6082
2167 1 5.43559 106.825 30.9215
8405 2 7.25311 106.801 32.2064
5295 1 10.8918 106.825 30.9215
2142 1 8.16453 105.246 30.899
8383 2 9.98171 105.22 32.1842
8406 2 9.07582 106.848 29.6314
2168 1 2.70691 108.405 30.9433
8444 2 0.890578 108.427 29.6538
8441 2 1.7965 109.964 32.2486
8442 2 3.61803 110.006 29.6754
8396 2 4.52473 108.382 32.2278
8407 2 6.34682 108.427 29.6538
2170 1 5.43466 109.986 30.9644
8394 2 7.25274 109.964 32.2486
5293 1 10.8909 109.986 30.9644
2132 1 8.16315 108.405 30.9433
8382 2 9.98096 108.382 32.2278
8409 2 9.07427 110.006 29.6754
2160 1 2.70634 111.567 30.9848
8443 2 0.889427 111.587 29.6963
8871 2 1.79665 113.131 32.2883
8892 2 3.61721 113.168 29.7165
8395 2 4.52465 111.547 32.2688
8397 2 6.34567 111.587 29.6963
2581 1 5.43438 113.149 31.0045
8836 2 7.25289 113.131 32.2883
2131 1 8.16258 111.567 30.9848
8379 2 9.98089 111.547 32.2688
5702 1 10.8906 113.149 31.0045
8837 2 9.07345 113.168 29.7165
2179 1 0.893564 95.731 33.3271
8414 2 2.70806 95.6903 34.6103
2177 1 3.61869 97.303 33.3544
2148 1 6.3498 95.731 33.3271
8415 2 5.43408 97.265 34.6378
2136 1 4.51991 95.6418 35.9078
11710 2 10.8903 97.265 34.6378
8385 2 8.1643 95.6903 34.6103
2149 1 9.07493 97.303 33.3544
2118 1 9.97615 95.6418 35.9078
2180 1 3.61505 100.454 33.405
2178 1 0.888423 98.8777 33.3802
8400 2 2.70457 98.8422 34.6638
8398 2 5.43182 100.421 34.6885
2140 1 6.34466 98.8777 33.3802
11711 2 10.8881 100.421 34.6885
2138 1 9.07129 100.454 33.405
8384 2 8.1608 98.8422 34.6638
2163 1 3.61348 103.613 33.4516
2165 1 0.885954 102.033 33.4287
8399 2 2.70323 102.002 34.7121
8401 2 5.43117 103.584 34.7349
2139 1 6.34219 102.033 33.4287
11702 2 10.8874 103.584 34.7349
2141 1 9.06972 103.613 33.4516
8381 2 8.15946 102.002 34.7121
8392 2 2.70311 105.167 34.7569
2164 1 0.885071 105.194 33.4738
2166 1 3.61312 106.776 33.4954
2129 1 6.34131 105.194 33.4738
8390 2 5.43146 106.751 34.7783
11703 2 10.8877 106.751 34.7783
8380 2 8.15935 105.167 34.7569
2127 1 9.06936 106.776 33.4954
2157 1 3.61346 109.943 33.5366
2159 1 0.885109 108.359 33.5162
8391 2 2.70369 108.336 34.7991
8393 2 5.43225 109.921 34.8193
2128 1 6.34135 108.359 33.5162
11701 2 10.8885 109.921 34.8193
2130 1 9.0697 109.943 33.5366
8378 2 8.15993 108.336 34.7991
8389 2 2.70464 111.506 34.8389
2158 1 0.885667 111.527 33.5563
2580 1 3.61418 113.112 33.5754
2122 1 6.34191 111.527 33.5563
8821 2 5.43332 113.092 34.8579
2531 1 9.07042 113.112 33.5754
12134 2 10.8896 113.092 34.8579
8377 2 8.16088 111.506 34.8389
8590 2 0.880482 95.5998 37.1843
14271 1 2.6916 95.5413 38.4792
8588 2 3.6082 97.1822 37.2106
2176 1 1.79072 97.2214 35.9325
8579 2 6.33672 95.5998 37.1843
14656 1 5.42126 97.1321 38.5024
2134 1 7.24696 97.2214 35.9325
14241 1 8.14784 95.5413 38.4792
8580 2 9.06444 97.1822 37.2106
17484 1 10.8775 97.1321 38.5024
8589 2 0.880114 98.7662 37.2354
14657 1 2.69452 98.7225 38.5251
2161 1 1.79015 100.385 35.9794
8591 2 3.60856 100.351 37.2591
8576 2 6.33635 98.7662 37.2354
2135 1 4.51836 98.8028 35.9563
14658 1 5.42392 100.313 38.5474
2137 1 7.24639 100.385 35.9794
14622 1 8.15075 98.7225 38.5251
2117 1 9.9746 98.8028 35.9563
8574 2 9.06479 100.351 37.2591
17482 1 10.8802 100.313 38.5474
8586 2 0.880965 101.938 37.282
14653 1 2.69707 101.903 38.5692
2162 1 1.79077 103.554 36.0237
8584 2 3.60976 103.524 37.3041
8575 2 6.3372 101.938 37.282
2125 1 4.51848 101.969 36.0018
14651 1 5.42644 103.492 38.5906
2123 1 7.24701 103.554 36.0237
14621 1 8.15331 101.903 38.5692
2116 1 9.97472 101.969 36.0018
8577 2 9.066 103.524 37.3041
17483 1 10.8827 103.492 38.5906
8585 2 0.882409 105.112 37.3256
14652 1 2.69957 105.082 38.6116
2155 1 1.79199 106.725 36.0658
8587 2 3.61137 106.699 37.3466
8572 2 6.33865 105.112 37.3256
2124 1 4.51945 105.139 36.045
14654 1 5.42893 106.673 38.6321
2126 1 7.24823 106.725 36.0658
14616 1 8.15581 105.082 38.6116
2115 1 9.97569 105.139 36.045
8570 2 9.06761 106.699 37.3466
17480 1 10.8852 106.673 38.6321
8583 2 0.884128 108.287 37.3669
14642 1 2.70202 108.263 38.6522
2156 1 1.7935 109.898 36.1058
8581 2 3.61315 109.876 37.3868
8571 2 6.34037 108.287 37.3669
14640 1 5.43133 109.853 38.6718
2121 1 4.52084 108.311 36.086
2119 1 7.24974 109.898 36.1058
14615 1 8.15826 108.263 38.6522
2114 1 9.97708 108.311 36.086
8573 2 9.06939 109.876 37.3868
17481 1 10.8876 109.853 38.6718
9000 2 3.61497 113.053 37.4249
2559 1 1.79511 113.073 36.1438
8582 2 0.885942 111.464 37.4061
14641 1 2.70437 111.443 38.6909
2530 1 7.25135 113.073 36.1438
8569 2 6.34218 111.464 37.4061
14643 1 5.43361 113.033 38.7095
2120 1 4.52242 111.485 36.1251
8986 2 9.0712 113.053 37.4249
14602 1 8.16061 111.443 38.6909
2113 1 9.97866 111.485 36.1251
17479 1 10.8898 113.033 38.7095
20279 2 1.78605 97.095 39.7743
14269 1 0.869209 95.4393 41.0372
19869 2 2.69478 95.4073 42.3005
14655 1 3.60035 97.0413 41.0613
20261 2 5.42446 97.0088 42.3285
14221 1 6.32545 95.4393 41.0372
19883 2 4.51329 95.5028 39.748
20268 2 7.24229 97.095 39.7743
14618 1 9.05659 97.0413 41.0613
19833 2 8.15102 95.4073 42.3005
19835 2 9.96953 95.5028 39.748
23098 2 10.8807 97.0088 42.3285
20280 2 1.78825 100.279 39.823
20262 2 2.69786 98.6087 42.3549
14649 1 0.874679 98.6408 41.0849
14647 1 3.6049 100.239 41.1078
20266 2 4.51522 98.6871 39.7992
20263 2 5.42749 100.207 42.3798
14619 1 6.33092 98.6408 41.0849
20264 2 7.24449 100.279 39.823
14620 1 9.06114 100.239 41.1078
20217 2 8.1541 98.6087 42.3549
20220 2 9.97146 98.6871 39.7992
23094 2 10.8837 100.207 42.3798
20276 2 1.79071 103.463 39.8681
14648 1 0.878665 101.835 41.1301
20254 2 2.70088 101.805 42.4037
14650 1 3.60853 103.43 41.1519
20265 2 4.51758 101.871 39.8459
14613 1 6.3349 101.835 41.1301
20252 2 5.43049 103.402 42.4266
20267 2 7.24695 103.463 39.8681
14611 1 9.06477 103.43 41.1519
20216 2 8.15712 101.805 42.4037
20219 2 9.97382 101.871 39.8459
23095 2 10.8867 103.402 42.4266
20277 2 1.79322 106.647 39.9106
14638 1 0.882058 105.025 41.1732
20253 2 2.70383 104.999 42.4489
14636 1 3.61174 106.62 41.194
20258 2 4.52008 105.055 39.8897
14612 1 6.3383 105.025 41.1732
20255 2 5.43339 106.594 42.4704
20256 2 7.24946 106.647 39.9106
14614 1 9.06798 106.62 41.194
20209 2 8.16007 104.999 42.4489
20218 2 9.97632 105.055 39.8897
23090 2 10.8896 106.594 42.4704
20272 2 1.79567 109.83 39.951
14637 1 0.885117 108.213 41.2144
20240 2 2.70666 108.19 42.4914
14639 1 3.61466 109.807 41.2342
20257 2 4.52258 108.239 39.9311
14599 1 6.34136 108.213 41.2144
20238 2 5.43613 109.785 42.5117
20259 2 7.25191 109.83 39.951
14597 1 9.0709 109.807 41.2342
20208 2 8.1629 108.19 42.4914
20211 2 9.97881 108.239 39.9311
23091 2 10.8924 109.785 42.5117
20273 2 1.79799 113.014 39.9892
14630 1 0.887909 111.4 41.2536
20239 2 2.70932 111.379 42.5314
14628 1 3.61733 112.994 41.2724
14598 1 6.34415 111.4 41.2536
20241 2 5.43869 112.974 42.5506
20244 2 4.52497 111.422 39.9703
20242 2 7.25423 113.014 39.9892
14600 1 9.07357 112.994 41.2724
20194 2 8.16556 111.379 42.5314
20210 2 9.98121 111.422 39.9703
23089 2 10.8949 112.974 42.5506
14645 1 1.78469 96.9555 43.6101
19867 2 0.880185 95.3189 44.8447
20260 2 3.61016 96.9277 44.8752
14219 1 4.50974 95.3452 43.5828
19814 2 6.33642 95.3189 44.8447
14617 1 7.24093 96.9555 43.6101
20213 2 9.06639 96.9277 44.8752
14171 1 9.96598 95.3452 43.5828
14646 1 1.78948 100.167 43.6608
20250 2 0.883706 98.5341 44.9036
20248 2 3.6134 100.139 44.9304
14609 1 4.51537 98.5624 43.6361
20214 2 6.33994 98.5341 44.9036
14607 1 7.24572 100.167 43.6608
14556 1 9.97161 98.5624 43.6361
20215 2 9.06964 100.139 44.9304
14634 1 1.79333 103.369 43.7077
20249 2 0.886799 101.741 44.9559
20251 2 3.6164 103.343 44.9802
14608 1 4.5196 101.769 43.6846
20206 2 6.34304 101.741 44.9559
14610 1 7.24957 103.369 43.7077
14555 1 9.97584 101.769 43.6846
20204 2 9.07264 103.343 44.9802
14635 1 1.7967 106.567 43.7517
20236 2 0.889736 104.943 45.0036
20234 2 3.61928 106.543 45.0262
14595 1 4.52318 104.969 43.73
20205 2 6.34597 104.943 45.0036
14593 1 7.25294 106.567 43.7517
14554 1 9.97942 104.969 43.73
20207 2 9.07551 106.543 45.0262
14626 1 1.79975 109.761 43.7932
20235 2 0.89254 108.142 45.048
20237 2 3.622 109.74 45.0692
14594 1 4.52638 108.165 43.7727
20191 2 6.34878 108.142 45.048
14596 1 7.25599 109.761 43.7932
14547 1 9.98262 108.165 43.7727
20189 2 9.07824 109.74 45.0692
14627 1 1.80251 112.954 43.8324
20228 2 0.89518 111.337 45.0896
20226 2 3.62455 112.934 45.1094
14580 1 4.52928 111.358 43.8131
20190 2 6.35142 111.337 45.0896
14578 1 7.25875 112.954 43.8324
14546 1 9.98552 111.358 43.8131
20192 2 9.08079 112.934 45.1094
20246 2 1.79826 96.8544 47.4172
14203 1 0.889514 95.1934 48.6571
14205 1 2.69864 95.2631 46.1211
14603 1 3.61958 96.8107 48.6905
14604 1 5.42921 96.8783 46.152
14152 1 6.34575 95.1934 48.6571
19812 2 4.52441 95.2409 47.3846
20212 2 7.2545 96.8544 47.4172
14549 1 9.07582 96.8107 48.6905
14169 1 8.15488 95.2631 46.1211
19773 2 9.98065 95.2409 47.3846
17464 1 10.8854 96.8783 46.152
14587 1 0.893174 98.4253 48.7219
14605 1 2.70323 98.4901 46.1808
20247 2 1.80145 100.074 47.4765
14585 1 3.62285 100.037 48.7515
14550 1 6.34941 98.4253 48.7219
14606 1 5.43329 100.099 46.208
20202 2 4.52806 98.4653 47.4477
20200 2 7.25769 100.074 47.4765
14551 1 9.07909 100.037 48.7515
14553 1 8.15947 98.4901 46.1808
20154 2 9.9843 98.4653 47.4477
17452 1 10.8895 100.099 46.208
14586 1 0.896188 101.647 48.7795
14591 1 2.70695 101.706 46.2339
20232 2 1.80422 103.286 47.5298
14588 1 3.62569 103.255 48.8061
14542 1 6.35243 101.647 48.7795
14589 1 5.43674 103.311 46.2587
20201 2 4.53098 101.681 47.5038
20203 2 7.26046 103.286 47.5298
14540 1 9.08193 103.255 48.8061
14552 1 8.16319 101.706 46.2339
20153 2 9.98722 101.681 47.5038
17453 1 10.893 103.311 46.2587
14572 1 0.898898 104.862 48.8316
14590 1 2.7102 104.914 46.2825
20233 2 1.80683 106.493 47.5786
14570 1 3.6283 106.466 48.8561
14541 1 6.35514 104.862 48.8316
14592 1 5.43984 106.516 46.3055
20187 2 4.53366 104.89 47.5547
20185 2 7.26307 106.493 47.5786
14543 1 9.08454 106.466 48.8561
14545 1 8.16644 104.914 46.2825
20152 2 9.9899 104.89 47.5547
17444 1 10.8961 106.516 46.3055
14571 1 0.901434 108.07 48.8796
14576 1 2.71317 108.117 46.3276
20224 2 1.80932 109.695 47.6238
14573 1 3.63077 109.673 48.9023
14527 1 6.35767 108.07 48.8796
14574 1 5.44269 109.716 46.3491
20186 2 4.53621 108.095 47.6016
20188 2 7.26556 109.695 47.6238
14525 1 9.08701 109.673 48.9023
14544 1 8.16941 108.117 46.3276
20145 2 9.99245 108.095 47.6016
17445 1 10.8989 109.716 46.3491
14564 1 0.903825 111.274 48.9241
14575 1 2.71591 111.316 46.3698
20225 2 1.81167 112.895 47.6657
14562 1 3.63308 112.875 48.945
14526 1 6.36006 111.274 48.9241
14577 1 5.44531 112.914 46.3899
20173 2 4.53863 111.296 47.6451
20171 2 7.26791 112.895 47.6657
14528 1 9.08932 112.875 48.945
14530 1 8.17215 111.316 46.3698
20144 2 9.99487 111.296 47.6451
17443 1 10.9016 112.914 46.3899
14583 1 1.81064 96.7528 51.229
19800 2 2.71384 95.1743 49.9236
19798 2 0.903976 95.1185 52.464
20196 2 3.63421 96.7347 52.4983
20197 2 5.444 96.7901 49.9575
14150 1 4.53694 95.1352 51.1943
14548 1 7.26688 96.7528 51.229
19762 2 6.36021 95.1185 52.464
14120 1 9.99318 95.1352 51.1943
19771 2 8.17007 95.1743 49.9236
20147 2 9.09045 96.7347 52.4983
23065 2 10.9002 96.7901 49.9575
14584 1 1.81346 99.9821 51.2932
20198 2 2.71756 98.4037 49.9896
20179 2 0.907792 98.3493 52.5312
20177 2 3.63733 99.9622 52.5628
14538 1 4.54027 98.3684 51.2619
20199 2 5.44713 100.015 50.0201
14536 1 7.2697 99.9821 51.2932
20148 2 6.36403 98.3493 52.5312
23050 2 10.9034 100.015 50.0201
14496 1 9.9965 98.3684 51.2619
20151 2 8.1738 98.4037 49.9896
20149 2 9.09357 99.9622 52.5628
14568 1 1.81578 103.204 51.3514
20183 2 2.7203 101.625 50.0491
20178 2 0.910433 101.574 52.5931
14537 1 4.54278 101.594 51.323
20181 2 5.44963 103.233 50.0767
14539 1 7.27202 103.204 51.3514
20140 2 6.36667 101.574 52.5931
23051 2 10.9059 103.233 50.0767
14495 1 9.99902 101.594 51.323
20150 2 8.17654 101.625 50.0491
14569 1 1.8179 106.42 51.4046
20182 2 2.72266 104.84 50.1031
14523 1 4.54498 104.812 51.3786
20184 2 5.4519 106.445 50.1284
14521 1 7.27414 106.42 51.4046
23042 2 10.9081 106.445 50.1284
14494 1 10.0012 104.812 51.3786
20143 2 8.1789 104.84 50.1031
14560 1 1.81992 109.63 51.4534
20169 2 2.72487 108.049 50.1527
14522 1 4.54704 108.025 51.4295
20167 2 5.45405 109.653 50.176
23043 2 10.9103 109.653 50.176
14488 1 10.0033 108.025 51.4295
14524 1 7.27615 109.63 51.4534
20142 2 8.18111 108.049 50.1527
14561 1 1.82185 112.837 51.4983
20168 2 2.72697 111.255 50.1985
14511 1 4.54901 111.234 51.4763
20170 2 5.4561 112.857 50.22
14487 1 10.0053 111.234 51.4763
14509 1 7.27809 112.837 51.4983
20132 2 8.18321 111.255 50.1985
23041 2 10.9123 112.857 50.22
14582 1 0.00168587 96.7034 53.7691
20175 2 1.82472 96.6873 55.0406
14140 1 2.72792 95.0867 53.7344
14533 1 5.45792 96.7034 53.7691
19760 2 4.55071 95.0718 55.0067
20146 2 7.28096 96.6873 55.0406
14118 1 8.18416 95.0867 53.7344
19753 2 10.007 95.0718 55.0067
14534 1 2.73131 98.3189 53.8027
14566 1 0.00443684 99.933 53.835
20176 2 1.82788 99.915 55.1059
14535 1 5.46068 99.933 53.835
20136 2 4.55457 98.3017 55.0737
14493 1 8.18755 98.3189 53.8027
20118 2 10.0108 98.3017 55.0737
20134 2 7.28412 99.915 55.1059
14519 1 2.73363 101.546 53.8661
14567 1 0.00646803 103.157 53.8958
20161 2 1.83011 103.138 55.1671
14517 1 5.46271 103.157 53.8958
20135 2 4.5572 101.527 55.137
20180 2 3.63965 103.183 52.6221
14492 1 8.18987 101.546 53.8661
20117 2 10.0134 101.527 55.137
20137 2 7.28635 103.138 55.1671
20138 2 9.09589 103.183 52.6221
14518 1 2.73548 104.767 53.9244
14558 1 0.00820234 106.375 53.9517
20162 2 1.83188 106.357 55.2238
20165 2 0.912539 104.792 52.6499
14520 1 5.46444 106.375 53.9517
20125 2 4.55915 104.748 55.196
20139 2 6.36878 104.792 52.6499
20163 2 3.64161 106.399 52.6765
14486 1 8.19171 104.767 53.9244
20116 2 10.0154 104.748 55.196
20123 2 7.28811 106.357 55.2238
20141 2 9.09785 106.399 52.6765
20164 2 0.914416 108.006 52.7021
20155 2 1.83342 109.571 55.2761
14559 1 0.00981816 109.59 54.0031
14507 1 2.73714 107.983 53.9779
20166 2 3.64343 109.611 52.7266
20129 2 6.37065 108.006 52.7021
20124 2 4.56078 107.964 55.2505
14505 1 5.46606 109.59 54.0031
20127 2 9.09967 109.611 52.7266
20126 2 7.28966 109.571 55.2761
20115 2 10.017 107.964 55.2505
14485 1 8.19338 107.983 53.9779
20159 2 0.916184 111.216 52.7501
20156 2 1.83485 112.783 55.3241
14557 1 0.0113738 112.8 54.0502
14506 1 2.73872 111.195 54.0271
20157 2 3.64516 112.819 52.7727
20128 2 6.37242 111.216 52.7501
20121 2 4.56226 111.177 55.3006
14508 1 5.46761 112.8 54.0502
14479 1 8.19496 111.195 54.0271
20130 2 9.1014 112.819 52.7727
20119 2 7.29109 112.783 55.3241
20114 2 10.0185 111.177 55.3006
14831 1 1.83946 96.6241 58.8567
20472 2 0.0153355 96.6462 57.5849
14138 1 0.918705 95.0458 56.2775
20079 2 2.74137 95.032 57.5516
14532 1 3.64879 96.6611 56.3117
20464 2 5.47157 96.6462 57.5849
14435 1 4.56561 95.0104 58.8234
14113 1 6.37494 95.0458 56.2775
14489 1 9.10502 96.6611 56.3117
14820 1 7.2957 96.6241 58.8567
14387 1 10.0219 95.0104 58.8234
20049 2 8.19761 95.032 57.5516
14515 1 0.92224 98.2757 56.3452
14832 1 1.84242 99.8503 58.9225
20470 2 0.0185212 99.8727 57.6501
20465 2 2.74519 98.2598 57.6178
14513 1 3.65163 99.8894 56.3779
14490 1 6.37848 98.2757 56.3452
14818 1 4.56921 98.2374 58.8898
20466 2 5.47476 99.8727 57.6501
14772 1 10.0254 98.2374 58.8898
14491 1 9.10787 99.8894 56.3779
14816 1 7.29866 99.8503 58.9225
20430 2 8.20143 98.2598 57.6178
14514 1 0.92457 101.502 56.4097
14828 1 1.84443 103.074 58.9858
20471 2 0.020754 103.096 57.7124
20461 2 2.74785 101.485 57.6817
14516 1 3.65359 103.114 56.4404
14817 1 4.57164 101.463 58.9546
14483 1 6.38081 101.502 56.4097
20459 2 5.47699 103.096 57.7124
14771 1 10.0279 101.463 58.9546
14819 1 7.30067 103.074 58.9858
14481 1 9.10983 103.114 56.4404
20429 2 8.20409 101.485 57.6817
14503 1 0.926264 104.724 56.47
14829 1 1.84588 106.295 59.0454
20468 2 0.0224183 106.316 57.7709
20460 2 2.74976 104.706 57.7422
14501 1 3.65511 106.334 56.4984
14810 1 4.57333 104.685 59.0161
14482 1 6.3825 104.724 56.47
20462 2 5.47866 106.316 57.7709
14770 1 10.0296 104.685 59.0161
14808 1 7.30212 106.295 59.0454
14484 1 9.11134 106.334 56.4984
20424 2 8.206 104.706 57.7422
14502 1 0.927663 107.943 56.5257
14824 1 1.84704 109.513 59.1007
20469 2 0.0237786 109.533 57.8251
20450 2 2.75124 107.925 57.7985
14504 1 3.65643 109.551 56.552
14809 1 4.5746 107.905 59.0736
14476 1 6.3839 107.943 56.5257
20448 2 5.48002 109.533 57.8251
14763 1 10.0308 107.905 59.0736
14811 1 7.30328 109.513 59.1007
14474 1 9.11267 109.551 56.552
20423 2 8.20748 107.925 57.7985
14499 1 0.928936 111.158 56.5771
14825 1 1.84807 112.729 59.1515
20467 2 0.0249882 112.747 57.8749
20449 2 2.75252 111.14 57.8505
14497 1 3.65767 112.764 56.6011
14796 1 4.57568 111.122 59.1267
14475 1 6.38517 111.158 56.5771
20451 2 5.48123 112.747 57.8749
14762 1 10.0319 111.122 59.1267
14794 1 7.3043 112.729 59.1515
14477 1 9.11391 112.764 56.6011
20410 2 8.20875 111.14 57.8505
14830 1 0.0299454 96.5907 61.404
14421 1 2.75613 94.9787 61.3715
20077 2 0.932037 94.9971 60.0987
14813 1 5.48618 96.5907 61.404
20463 2 3.66217 96.6097 60.1312
20029 2 6.38828 94.9971 60.0987
20426 2 9.11841 96.6097 60.1312
14385 1 8.21237 94.9787 61.3715
14814 1 2.75971 98.2027 61.4366
14826 1 0.0329839 99.8144 61.469
20457 2 0.935777 98.2222 60.1636
14815 1 5.48922 99.8144 61.469
20427 2 6.39202 98.2222 60.1636
20455 2 3.66536 99.8342 60.1959
14769 1 8.21595 98.2027 61.4366
20428 2 9.1216 99.8342 60.1959
14806 1 2.76226 101.426 61.5011
14827 1 0.0351082 103.037 61.5325
20456 2 0.938477 101.446 60.2276
14804 1 5.49135 103.037 61.5325
20421 2 6.39472 101.446 60.2276
20458 2 3.66764 103.057 60.2587
14768 1 8.2185 101.426 61.5011
20419 2 9.12388 103.057 60.2587
14805 1 2.76404 104.648 61.5632
14822 1 0.0366036 106.258 61.5931
20446 2 0.940411 104.668 60.2889
14807 1 5.49284 106.258 61.5931
20420 2 6.39665 104.668 60.2889
20444 2 3.6693 106.278 60.3183
14761 1 8.22028 104.648 61.5632
20422 2 9.12554 106.278 60.3183
14792 1 2.76532 107.868 61.6219
14823 1 0.0377197 109.477 61.6497
20445 2 0.941852 107.887 60.3466
14790 1 5.49396 109.477 61.6497
20407 2 6.39809 107.887 60.3466
20447 2 3.67058 109.496 60.3739
14760 1 8.22155 107.868 61.6219
20405 2 9.12681 109.496 60.3739
14791 1 2.76632 111.086 61.6764
14821 1 0.0386403 112.695 61.702
20438 2 0.943011 111.104 60.4002
14793 1 5.49488 112.695 61.702
20406 2 6.39925 111.104 60.4002
20436 2 3.67165 112.712 60.4253
14746 1 8.22255 111.086 61.6764
20408 2 9.12789 112.712 60.4253
20452 2 0.042896 96.5441 65.2284
20453 2 1.85264 96.5762 62.6792
14419 1 0.946401 94.9493 63.9219
20013 2 2.76911 94.9347 65.1974
14812 1 3.67641 96.5596 63.9536
20412 2 5.49913 96.5441 65.2284
14366 1 6.40264 94.9493 63.9219
20027 2 4.57882 94.9652 62.6474
14765 1 9.13265 96.5596 63.9536
20425 2 7.30888 96.5762 62.6792
19977 2 8.22535 94.9347 65.1974
19979 2 10.0351 94.9652 62.6474
14802 1 0.94995 98.17 63.9856
20413 2 2.77273 98.1537 65.2598
20440 2 0.0461262 99.7636 65.2914
20454 2 1.85584 99.7983 62.7431
14766 1 6.40619 98.17 63.9856
14800 1 3.67951 99.7806 64.0177
20414 2 5.50236 99.7636 65.2914
20417 2 4.58247 98.1873 62.7111
14767 1 9.13574 99.7806 64.0177
20361 2 8.22896 98.1537 65.2598
20364 2 10.0387 98.1873 62.7111
20415 2 7.31208 99.7983 62.7431
14801 1 0.952615 101.391 64.0496
20399 2 2.77558 101.374 65.3229
20441 2 0.0486179 102.984 65.3541
20442 2 1.8582 103.02 62.8059
14758 1 6.40885 101.391 64.0496
14803 1 3.68178 103.002 64.081
20397 2 5.50486 102.984 65.3541
20416 2 4.58523 101.409 62.7747
14756 1 9.13801 103.002 64.081
20360 2 8.23181 101.374 65.3229
20363 2 10.0415 101.409 62.7747
20418 2 7.31444 103.02 62.8059
14788 1 0.954538 104.612 64.1119
20398 2 2.77774 104.594 65.3848
20432 2 0.0504759 106.204 65.4148
20443 2 1.85993 106.24 62.8663
14757 1 6.41078 104.612 64.1119
14786 1 3.6834 106.222 64.1421
20400 2 5.50671 106.204 65.4148
20403 2 4.58725 104.63 62.8365
14759 1 9.13964 106.222 64.1421
20353 2 8.23397 104.594 65.3848
20362 2 10.0435 104.63 62.8365
20401 2 7.31616 106.24 62.8663
14787 1 0.955912 107.832 64.1713
20384 2 2.77933 107.814 65.4439
20433 2 0.0518508 109.424 65.4722
20434 2 1.86121 109.46 62.923
14743 1 6.41215 107.832 64.1713
14789 1 3.68457 109.442 64.1996
20382 2 5.50809 109.424 65.4722
20402 2 4.58873 107.85 62.8951
14741 1 9.14081 109.442 64.1996
20352 2 8.23557 107.814 65.4439
20355 2 10.045 107.85 62.8951
20404 2 7.31745 109.46 62.923
14780 1 0.956937 111.052 64.2268
20383 2 2.78053 111.034 65.4994
20431 2 0.0529216 112.644 65.5255
20435 2 1.86224 112.678 62.9755
14742 1 6.41318 111.052 64.2268
14778 1 3.6855 112.661 64.2528
20385 2 5.50916 112.644 65.5255
20388 2 4.58987 111.069 62.9498
14744 1 9.14173 112.661 64.2528
20338 2 8.23677 111.034 65.4994
20354 2 10.0461 111.069 62.9498
20386 2 7.31848 112.678 62.9755
14798 1 1.8662 96.5293 66.5062
20011 2 0.958996 94.9041 67.7474
14797 1 0.055138 96.4994 69.0652
14352 1 2.78145 94.8925 69.0349
20411 2 3.68903 96.5117 67.7777
14364 1 4.59246 94.9208 66.4753
19960 2 6.41523 94.9041 67.7474
14749 1 5.51138 96.4994 69.0652
14764 1 7.32244 96.5293 66.5062
20357 2 9.14527 96.5117 67.7777
14325 1 10.0487 94.9208 66.4753
14323 1 8.23769 94.8925 69.0349
14799 1 1.86936 99.7476 66.5692
20395 2 0.962657 98.12 67.8086
14750 1 2.78491 98.1068 69.0959
14782 1 0.0582727 99.7149 69.127
14754 1 4.59599 98.1383 66.5376
20358 2 6.4189 98.12 67.8086
20393 2 3.69236 99.7287 67.8398
14751 1 5.51451 99.7149 69.127
14706 1 10.0522 98.1383 66.5376
14752 1 7.3256 99.7476 66.5692
20359 2 9.14859 99.7287 67.8398
14703 1 8.24115 98.1068 69.0959
14784 1 1.8718 102.967 66.6322
20394 2 0.965658 101.338 67.8711
14735 1 2.78776 101.324 69.1583
14783 1 0.0608269 102.933 69.1895
14753 1 4.59879 101.357 66.6009
20350 2 6.4219 101.338 67.8711
20396 2 3.69504 102.947 67.9021
14733 1 5.51707 102.933 69.1895
14705 1 10.055 101.357 66.6009
14755 1 7.32804 102.967 66.6322
20348 2 9.15128 102.947 67.9021
14702 1 8.244 101.324 69.1583
14785 1 1.87362 106.187 66.6934
20380 2 0.968038 104.557 67.9328
14734 1 2.79002 104.542 69.2203
14774 1 0.0628126 106.152 69.2505
14739 1 4.6009 104.577 66.6632
20349 2 6.42428 104.557 67.9328
20378 2 3.69712 106.168 67.9629
14736 1 5.51905 106.152 69.2505
14704 1 10.0571 104.577 66.6632
14737 1 7.32985 106.187 66.6934
20351 2 9.15335 106.168 67.9629
14695 1 8.24626 104.542 69.2203
14776 1 1.87493 109.408 66.7514
20379 2 0.969817 107.778 67.9922
14738 1 4.60244 107.797 66.7229
20335 2 6.42606 107.778 67.9922
20381 2 3.69865 109.388 68.0206
14697 1 10.0587 107.797 66.7229
14740 1 7.33117 109.408 66.7514
20333 2 9.15489 109.388 68.0206
14777 1 1.87593 112.628 66.8052
20372 2 0.971157 110.999 68.048
14725 1 4.60358 111.018 66.7788
20334 2 6.4274 110.999 68.048
20370 2 3.69984 112.61 68.0744
14696 1 10.0598 111.018 66.7788
14723 1 7.33217 112.628 66.8052
20336 2 9.15608 112.61 68.0744
20391 2 1.87889 96.4774 70.326
14350 1 0.966524 94.8628 71.6133
14748 1 3.69626 96.468 71.6429
14314 1 6.42276 94.8628 71.6133
19958 2 4.60517 94.8713 70.2962
14699 1 9.1525 96.468 71.6429
20356 2 7.33513 96.4774 70.326
19928 2 10.0614 94.8713 70.2962
14731 1 0.969644 98.0742 71.673
20392 2 1.88213 99.6919 70.387
14700 1 6.42588 98.0742 71.673
14729 1 3.69916 99.6811 71.7035
20346 2 4.6087 98.0843 70.3564
14701 1 9.1554 99.6811 71.7035
20304 2 10.0649 98.0843 70.3564
20344 2 7.33837 99.6919 70.387
14730 1 0.972309 101.289 71.7339
20376 2 1.88488 102.91 70.4486
14692 1 6.42855 101.289 71.7339
14732 1 3.70148 102.897 71.7654
20345 2 4.61164 101.3 70.4179
14690 1 9.15772 102.897 71.7654
20303 2 10.0679 101.3 70.4179
20347 2 7.34112 102.91 70.4486
14717 1 0.974315 104.506 71.7962
20377 2 1.88706 106.129 70.5088
14691 1 6.43055 104.506 71.7962
14715 1 3.7033 106.116 71.8262
20331 2 4.61417 104.519 70.479
14693 1 9.15954 106.116 71.8262
20302 2 10.0704 104.519 70.479
20329 2 7.3433 106.129 70.5088
14716 1 0.975955 107.727 71.8555
14721 1 2.79171 107.763 69.28
14775 1 0.0642784 109.373 69.3085
20368 2 1.88873 109.351 70.5663
14681 1 6.43219 107.727 71.8555
14718 1 3.70477 109.338 71.8839
14719 1 5.52052 109.373 69.3085
20330 2 4.61607 107.74 70.538
14679 1 9.16101 109.338 71.8839
14694 1 8.24795 107.763 69.28
20296 2 10.0723 107.74 70.538
20332 2 7.34496 109.351 70.5663
14711 1 0.977284 110.949 71.9113
14720 1 2.793 110.984 69.3361
14773 1 0.0654368 112.595 69.3626
20369 2 1.89006 112.574 70.62
14680 1 6.43352 110.949 71.9113
14709 1 3.706 112.561 71.9378
14722 1 5.52168 112.595 69.3626
20319 2 4.61754 110.963 70.5937
14682 1 9.16224 112.561 71.9378
14684 1 8.24924 110.984 69.3361
20295 2 10.0738 110.963 70.5937
20317 2 7.3463 112.574 70.62
14727 1 1.8343 96.4449 74.2997
20390 2 0.0670714 96.4406 72.8619
19946 2 0.959789 94.8093 75.3163
19948 2 2.79342 94.836 72.8326
20340 2 3.68895 96.4128 75.3449
20341 2 5.52331 96.4406 72.8619
14312 1 4.56262 94.8408 74.2703
19921 2 6.41603 94.8093 75.3163
14698 1 7.29054 96.4449 74.2997
20297 2 9.14519 96.4128 75.3449
14305 1 10.0189 94.8408 74.2703
19926 2 8.24966 94.836 72.8326
14728 1 1.83386 99.656 74.3602
20323 2 0.961792 98.0177 75.3741
20342 2 2.79684 98.0463 72.8918
20374 2 0.0702269 99.6531 72.9221
14688 1 4.5622 98.05 74.3298
20298 2 6.41803 98.0177 75.3741
20321 2 3.69083 99.6238 75.4037
20343 2 5.52647 99.6531 72.9221
14670 1 10.0184 98.05 74.3298
14686 1 7.2901 99.656 74.3602
20299 2 9.14706 99.6238 75.4037
20301 2 8.25308 98.0463 72.8918
14713 1 1.83325 102.87 74.4206
20322 2 0.9635 101.231 75.4335
20327 2 2.79966 101.261 72.9524
20375 2 0.072995 102.869 72.9825
14687 1 4.56185 101.263 74.3904
20291 2 6.41974 101.231 75.4335
20324 2 3.69242 102.84 75.4622
20325 2 5.52923 102.869 72.9825
14669 1 10.0181 101.263 74.3904
14689 1 7.28949 102.87 74.4206
20289 2 9.14866 102.84 75.4622
20300 2 8.2559 101.261 72.9524
14714 1 1.83269 106.089 74.4797
20311 2 0.964964 104.449 75.4909
20326 2 2.80232 104.479 73.0124
20366 2 0.0752143 106.09 73.0418
14677 1 4.56103 104.479 74.4504
20290 2 6.4212 104.449 75.4909
20309 2 3.69371 106.06 75.5195
20328 2 5.53145 106.09 73.0418
14668 1 10.0173 104.479 74.4504
14675 1 7.28893 106.089 74.4797
20292 2 9.14994 106.06 75.5195
20294 2 8.25855 104.479 73.0124
14707 1 1.83239 109.31 74.5365
20310 2 0.966159 107.671 75.5475
20315 2 2.80426 107.701 73.0706
20367 2 0.0769571 109.313 73.0986
14676 1 4.56062 107.699 74.5085
20284 2 6.4224 107.671 75.5475
20312 2 3.69479 109.283 75.575
20313 2 5.5332 109.313 73.0986
14667 1 10.0169 107.699 74.5085
14678 1 7.28863 109.31 74.5365
20282 2 9.15103 109.283 75.575
20293 2 8.2605 107.701 73.0706
14708 1 1.83243 112.534 74.5898
20307 2 0.967177 110.896 75.6017
20314 2 2.80582 110.925 73.1257
20365 2 0.0783923 112.538 73.1519
14673 1 4.56048 110.922 74.5637
20283 2 6.42342 110.896 75.6017
20305 2 3.69581 112.51 75.6275
20316 2 5.53463 112.538 73.1519
14666 1 10.0167 110.922 74.5637
14671 1 7.28867 112.534 74.5898
20285 2 9.15205 112.51 75.6275
20287 2 8.26206 110.925 73.1257
2495 1 1.81434 113.531 -2.5982
8769 2 0.911916 115.096 -1.13241
8777 2 2.72705 115.125 -3.63688
8784 2 0.000642233 113.554 -3.65931
2482 1 4.53954 115.103 -2.57539
8739 2 6.36815 115.096 -1.13241
8775 2 3.64113 113.525 -1.15526
8776 2 5.45688 113.554 -3.65931
2484 1 7.27058 113.531 -2.5982
2436 1 9.99578 115.103 -2.57539
8738 2 9.09737 113.525 -1.15526
8742 2 8.18329 115.125 -3.63688
2496 1 1.80864 116.674 -2.55323
8768 2 0.909745 118.238 -1.08869
8773 2 2.72381 118.266 -3.59392
2481 1 4.53414 118.245 -2.53178
8733 2 6.36598 118.238 -1.08869
8767 2 3.63894 116.668 -1.1102
8778 2 5.45352 116.696 -3.61506
2480 1 7.26488 116.674 -2.55323
2435 1 9.99038 118.245 -2.53178
8740 2 9.09518 116.668 -1.1102
8741 2 8.18005 118.266 -3.59392
12046 2 10.9098 116.696 -3.61506
2492 1 1.80355 119.816 -2.5111
8758 2 0.907639 121.379 -1.04807
8772 2 2.72082 121.404 -3.55392
8770 2 3.6368 119.809 -1.06797
2474 1 4.52937 121.386 -2.49125
8732 2 6.36388 121.379 -1.04807
8771 2 5.4504 119.835 -3.57352
2483 1 7.25979 119.816 -2.5111
2434 1 9.9856 121.386 -2.49125
8731 2 9.09304 119.809 -1.06797
8736 2 8.17706 121.404 -3.55392
12047 2 10.9066 119.835 -3.57352
2493 1 1.7991 122.955 -2.47228
8757 2 0.905637 124.517 -1.01095
8762 2 2.71812 124.541 -3.51731
8756 2 3.63474 122.948 -1.02905
2473 1 4.52522 124.524 -2.45422
8719 2 6.36188 124.517 -1.01095
8774 2 5.44755 122.973 -3.53517
2472 1 7.25533 122.955 -2.47228
2427 1 9.98146 124.524 -2.45422
8734 2 9.09098 122.948 -1.02905
8735 2 8.17436 124.541 -3.51731
12044 2 10.9038 122.973 -3.53517
2488 1 1.79525 126.093 -2.43711
8750 2 0.903779 127.655 -0.977614
8761 2 2.71571 127.676 -3.48438
8759 2 3.63281 126.086 -0.993795
2460 1 4.52167 127.661 -2.42097
8718 2 6.36002 127.655 -0.977614
8760 2 5.44499 126.108 -3.50037
2475 1 7.25149 126.093 -2.43711
2426 1 9.97791 127.661 -2.42097
8717 2 9.08905 126.086 -0.993795
8722 2 8.17194 127.676 -3.48438
12045 2 10.9012 126.108 -3.50037
2489 1 1.79199 129.229 -2.40582
8749 2 0.902099 130.791 -0.948254
8751 2 2.7136 130.809 -3.45534
8748 2 3.63103 129.223 -0.962428
2459 1 4.51868 130.797 -2.39168
8701 2 6.35834 130.791 -0.948254
8763 2 5.44273 129.243 -3.46936
2458 1 7.24823 129.229 -2.40582
2411 1 9.97492 130.797 -2.39168
8720 2 9.08727 129.223 -0.962428
8721 2 8.16984 130.809 -3.45534
12043 2 10.899 129.243 -3.46936
2478 1 2.72917 115.078 0.0895948
2494 1 0.00246646 113.505 0.066592
8765 2 1.82196 113.493 1.39775
2477 1 5.4587 113.505 0.066592
8729 2 4.54879 115.065 1.42086
2433 1 8.18541 115.078 0.0895948
8676 2 10.005 115.065 1.42086
8737 2 7.2782 113.493 1.39775
2470 1 2.72643 118.221 0.133575
8766 2 1.81939 116.637 1.44331
2479 1 5.4559 116.649 0.111947
8728 2 4.54626 118.209 1.46503
2432 1 8.18266 118.221 0.133575
8675 2 10.0025 118.209 1.46503
8727 2 7.27563 116.637 1.44331
5562 1 10.9121 116.649 0.111947
2469 1 2.72384 121.362 0.174414
8754 2 1.81692 119.78 1.48595
2468 1 5.45323 119.792 0.154415
8715 2 4.54385 121.351 1.50602
8730 2 7.27316 119.78 1.48595
2425 1 8.18007 121.362 0.174414
8674 2 10.0001 121.351 1.50602
5563 1 10.9095 119.792 0.154415
2456 1 2.72144 124.502 0.211709
8755 2 1.81458 122.922 1.5252
2471 1 5.45073 122.933 0.193524
8714 2 4.54159 124.492 1.54344
8713 2 7.27082 122.922 1.5252
2424 1 8.17768 124.502 0.211709
8667 2 9.99783 124.492 1.54344
5558 1 10.907 122.933 0.193524
2455 1 2.71927 127.642 0.24518
8746 2 1.81242 126.062 1.56072
2454 1 5.44844 126.072 0.228936
8700 2 4.53953 127.632 1.57701
8716 2 7.26866 126.062 1.56072
2410 1 8.1755 127.642 0.24518
8666 2 9.99577 127.632 1.57701
5559 1 10.9047 126.072 0.228936
2445 1 2.71734 130.78 0.274644
8747 2 1.81047 129.202 1.5923
2457 1 5.44639 129.211 0.260421
8699 2 4.53769 130.772 1.60655
8698 2 7.2667 129.202 1.5923
2409 1 8.17358 130.78 0.274644
8651 2 9.99393 130.772 1.60655
5557 1 10.9026 129.211 0.260421
2466 1 0.910734 115.048 2.68643
2462 1 1.82087 113.448 5.24487
8725 2 2.7293 115.036 3.98755
8764 2 0.0026593 113.463 3.96424
2430 1 6.36697 115.048 2.68643
2476 1 3.64029 113.476 2.66314
2418 1 4.54742 115.021 5.26832
8724 2 5.4589 113.463 3.96424
2429 1 9.09653 113.476 2.66314
2364 1 10.0037 115.021 5.26832
2428 1 7.27711 113.448 5.24487
8673 2 8.18554 115.036 3.98755
2465 1 0.90794 118.193 2.73091
2464 1 3.63744 116.621 2.70905
2463 1 1.81777 116.594 5.29106
8711 2 2.72645 118.181 4.03203
2422 1 6.36418 118.193 2.73091
2417 1 4.54441 118.167 5.31302
8726 2 5.45598 116.608 4.01017
2416 1 7.27401 116.594 5.29106
2431 1 9.09368 116.621 2.70905
2363 1 10.0006 118.167 5.31302
8672 2 8.18269 118.181 4.03203
12016 2 10.9122 116.608 4.01017
2452 1 0.905303 121.336 2.77215
2467 1 3.63472 119.765 2.75196
2448 1 1.81486 119.739 5.33415
8710 2 2.72376 121.325 4.07326
2421 1 6.36154 121.336 2.77215
2403 1 4.5416 121.312 5.35439
8709 2 5.4532 119.753 4.05308
2419 1 7.27109 119.739 5.33415
2420 1 9.09096 119.765 2.75196
2362 1 9.99783 121.312 5.35439
8665 2 8.18 121.325 4.07326
12017 2 10.9094 119.753 4.05308
2451 1 0.902865 124.479 2.80976
2450 1 3.63218 122.907 2.79143
2449 1 1.81216 122.884 5.37371
8696 2 2.72129 124.468 4.11085
2407 1 6.3591 124.479 2.80976
2402 1 4.53903 124.456 5.39207
8712 2 5.45062 122.896 4.09253
2401 1 7.2684 122.884 5.37371
2423 1 9.08841 122.907 2.79143
2355 1 9.99527 124.456 5.39207
8664 2 8.17753 124.468 4.11085
12008 2 10.9069 122.896 4.09253
2444 1 0.900659 127.62 2.84346
2453 1 3.62985 126.049 2.82711
2440 1 1.80972 126.028 5.40945
8695 2 2.71906 127.611 4.14454
2406 1 6.3569 127.62 2.84346
2388 1 4.53673 127.6 5.42582
8694 2 5.44826 126.039 4.12819
2404 1 7.26596 126.028 5.40945
2405 1 9.08609 126.049 2.82711
2354 1 9.99297 127.6 5.42582
8650 2 8.1753 127.611 4.14454
12009 2 10.9045 126.039 4.12819
2443 1 0.89871 130.761 2.8731
2442 1 3.62777 129.191 2.8588
2441 1 1.80757 129.172 5.44116
8685 2 2.7171 130.753 4.17415
2389 1 6.35495 130.761 2.8731
2387 1 4.53472 130.744 5.45546
8697 2 5.44617 129.182 4.15986
2386 1 7.26381 129.172 5.44116
2408 1 9.08401 129.191 2.8588
2340 1 9.99096 130.744 5.45546
8649 2 8.17334 130.753 4.17415
12007 2 10.9024 129.182 4.15986
2414 1 2.72737 114.995 7.84568
2461 1 0.000927002 113.421 7.8222
8703 2 1.81888 113.408 9.11077
8707 2 0.90929 115.009 6.55983
8704 2 1.81556 116.556 9.15667
2413 1 5.45717 113.421 7.8222
8658 2 4.54531 114.982 9.13409
8670 2 6.36553 115.009 6.55983
8723 2 3.63901 113.435 6.53648
8656 2 7.2718 116.556 9.15667
2361 1 8.18361 114.995 7.84568
8616 2 10.0015 114.982 9.13409
8668 2 7.27512 113.408 9.11077
8669 2 9.09525 113.435 6.53648
2399 1 2.72419 118.142 7.89035
8706 2 0.906228 118.155 6.60434
8705 2 3.63585 116.582 6.58248
8688 2 1.81251 119.703 9.19937
2415 1 5.45387 116.568 7.86842
8657 2 4.54212 118.129 9.17845
8662 2 6.36247 118.155 6.60434
8659 2 7.26875 119.703 9.19937
2360 1 8.18043 118.142 7.89035
8615 2 9.99836 118.129 9.17845
8671 2 9.09209 116.582 6.58248
5518 1 10.9101 116.568 7.86842
2398 1 2.72127 121.288 7.93163
8692 2 0.903395 121.3 6.64552
8708 2 3.6329 119.727 6.62537
8689 2 1.80976 122.85 9.23852
2397 1 5.45081 119.715 7.91144
8643 2 4.53922 121.277 9.21941
8661 2 6.35963 121.3 6.64552
8641 2 7.266 122.85 9.23852
2353 1 8.1775 121.288 7.93163
8614 2 9.99545 121.277 9.21941
8660 2 9.08914 119.727 6.62537
5519 1 10.907 119.715 7.91144
2384 1 2.71864 124.434 7.96918
8691 2 0.900824 124.446 6.68302
8690 2 3.63019 122.873 6.66475
2400 1 5.44803 122.861 7.95088
8647 2 6.35706 124.446 6.68302
2352 1 8.17488 124.434 7.96918
8663 2 9.08643 122.873 6.66475
5510 1 10.9043 122.861 7.95088
2383 1 2.71631 127.581 8.00277
8684 2 0.898537 127.591 6.71661
8693 2 3.62776 126.018 6.70032
2382 1 5.44556 126.008 7.98648
8646 2 6.35478 127.591 6.71661
2385 1 5.44339 129.154 8.01805
2339 1 8.17255 127.581 8.00277
8645 2 9.084 126.018 6.70032
5511 1 10.9018 126.008 7.98648
5509 1 10.8996 129.154 8.01805
2373 1 2.7143 130.727 8.03228
8683 2 0.896543 130.736 6.74613
8682 2 3.62562 129.163 6.73189
8632 2 6.35278 130.736 6.74613
2797 1 5.44153 132.3 8.04547
2338 1 8.17054 130.727 8.03228
8648 2 9.08186 129.163 6.73189
5917 1 10.8978 132.3 8.04547
2395 1 0.907007 114.969 10.4218
8654 2 2.72481 114.956 11.7093
2393 1 3.63345 116.543 10.4445
2358 1 6.36325 114.969 10.4218
8655 2 5.45127 116.53 11.7317
8613 2 8.18105 114.956 11.7093
2359 1 9.08969 116.543 10.4445
11950 2 10.9075 116.53 11.7317
2394 1 0.903739 118.117 10.4663
8639 2 2.72158 118.104 11.7533
2396 1 3.63034 119.691 10.4872
2350 1 6.35998 118.117 10.4663
8637 2 5.44822 119.679 11.774
8612 2 8.17782 118.104 11.7533
2348 1 9.08658 119.691 10.4872
11951 2 10.9045 119.679 11.774
2380 1 0.900795 121.265 10.5072
8638 2 2.7187 121.253 11.7939
2378 1 3.62757 122.839 10.5263
2349 1 6.35703 121.265 10.5072
8640 2 5.44551 122.828 11.8128
8606 2 8.17494 121.253 11.7939
2351 1 9.08381 122.839 10.5263
11942 2 10.9018 122.828 11.8128
2379 1 0.898187 124.413 10.5444
8627 2 2.71617 124.403 11.8307
2381 1 3.62513 125.987 10.5616
8680 2 1.80733 125.998 9.27385
8642 2 4.53662 124.424 9.25667
2336 1 6.35443 124.413 10.5444
8625 2 5.44316 125.977 11.8477
8644 2 7.26356 125.998 9.27385
8608 2 9.99286 124.424 9.25667
8605 2 8.17241 124.403 11.8307
2334 1 9.08137 125.987 10.5616
11943 2 10.8994 125.977 11.8477
2372 1 0.895914 127.562 10.5777
8626 2 2.71399 127.552 11.8637
8681 2 1.80521 129.145 9.3052
2370 1 3.62302 129.136 10.5929
8631 2 4.53435 127.571 9.29003
2335 1 6.35215 127.562 10.5777
8629 2 7.26144 129.145 9.3052
8628 2 5.44113 129.127 11.8787
8607 2 9.99058 127.571 9.29003
8599 2 8.17022 127.552 11.8637
2337 1 9.07926 129.136 10.5929
11941 2 10.8974 129.127 11.8787
2371 1 0.893967 130.71 10.607
8620 2 2.71212 130.702 11.8927
9111 2 1.8034 132.293 9.33245
2796 1 3.62123 132.285 10.62
8630 2 4.53238 130.719 9.31934
2325 1 6.35021 130.71 10.607
9076 2 7.25964 132.293 9.33245
9061 2 5.43942 132.278 11.9057
8600 2 9.98862 130.719 9.31934
8598 2 8.16836 130.702 11.8927
2741 1 9.07747 132.285 10.62
12374 2 10.8957 132.278 11.9057
2342 1 2.72156 114.917 15.574
8635 2 0.904006 114.93 14.285
2392 1 1.81277 116.517 13.0202
8633 2 3.63049 116.504 14.3072
2346 1 4.54257 114.943 12.9978
8610 2 6.36024 114.93 14.285
2343 1 5.44806 116.492 15.5961
2344 1 7.26901 116.517 13.0202
2313 1 8.1778 114.917 15.574
2316 1 9.9988 114.943 12.9978
5446 1 10.9043 116.492 15.5961
8611 2 9.08673 116.504 14.3072
2328 1 2.71844 118.067 15.6173
8634 2 0.900843 118.079 14.3285
2376 1 1.80971 119.667 13.0625
8636 2 3.62754 119.655 14.3489
2345 1 4.53931 118.092 13.0418
8603 2 6.35708 118.079 14.3285
2326 1 5.44516 119.642 15.6376
2347 1 7.26595 119.667 13.0625
5447 1 10.9014 119.642 15.6376
2312 1 8.17468 118.067 15.6173
2315 1 9.99555 118.092 13.0418
8601 2 9.08377 119.655 14.3489
8621 2 3.62498 122.806 14.3871
2327 1 2.71576 121.218 15.657
8623 2 0.898089 121.23 14.3685
2377 1 1.80703 122.817 13.1011
2330 1 7.26327 122.817 13.1011
2332 1 4.53644 121.241 13.0822
8602 2 6.35433 121.23 14.3685
2329 1 5.44268 122.794 15.6755
8604 2 9.08121 122.806 14.3871
5438 1 10.8989 122.794 15.6755
2309 1 8.17199 121.218 15.657
2314 1 9.99268 121.241 13.0822
8624 2 3.62279 125.957 14.4215
2368 1 1.80472 125.967 13.1359
2320 1 2.71347 124.371 15.6931
8622 2 0.895717 124.381 14.4047
2333 1 7.26095 125.967 13.1359
2318 1 5.44058 125.947 15.7097
8596 2 6.35196 124.381 14.4047
2331 1 4.53395 124.392 13.119
8594 2 9.07902 125.957 14.4215
2311 1 9.99019 124.392 13.119
2308 1 8.16971 124.371 15.6931
5439 1 10.8968 125.947 15.7097
8617 2 3.62093 129.11 14.452
2369 1 1.80274 129.118 13.1667
8619 2 0.893698 127.534 14.4372
2319 1 2.71154 127.524 15.7253
2322 1 7.25898 129.118 13.1667
2321 1 5.43882 129.101 15.74
8595 2 6.34994 127.534 14.4372
2324 1 4.53181 127.543 13.1518
8597 2 9.07717 129.11 14.452
2310 1 9.98805 127.543 13.1518
2306 1 8.16778 127.524 15.7253
5437 1 10.8951 129.101 15.74
8618 2 0.892 130.686 14.4658
2317 1 2.70994 130.678 15.7536
2775 1 1.80109 132.27 13.1935
9060 2 3.61938 132.263 14.4785
2725 1 5.43736 132.255 15.7663
2740 1 7.25733 132.27 13.1935
8593 2 6.34824 130.686 14.4658
2323 1 4.53 130.694 13.1806
9017 2 9.07562 132.263 14.4785
5846 1 10.8936 132.255 15.7663
2305 1 8.16617 130.678 15.7536
2307 1 9.98623 130.694 13.1806
2686 1 0.900265 114.889 18.1503
8976 2 1.80947 116.478 16.8828
2684 1 3.62689 116.465 18.1719
8962 2 4.53914 114.903 16.8611
2663 1 6.3565 114.889 18.1503
8960 2 7.26571 116.478 16.8828
8916 2 9.99537 114.903 16.8611
2664 1 9.08313 116.465 18.1719
2685 1 0.897404 118.041 18.1926
8972 2 1.80673 119.63 16.9238
2687 1 3.62427 119.618 18.2125
8961 2 4.53616 118.054 16.9038
2659 1 6.35364 118.041 18.1926
8963 2 7.26297 119.63 16.9238
8915 2 9.9924 118.054 16.9038
2657 1 9.08051 119.618 18.2125
2679 1 0.895018 121.195 18.2315
8973 2 1.80442 122.783 16.9612
2677 1 3.6221 122.772 18.2496
8954 2 4.53364 121.207 16.943
2658 1 6.35126 121.195 18.2315
8952 2 7.26066 122.783 16.9612
8914 2 9.98988 121.207 16.943
2660 1 9.07834 122.772 18.2496
2678 1 0.893039 124.349 18.2667
8968 2 1.80248 125.937 16.9949
2680 1 3.6203 125.927 18.283
8953 2 4.53153 124.36 16.9785
2647 1 6.34928 124.349 18.2667
8955 2 7.25872 125.937 16.9949
8907 2 9.98776 124.36 16.9785
2645 1 9.07654 125.927 18.283
2672 1 0.891405 127.505 18.2983
8969 2 1.80087 129.092 17.0249
2670 1 3.61882 129.084 18.3126
2646 1 6.34764 127.505 18.2983
8940 2 4.52975 127.515 17.0104
8938 2 7.2571 129.092 17.0249
8906 2 9.98599 127.515 17.0104
2648 1 9.07506 129.084 18.3126
2671 1 0.890063 130.662 18.3261
9383 2 1.79954 132.248 17.0509
3072 1 3.61761 132.241 18.3385
2629 1 6.3463 130.662 18.3261
8939 2 4.52829 130.67 17.0384
9372 2 7.25577 132.248 17.0509
8891 2 9.98453 130.67 17.0384
3046 1 9.07385 132.241 18.3385
8958 2 2.71778 114.875 19.4372
8946 2 0.896267 114.846 22.0131
2683 1 1.80557 116.438 20.7476
8944 2 3.62323 116.423 22.0338
8959 2 5.44451 116.451 19.4585
2655 1 4.53499 114.861 20.7265
8910 2 6.35251 114.846 22.0131
2653 1 7.26181 116.438 20.7476
8913 2 8.17401 114.875 19.4372
2604 1 9.99122 114.861 20.7265
8911 2 9.07947 116.423 22.0338
12234 2 10.9007 116.451 19.4585
8950 2 2.71513 118.028 19.4789
8945 2 0.894081 118.001 22.0537
2675 1 1.80337 119.592 20.7871
8947 2 3.62129 119.58 22.0727
8948 2 5.44211 119.605 19.4985
2654 1 4.53253 118.015 20.7678
8902 2 6.35032 118.001 22.0537
2656 1 7.2596 119.592 20.7871
8912 2 8.17137 118.028 19.4789
2603 1 9.98876 118.015 20.7678
8900 2 9.07753 119.58 22.0727
12235 2 10.8983 119.605 19.4985
8949 2 2.71296 121.183 19.5172
8932 2 0.892363 121.158 22.0909
2676 1 1.8016 122.749 20.8232
8930 2 3.61977 122.738 22.1083
8951 2 5.44014 122.761 19.535
2643 1 4.53055 121.171 20.8056
8901 2 6.3486 121.158 22.0909
2641 1 7.25784 122.749 20.8232
8905 2 8.1692 121.183 19.5172
2602 1 9.98679 121.171 20.8056
8903 2 9.076 122.738 22.1083
12230 2 10.8964 122.761 19.535
8936 2 2.71118 124.339 19.5519
8931 2 0.891011 124.317 22.1248
2668 1 1.80018 125.907 20.8558
8933 2 3.61856 125.897 22.1404
8934 2 5.43854 125.917 19.568
2642 1 4.52897 124.328 20.8399
8887 2 6.34725 124.317 22.1248
2644 1 7.25642 125.907 20.8558
8904 2 8.16742 124.339 19.5519
2595 1 9.98521 124.328 20.8399
8885 2 9.0748 125.897 22.1404
12231 2 10.8948 125.917 19.568
8935 2 2.70973 127.496 19.5831
8924 2 0.889941 127.477 22.1551
2669 1 1.79903 129.066 20.8847
8922 2 3.61761 129.057 22.169
8937 2 5.43723 129.075 19.5972
2628 1 4.52769 127.487 20.8707
8886 2 6.34618 127.477 22.1551
2626 1 7.25527 129.066 20.8847
8890 2 8.16597 127.496 19.5831
2594 1 9.98393 127.487 20.8707
8888 2 9.07385 129.057 22.169
12229 2 10.8935 129.075 19.5972
8925 2 2.70855 130.654 19.6105
8923 2 0.889092 130.638 22.1819
3066 1 1.79812 132.226 20.91
9364 2 3.61685 132.219 22.1939
2627 1 4.52667 130.646 20.8978
8869 2 6.34533 130.638 22.1819
9365 2 5.43617 132.233 19.6228
3045 1 7.25436 132.226 20.91
8889 2 8.16479 130.654 19.6105
2579 1 9.98291 130.646 20.8978
9317 2 9.07309 132.219 22.1939
12646 2 10.8924 132.233 19.6228
2635 1 0.891858 114.799 25.8774
2651 1 2.71338 114.831 23.3023
8943 2 1.80202 116.394 24.6085
2633 1 3.61929 116.379 25.8972
2598 1 6.3481 114.799 25.8774
8898 2 4.531 114.815 24.5885
2652 1 5.44047 116.409 23.3228
8896 2 7.25826 116.394 24.6085
2601 1 8.16961 114.831 23.3023
8844 2 9.98724 114.815 24.5885
2599 1 9.07553 116.379 25.8972
5745 1 10.8967 116.409 23.3228
2634 1 0.890596 117.959 25.9161
2639 1 2.71146 117.987 23.3423
8928 2 1.80065 119.553 24.6463
2590 1 6.34683 117.959 25.9161
8897 2 4.5294 117.973 24.6278
2637 1 5.4388 119.566 23.3611
8899 2 7.25689 119.553 24.6463
2600 1 8.16769 117.987 23.3423
8843 2 9.98564 117.973 24.6278
5746 1 10.895 119.566 23.3611
2638 1 2.71 121.146 23.3791
8929 2 1.79964 122.714 24.6808
8883 2 4.52823 121.133 24.664
2640 1 5.43752 122.726 23.3962
8881 2 7.25588 122.714 24.6808
2593 1 8.16623 121.146 23.3791
8842 2 9.98447 121.133 24.664
5738 1 10.8938 122.726 23.3962
2624 1 2.70888 124.306 23.4125
8920 2 1.79889 125.876 24.7121
8882 2 4.52736 124.295 24.6969
2622 1 5.43654 125.887 23.4279
8884 2 7.25513 125.876 24.7121
2592 1 8.16512 124.306 23.4125
8835 2 9.9836 124.295 24.6969
5739 1 10.8928 125.887 23.4279
2623 1 2.70802 127.468 23.4424
8921 2 1.79833 129.04 24.7399
8868 2 4.52671 127.458 24.7264
2625 1 5.43578 129.049 23.4561
8866 2 7.25457 129.04 24.7399
2578 1 8.16426 127.468 23.4424
8834 2 9.98295 127.458 24.7264
5737 1 10.892 129.049 23.4561
2613 1 2.70735 130.63 23.4689
9350 2 1.7979 132.204 24.7643
8867 2 4.52622 130.622 24.7526
3034 1 5.43519 132.211 23.4808
9316 2 7.25414 132.204 24.7643
2577 1 8.16359 130.63 23.4689
8820 2 9.98246 130.622 24.7526
6137 1 10.8914 132.211 23.4808
8894 2 2.70971 114.783 27.1629
2632 1 1.79847 116.348 28.4704
2586 1 4.5269 114.766 28.4513
8895 2 5.43732 116.364 27.1823
2584 1 7.25471 116.348 28.4704
12190 2 10.8936 116.364 27.1823
2538 1 9.98314 114.766 28.4513
8841 2 8.16595 114.783 27.1629
2636 1 3.61824 119.54 25.9343
8879 2 2.70879 117.944 27.201
2616 1 1.79811 119.512 28.5064
2585 1 4.52637 117.93 28.4887
8877 2 5.43659 119.526 27.2189
2587 1 7.25435 119.512 28.5064
12191 2 10.8928 119.526 27.2189
2588 1 9.07448 119.54 25.9343
2537 1 9.98261 117.93 28.4887
8840 2 8.16503 117.944 27.201
2620 1 0.889726 121.121 25.9517
2618 1 3.61752 122.702 25.9683
8878 2 2.70822 121.108 27.236
2617 1 1.79797 122.678 28.5394
2589 1 6.34596 121.121 25.9517
2571 1 4.52614 121.095 28.5233
8880 2 5.43614 122.69 27.2524
2569 1 7.25421 122.678 28.5394
12182 2 10.8924 122.69 27.2524
2591 1 9.07376 122.702 25.9683
2536 1 9.98238 121.095 28.5233
8833 2 8.16446 121.108 27.236
2619 1 0.889126 124.284 25.9841
2621 1 3.61702 125.866 25.9991
8864 2 2.70787 124.273 27.268
2608 1 1.79796 125.845 28.5694
2575 1 6.34536 124.284 25.9841
2570 1 4.52607 124.261 28.5548
8862 2 5.43587 125.856 27.2828
2572 1 7.2542 125.845 28.5694
12183 2 10.8921 125.856 27.2828
2573 1 9.07326 125.866 25.9991
2529 1 9.98231 124.261 28.5548
8832 2 8.1641 124.273 27.268
2612 1 0.888708 127.448 26.0133
2610 1 3.61667 129.031 26.0267
8863 2 2.70766 127.439 27.2968
2609 1 1.79802 129.013 28.5963
2574 1 6.34495 127.448 26.0133
2557 1 4.5261 127.429 28.5833
8865 2 5.43571 129.022 27.31
2555 1 7.25426 129.013 28.5963
12181 2 10.8919 129.022 27.31
2576 1 9.0729 129.031 26.0267
2528 1 9.98234 127.429 28.5833
8819 2 8.16389 127.439 27.2968
2611 1 0.888411 130.614 26.0392
8853 2 2.70753 130.606 27.3224
3033 1 3.61641 132.197 26.0508
3015 1 1.7981 132.182 28.6199
2558 1 6.34465 130.614 26.0392
2556 1 4.52618 130.597 28.6085
9301 2 5.43561 132.189 27.3339
2980 1 7.25434 132.182 28.6199
2517 1 9.98242 130.597 28.6085
8818 2 8.16377 130.606 27.3224
2981 1 9.07265 132.197 26.0508
12613 2 10.8918 132.189 27.3339
2582 1 2.70628 114.732 31.0236
8875 2 0.888866 114.75 29.7359
8872 2 1.7971 116.299 32.3255
8873 2 3.61686 116.332 29.7547
8826 2 4.52497 114.715 32.3072
8838 2 6.3451 114.75 29.7359
2583 1 5.43449 116.316 31.0421
8824 2 7.25334 116.299 32.3255
5686 1 10.8907 116.316 31.0421
2535 1 8.16252 114.732 31.0236
8796 2 9.98121 114.715 32.3072
8839 2 9.0731 116.332 29.7547
2567 1 2.70652 117.899 31.0599
8874 2 0.888683 117.915 29.7728
8856 2 1.7977 119.469 32.3601
8876 2 3.6168 119.498 29.7902
8825 2 4.52551 117.884 32.3431
8830 2 6.34492 117.915 29.7728
2565 1 5.43482 119.484 31.077
8827 2 7.25394 119.469 32.3601
5687 1 10.8911 119.484 31.077
2534 1 8.16275 117.899 31.0599
8795 2 9.98175 117.884 32.3431
8828 2 9.07304 119.498 29.7902
2566 1 2.70691 121.068 31.0935
8860 2 0.888726 121.082 29.8069
8857 2 1.79835 122.641 32.392
8858 2 3.61692 122.666 29.8229
8812 2 4.52614 121.055 32.3764
8829 2 6.34496 121.082 29.8069
2568 1 5.43525 122.653 31.1092
8810 2 7.25459 122.641 32.392
5678 1 10.8915 122.653 31.1092
2527 1 8.16315 121.068 31.0935
8794 2 9.98238 121.055 32.3764
8831 2 9.07316 122.666 29.8229
2553 1 2.70736 124.238 31.1243
8859 2 0.888894 124.25 29.8381
8848 2 1.799 125.813 32.421
8861 2 3.61712 125.834 29.8525
8811 2 4.5268 124.227 32.4069
8816 2 6.34513 124.25 29.8381
2551 1 5.43572 125.824 31.1386
8813 2 7.25524 125.813 32.421
5679 1 10.892 125.824 31.1386
2526 1 8.1636 124.238 31.1243
8791 2 9.98304 124.227 32.4069
8814 2 9.07336 125.834 29.8525
2552 1 2.70782 127.409 31.1521
8852 2 0.889117 127.419 29.8662
8849 2 1.79959 128.986 32.4471
8850 2 3.61735 129.004 29.8791
8804 2 4.52742 127.399 32.4345
8815 2 6.34536 127.419 29.8662
2554 1 5.43616 128.995 31.1649
8802 2 7.25583 128.986 32.4471
5677 1 10.8924 128.995 31.1649
2516 1 8.16406 127.409 31.1521
8790 2 9.98366 127.399 32.4345
8817 2 9.07359 129.004 29.8791
2544 1 2.70825 130.581 31.1768
8851 2 0.889351 130.589 29.8912
9279 2 1.80011 132.16 32.4701
9300 2 3.61758 132.175 29.9025
8803 2 4.52798 130.573 32.459
8805 2 6.34559 130.589 29.8912
2965 1 5.43656 132.167 31.188
9244 2 7.25635 132.16 32.4701
2515 1 8.16449 130.581 31.1768
8787 2 9.98422 130.573 32.459
6086 1 10.8928 132.167 31.188
9245 2 9.07382 132.175 29.9025
2563 1 0.886501 114.697 33.594
8822 2 2.70578 114.679 34.8764
2561 1 3.61509 116.282 33.612
2532 1 6.34274 114.697 33.594
8823 2 5.43449 116.266 34.8943
12118 2 10.8907 116.266 34.8943
8793 2 8.16202 114.679 34.8764
2533 1 9.07133 116.282 33.612
2564 1 3.61606 119.455 33.6461
2562 1 0.887455 117.868 33.6293
8808 2 2.70697 117.853 34.9115
8806 2 5.43567 119.44 34.9282
2524 1 6.34369 117.868 33.6293
12119 2 10.8919 119.44 34.9282
2522 1 9.0723 119.455 33.6461
8792 2 8.16321 117.853 34.9115
2547 1 3.61702 122.628 33.6776
2549 1 0.888427 121.041 33.6622
8807 2 2.70813 121.027 34.9442
8809 2 5.4368 122.615 34.9596
2523 1 6.34467 121.041 33.6622
12110 2 10.893 122.615 34.9596
2525 1 9.07326 122.628 33.6776
8789 2 8.16437 121.027 34.9442
2550 1 3.61791 125.802 33.7064
8800 2 2.70921 124.203 34.9743
2548 1 0.889354 124.215 33.6924
8798 2 5.43782 125.791 34.9882
2513 1 6.34559 124.215 33.6924
12111 2 10.8941 125.791 34.9882
2511 1 9.07414 125.802 33.7064
8788 2 8.16544 124.203 34.9743
2541 1 3.6187 128.977 33.7323
8799 2 2.71017 127.379 35.0015
2543 1 0.890196 127.389 33.7197
8801 2 5.43873 128.968 35.014
2512 1 6.34643 127.389 33.7197
2514 1 9.07494 128.977 33.7323
8786 2 8.16641 127.379 35.0015
12109 2 10.895 128.968 35.014
8797 2 2.71101 130.556 35.0257
2542 1 0.890933 130.564 33.7441
2964 1 3.61938 132.152 33.7551
2506 1 6.34717 130.564 33.7441
9229 2 5.4395 132.145 35.0366
8785 2 8.16725 130.556 35.0257
12542 2 10.8957 132.145 35.0366
2915 1 9.07562 132.152 33.7551
8998 2 0.887738 114.642 37.4432
14631 1 2.70657 114.624 38.7277
2560 1 1.79671 116.249 36.1797
8996 2 3.61673 116.231 37.4609
8987 2 6.34398 114.642 37.4432
2520 1 4.52403 114.661 36.1621
15016 1 5.43572 116.214 38.7452
2518 1 7.25294 116.249 36.1797
2502 1 9.98027 114.661 36.1621
14601 1 8.16281 114.624 38.7277
8988 2 9.07296 116.231 37.4609
17844 1 10.892 116.214 38.7452
8997 2 0.889445 117.821 37.478
15017 1 2.70859 117.805 38.7623
2545 1 1.79822 119.425 36.2134
8999 2 3.61837 119.41 37.4945
8984 2 6.34568 117.821 37.478
2519 1 4.5256 117.837 36.1969
15018 1 5.43764 119.395 38.7787
2521 1 7.25446 119.425 36.2134
14982 1 8.16483 117.805 38.7623
2501 1 9.98183 117.837 36.1969
8982 2 9.07461 119.41 37.4945
17842 1 10.8939 119.395 38.7787
8994 2 0.89102 121 37.5104
15013 1 2.7104 120.986 38.7945
2546 1 1.79961 122.602 36.2445
8992 2 3.61987 122.589 37.5256
8983 2 6.34726 121 37.5104
2509 1 4.52705 121.014 36.2292
15011 1 5.43935 122.576 38.8097
2507 1 7.25585 122.602 36.2445
14981 1 8.16664 120.986 38.7945
2500 1 9.98329 121.014 36.2292
8985 2 9.07611 122.589 37.5256
17843 1 10.8956 122.576 38.8097
8993 2 0.892433 124.179 37.5402
15012 1 2.71201 124.167 38.8242
2539 1 1.80085 125.78 36.2729
8995 2 3.62119 125.769 37.554
8980 2 6.34867 124.179 37.5402
2508 1 4.52837 124.191 36.2591
15014 1 5.44085 125.758 38.838
2510 1 7.25709 125.78 36.2729
14976 1 8.16825 124.167 38.8242
2499 1 9.98461 124.191 36.2591
8978 2 9.07743 125.769 37.554
17840 1 10.8971 125.758 38.838
8991 2 0.893673 127.359 37.5672
15002 1 2.7134 127.349 38.8511
2540 1 1.80193 128.958 36.2985
8989 2 3.62235 128.949 37.5796
8979 2 6.34991 127.359 37.5672
15000 1 5.44214 128.94 38.8635
2505 1 4.52953 127.369 36.2861
2503 1 7.25817 128.958 36.2985
14975 1 8.16964 127.349 38.8511
2498 1 9.98577 127.369 36.2861
8981 2 9.07858 128.949 37.5796
17841 1 10.8984 128.94 38.8635
8990 2 0.894734 130.539 37.5912
15001 1 2.71459 130.531 38.8751
2943 1 1.80284 132.137 36.3211
9408 2 3.62332 132.129 37.6021
8977 2 6.35097 130.539 37.5912
15003 1 5.44322 132.122 38.8859
2504 1 4.53052 130.548 36.3102
2914 1 7.25908 132.137 36.3211
14962 1 8.17082 130.531 38.8751
2497 1 9.98676 130.548 36.3102
17839 1 10.8995 132.122 38.8859
9394 2 9.07956 132.129 37.6021
20639 2 1.80015 116.197 40.0252
14629 1 0.890447 114.587 41.2907
20229 2 2.71177 114.568 42.5692
15015 1 3.61974 116.179 41.3084
20621 2 5.44104 116.162 42.5872
14581 1 6.34669 114.587 41.2907
20243 2 4.52721 114.605 40.0075
20628 2 7.25639 116.197 40.0252
14978 1 9.07598 116.179 41.3084
20193 2 8.16801 114.568 42.5692
20195 2 9.98345 114.605 40.0075
23458 2 10.8973 116.162 42.5872
20640 2 1.80211 119.38 40.0588
15009 1 0.892732 117.772 41.3255
15007 1 3.6219 119.365 41.3421
20626 2 4.52927 117.789 40.0423
14979 1 6.34897 117.772 41.3255
20624 2 7.25835 119.38 40.0588
14980 1 9.07814 119.365 41.3421
20580 2 9.98551 117.789 40.0423
20636 2 1.80386 122.563 40.09
15008 1 0.894763 120.958 41.358
15010 1 3.6238 122.55 41.3732
20625 2 4.53113 120.972 40.0747
14973 1 6.351 120.958 41.358
20627 2 7.2601 122.563 40.09
14971 1 9.08004 122.55 41.3732
20579 2 9.98737 120.972 40.0747
20637 2 1.80539 125.747 40.1184
14998 1 0.896544 124.143 41.3878
14996 1 3.62546 125.736 41.4017
20618 2 4.53277 124.155 40.1045
14972 1 6.35278 124.143 41.3878
20616 2 7.26163 125.747 40.1184
14974 1 9.0817 125.736 41.4017
20578 2 9.98901 124.155 40.1045
20632 2 1.80671 128.93 40.1439
14997 1 0.898081 127.328 41.4148
14999 1 3.62688 128.921 41.4272
20617 2 4.5342 127.339 40.1315
14959 1 6.35432 127.328 41.4148
20619 2 7.26295 128.93 40.1439
14957 1 9.08312 128.921 41.4272
20571 2 9.99044 127.339 40.1315
20633 2 1.80783 132.114 40.1663
14990 1 0.899385 130.514 41.4388
14988 1 3.62807 132.107 41.4496
14958 1 6.35562 130.514 41.4388
20604 2 4.53542 130.522 40.1555
20602 2 7.26407 132.114 40.1663
14960 1 9.08431 132.107 41.4496
20570 2 9.99165 130.522 40.1555
15005 1 1.80501 116.145 43.8692
20227 2 0.897627 114.531 45.1285
20620 2 3.62689 116.128 45.1469
14579 1 4.53191 114.549 43.8511
20174 2 6.35387 114.531 45.1285
14977 1 7.26125 116.145 43.8692
20573 2 9.08313 116.128 45.1469
14531 1 9.98815 114.549 43.8511
20622 2 2.714 117.756 42.6045
15006 1 1.80724 119.335 43.9035
20610 2 0.89986 117.724 45.1647
20608 2 3.62901 119.32 45.1817
20623 2 5.44315 119.35 42.6212
14969 1 4.53428 117.74 43.8867
20574 2 6.3561 117.724 45.1647
14967 1 7.26348 119.335 43.9035
20577 2 8.17024 117.756 42.6045
14916 1 9.99051 117.74 43.8867
20575 2 9.08525 119.32 45.1817
23454 2 10.8994 119.35 42.6212
20614 2 2.716 120.944 42.6373
14994 1 1.80921 122.524 43.9351
20609 2 0.901867 120.915 45.1981
20611 2 3.6309 122.511 45.2137
20612 2 5.44503 122.537 42.6527
14968 1 4.53638 120.93 43.9197
20566 2 6.35811 120.915 45.1981
14970 1 7.26545 122.524 43.9351
20576 2 8.17224 120.944 42.6373
14915 1 9.99261 120.93 43.9197
20564 2 9.08714 122.511 45.2137
23455 2 10.9013 122.537 42.6527
20613 2 2.71776 124.131 42.6673
14995 1 1.81093 125.713 43.9638
20596 2 0.903644 124.106 45.2286
20594 2 3.63257 125.702 45.2427
20615 2 5.44668 125.724 42.6813
14955 1 4.53822 124.119 43.9498
20565 2 6.35988 124.106 45.2286
14953 1 7.26717 125.713 43.9638
20569 2 8.174 124.131 42.6673
14914 1 9.99446 124.119 43.9498
20567 2 9.08881 125.702 45.2427
23450 2 10.9029 125.724 42.6813
20600 2 2.71929 127.318 42.6945
14986 1 1.8124 128.902 43.9896
20595 2 0.905194 127.297 45.2561
20597 2 3.634 128.893 45.2687
20598 2 5.44809 128.912 42.7069
14954 1 4.53981 127.308 43.9771
20551 2 6.36143 127.297 45.2561
14956 1 7.26864 128.902 43.9896
20568 2 8.17553 127.318 42.6945
14907 1 9.99605 127.308 43.9771
20549 2 9.09024 128.893 45.2687
23451 2 10.9043 128.912 42.7069
20599 2 2.7206 130.505 42.7186
14987 1 1.81364 132.091 44.0122
20588 2 0.906522 130.488 45.2804
20586 2 3.63522 132.083 45.2914
20601 2 5.44929 132.099 42.7294
14940 1 4.54117 130.497 44.0013
20550 2 6.36276 130.488 45.2804
14938 1 7.26988 132.091 44.0122
20554 2 8.17684 130.505 42.7186
14906 1 9.99741 130.497 44.0013
20552 2 9.09146 132.083 45.2914
23449 2 10.9055 132.099 42.7294
20606 2 1.81386 116.093 47.7046
14563 1 0.906062 114.476 48.9652
14565 1 2.71842 114.512 46.4092
14963 1 3.63524 116.076 48.9846
14964 1 5.4477 116.11 46.4279
14512 1 6.3623 114.476 48.9652
20172 2 4.5409 114.494 47.6855
20572 2 7.2701 116.093 47.7046
14909 1 9.09147 116.076 48.9846
14529 1 8.17466 114.512 46.4092
20133 2 9.99714 114.494 47.6855
17824 1 10.9039 116.11 46.4279
14947 1 0.908126 117.675 49.0032
14965 1 2.72069 117.707 46.4459
20607 2 1.81586 119.289 47.7405
14945 1 3.63721 119.274 49.021
14910 1 6.36436 117.675 49.0032
14966 1 5.44986 119.304 46.4631
20562 2 4.543 117.691 47.7229
20560 2 7.2721 119.289 47.7405
14911 1 9.09345 119.274 49.021
14913 1 8.17693 117.707 46.4459
20514 2 9.99924 117.691 47.7229
17812 1 10.9061 119.304 46.4631
14946 1 0.910003 120.873 49.038
14951 1 2.72273 120.901 46.4796
20592 2 1.81767 122.485 47.7732
14902 1 6.36624 120.873 49.038
14948 1 3.63899 122.471 49.0541
14949 1 5.45178 122.498 46.4954
20561 2 4.54491 120.887 47.7572
20563 2 7.27391 122.485 47.7732
17813 1 10.908 122.498 46.4954
14900 1 9.09523 122.471 49.0541
14912 1 8.17897 120.901 46.4796
20513 2 10.0011 120.887 47.7572
14932 1 0.911686 124.07 49.0695
14950 1 2.72454 124.094 46.5104
20593 2 1.81927 125.679 47.8028
14901 1 6.36792 124.07 49.0695
14930 1 3.64057 125.668 49.0841
14952 1 5.45347 125.691 46.5246
20547 2 4.54661 124.082 47.7884
17804 1 10.9097 125.691 46.5246
14903 1 9.09681 125.668 49.0841
14905 1 8.18078 124.094 46.5104
20512 2 10.0029 124.082 47.7884
20545 2 7.27551 125.679 47.8028
14931 1 0.913173 127.266 49.0978
14936 1 2.72611 127.287 46.5381
20584 2 1.82067 128.873 47.8292
14887 1 6.36941 127.266 49.0978
14933 1 3.64196 128.864 49.1106
14934 1 5.45493 128.883 46.5507
20546 2 4.54811 127.276 47.8164
17805 1 10.9112 128.883 46.5507
14885 1 9.0982 128.864 49.1106
14904 1 8.18235 127.287 46.5381
20505 2 10.0044 127.276 47.8164
20548 2 7.27691 128.873 47.8292
14924 1 0.914461 130.462 49.1226
14935 1 2.72746 130.479 46.5625
20585 2 1.82187 132.067 47.8522
14886 1 6.3707 130.462 49.1226
14922 1 3.64315 132.06 49.1338
14937 1 5.45617 132.075 46.5735
20533 2 4.54941 130.47 47.8411
17803 1 10.9124 132.075 46.5735
14888 1 9.09939 132.06 49.1338
14890 1 8.18369 130.479 46.5625
20504 2 10.0056 130.47 47.8411
20531 2 7.2781 132.067 47.8522
14943 1 1.82368 116.042 51.5396
20605 2 0.00180244 116.059 50.2605
20160 2 2.72897 114.458 50.2407
20557 2 5.45804 116.059 50.2605
14510 1 4.5509 114.44 51.5194
14908 1 7.27992 116.042 51.5396
14480 1 10.0071 114.44 51.5194
20131 2 8.18521 114.458 50.2407
14944 1 1.8254 119.244 51.5773
20558 2 2.73084 117.659 50.2795
20590 2 0.0036042 119.259 50.2976
14898 1 4.55268 117.643 51.5589
20559 2 5.45984 119.259 50.2976
14856 1 10.0089 117.643 51.5589
14896 1 7.28164 119.244 51.5773
20511 2 8.18708 117.659 50.2795
14928 1 1.82698 122.445 51.6116
20543 2 2.73257 120.859 50.3149
20591 2 0.00525326 122.458 50.3313
14897 1 4.55433 120.845 51.5949
20541 2 5.46149 122.458 50.3313
14855 1 10.0106 120.845 51.5949
14899 1 7.28322 122.445 51.6116
20510 2 8.18881 120.859 50.3149
14929 1 1.82842 125.645 51.6422
20542 2 2.73414 124.057 50.3469
20582 2 0.00673835 125.656 50.3616
14883 1 4.55584 124.045 51.6273
20544 2 5.46298 125.656 50.3616
14854 1 10.0121 124.045 51.6273
14881 1 7.28466 125.645 51.6422
20503 2 8.19037 124.057 50.3469
14920 1 1.82969 128.845 51.6694
20529 2 2.73554 127.255 50.3755
20583 2 0.00805245 128.854 50.3885
14882 1 4.5572 127.245 51.6563
20527 2 5.46429 128.854 50.3885
14848 1 10.0134 127.245 51.6563
14884 1 7.28593 128.845 51.6694
20502 2 8.19177 127.255 50.3755
14921 1 1.83081 132.044 51.693
20528 2 2.73676 130.453 50.4006
20581 2 0.00919141 132.051 50.4119
14871 1 4.55839 130.444 51.6816
20530 2 5.46543 132.051 50.4119
14847 1 10.0146 130.444 51.6816
14869 1 7.28705 132.044 51.693
20492 2 8.193 130.453 50.4006
14942 1 0.0128762 116.008 54.0933
20535 2 1.83622 115.992 55.3681
14500 1 2.74025 114.405 54.0722
20158 2 0.917872 114.423 52.7942
14893 1 5.46911 116.008 54.0933
20556 2 3.6468 116.025 52.8149
20120 2 4.56366 114.388 55.3466
20122 2 6.37411 114.423 52.7942
20506 2 7.29246 115.992 55.3681
20507 2 9.10304 116.025 52.8149
14478 1 8.19649 114.405 54.0722
20113 2 10.0199 114.388 55.3466
14894 1 2.74172 117.611 54.1133
14926 1 0.0143144 119.214 54.1324
20536 2 1.83753 119.2 55.4079
20539 2 0.919477 117.627 52.8346
14895 1 5.47055 119.214 54.1324
20496 2 4.565 117.596 55.3885
20508 2 6.37571 117.627 52.8346
20537 2 3.64836 119.229 52.8533
14853 1 8.19796 117.611 54.1133
20478 2 10.0212 117.596 55.3885
20494 2 7.29377 119.2 55.4079
20509 2 9.1046 119.229 52.8533
14879 1 2.74312 120.817 54.1506
14927 1 0.0156725 122.419 54.1678
20521 2 1.83878 122.406 55.4438
20538 2 0.920984 120.831 52.8712
14877 1 5.47191 122.419 54.1678
20495 2 4.56629 120.803 55.4263
20500 2 6.37722 120.831 52.8712
20540 2 3.64982 122.432 52.8881
14852 1 8.19936 120.817 54.1506
20477 2 10.0225 120.803 55.4263
20497 2 7.29502 122.406 55.4438
20498 2 9.10605 122.432 52.8881
14878 1 2.74444 124.021 54.184
14918 1 0.0169339 125.622 54.1993
20522 2 1.83996 125.611 55.4757
20525 2 0.922379 124.033 52.9041
14880 1 5.47317 125.622 54.1993
20485 2 4.5675 124.008 55.4603
20499 2 6.37862 124.033 52.9041
20523 2 3.65115 125.634 52.9192
14846 1 8.20067 124.021 54.184
20476 2 10.0237 124.008 55.4603
20483 2 7.2962 125.611 55.4757
20501 2 9.10739 125.634 52.9192
14867 1 2.74564 127.224 54.2136
14919 1 0.0180827 128.825 54.227
20515 2 1.84104 128.815 55.5038
20524 2 0.923649 127.234 52.9334
20526 2 3.65235 128.835 52.9467
20489 2 6.37989 127.234 52.9334
14865 1 5.47432 128.825 54.227
20484 2 4.56863 127.213 55.4903
20487 2 9.10859 128.835 52.9467
20486 2 7.29728 128.815 55.5038
20475 2 10.0249 127.213 55.4903
14845 1 8.20188 127.224 54.2136
20519 2 0.92478 130.435 52.9591
20516 2 1.84201 132.019 55.5281
14917 1 0.0191047 132.028 54.2511
14866 1 2.74673 130.426 54.2395
20517 2 3.65341 132.035 52.9705
20488 2 6.38102 130.435 52.9591
20481 2 4.56966 130.417 55.5164
14868 1 5.47534 132.028 54.2511
20490 2 9.10965 132.035 52.9705
20479 2 7.29825 132.019 55.5281
20474 2 10.0259 130.417 55.5164
14839 1 8.20297 130.426 54.2395
15191 1 1.84904 115.943 59.1979
20832 2 0.0261261 115.959 57.9204
14498 1 0.930157 114.37 56.624
20439 2 2.75368 114.354 57.8982
14892 1 3.65887 115.975 56.6459
20824 2 5.48236 115.959 57.9204
14795 1 4.57668 114.336 59.1753
14473 1 6.3864 114.37 56.624
14849 1 9.11511 115.975 56.6459
15180 1 7.30528 115.943 59.1979
14747 1 10.0329 114.336 59.1753
20409 2 8.20992 114.354 57.8982
14875 1 0.931347 117.58 56.6667
15192 1 1.85001 119.155 59.2398
20830 2 0.0272276 119.17 57.9616
20825 2 2.7548 117.565 57.9415
14873 1 3.66005 119.185 56.6865
14850 1 6.38759 117.58 56.6667
15178 1 4.57765 117.549 59.2194
20826 2 5.48347 119.17 57.9616
15132 1 10.0339 117.549 59.2194
14851 1 9.11629 119.185 56.6865
15176 1 7.30625 119.155 59.2398
20790 2 8.21104 117.565 57.9415
14874 1 0.932509 120.789 56.7052
20831 2 0.0282994 122.379 57.9985
20821 2 2.75589 120.775 57.9806
14876 1 3.6612 122.392 56.7229
15177 1 4.57861 120.761 59.2591
14843 1 6.38875 120.789 56.7052
20819 2 5.48454 122.379 57.9985
15131 1 10.0349 120.761 59.2591
14841 1 9.11743 122.392 56.7229
20789 2 8.21213 120.775 57.9806
14863 1 0.93363 123.996 56.7396
20828 2 0.0293317 125.588 58.0313
20820 2 2.75694 123.984 58.0154
14861 1 3.66229 125.599 56.7553
14842 1 6.38987 123.996 56.7396
20822 2 5.48557 125.588 58.0313
14844 1 9.11853 125.599 56.7553
20784 2 8.21318 123.984 58.0154
14862 1 0.934691 127.203 56.77
20829 2 0.0303059 128.796 58.06
20810 2 2.75795 127.192 58.0461
14864 1 3.66331 128.806 56.7837
14836 1 6.39093 127.203 56.77
20808 2 5.48654 128.796 58.06
14834 1 9.11955 128.806 56.7837
20783 2 8.21418 127.192 58.0461
14859 1 0.935671 130.408 56.7964
20827 2 0.0312013 132.003 58.0847
20809 2 2.75888 130.399 58.0728
14857 1 3.66424 132.011 56.8082
14835 1 6.39191 130.408 56.7964
20811 2 5.48744 132.003 58.0847
14837 1 9.12048 132.011 56.8082
20770 2 8.21512 130.399 58.0728
15190 1 0.0394833 115.911 61.7496
14781 1 2.76718 114.303 61.7264
20437 2 0.944029 114.32 60.4493
15173 1 5.49572 115.911 61.7496
20823 2 3.67263 115.927 60.4722
20389 2 6.40027 114.32 60.4493
20786 2 9.12887 115.927 60.4722
14745 1 8.22342 114.303 61.7264
15174 1 2.76802 117.519 61.7716
15186 1 0.0403167 119.126 61.7926
20817 2 0.944987 117.534 60.4939
15175 1 5.49656 119.126 61.7926
20787 2 6.40123 117.534 60.4939
20815 2 3.67358 119.141 60.5145
15129 1 8.22425 117.519 61.7716
20788 2 9.12982 119.141 60.5145
15188 1 1.85098 122.366 59.2772
15166 1 2.76886 120.733 61.8123
15187 1 0.0411721 122.34 61.8309
20816 2 0.945931 120.747 60.534
15164 1 5.49741 122.34 61.8309
20781 2 6.40217 120.747 60.534
20818 2 3.67452 122.353 60.5524
15179 1 7.30722 122.366 59.2772
15128 1 8.2251 120.733 61.8123
20779 2 9.13076 122.353 60.5524
15189 1 1.85193 125.576 59.3104
15165 1 2.76972 123.947 61.8485
15182 1 0.042034 125.553 61.8649
20806 2 0.946866 123.959 60.5697
15170 1 4.57958 123.971 59.2944
15167 1 5.49827 125.553 61.8649
20780 2 6.4031 123.959 60.5697
20804 2 3.67545 125.565 60.5859
15130 1 10.0358 123.971 59.2944
15168 1 7.30817 125.576 59.3104
15121 1 8.22596 123.947 61.8485
20782 2 9.13168 125.565 60.5859
15184 1 1.85285 128.786 59.3394
15152 1 2.77058 127.16 61.8802
15183 1 0.042884 128.766 61.8944
20805 2 0.947779 127.171 60.6011
15169 1 4.58052 127.181 59.3255
15150 1 5.49912 128.766 61.8944
20767 2 6.40402 127.171 60.6011
20807 2 3.67634 128.776 60.6152
15123 1 10.0368 127.181 59.3255
15171 1 7.30909 128.786 59.3394
15120 1 8.22682 127.16 61.8802
20765 2 9.13258 128.776 60.6152
15185 1 1.85371 131.995 59.3644
15151 1 2.77142 130.373 61.9076
15181 1 0.0436956 131.979 61.9197
20798 2 0.948648 130.381 60.6283
15156 1 4.58141 130.391 59.3524
15153 1 5.49993 131.979 61.9197
20766 2 6.40489 130.381 60.6283
20796 2 3.67718 131.987 60.6403
15122 1 10.0376 130.391 59.3524
15154 1 7.30995 131.995 59.3644
15106 1 8.22765 130.373 61.9076
20768 2 9.13342 131.987 60.6403
20812 2 0.0538258 115.864 65.5743
20813 2 1.86315 115.895 63.0235
14779 1 0.957791 114.271 64.2777
20373 2 2.78152 114.254 65.5505
15172 1 3.68632 115.88 64.3014
20772 2 5.51006 115.864 65.5743
14726 1 6.41403 114.271 64.2777
20387 2 4.59083 114.287 63.0001
15125 1 9.14256 115.88 64.3014
20785 2 7.31939 115.895 63.0235
20337 2 8.23775 114.254 65.5505
20339 2 10.0471 114.287 63.0001
15162 1 0.958576 117.489 64.3239
20773 2 2.7824 117.473 65.5969
20800 2 0.0547216 119.082 65.6183
20814 2 1.86402 119.112 63.0668
15126 1 6.41481 117.489 64.3239
15160 1 3.68711 119.097 64.3452
20774 2 5.51096 119.082 65.6183
20777 2 4.5917 117.504 63.0457
15127 1 9.14334 119.097 64.3452
20721 2 8.23864 117.473 65.5969
20724 2 10.0479 117.504 63.0457
20775 2 7.32026 119.112 63.0668
15161 1 0.959388 120.706 64.3654
20759 2 2.78328 120.692 65.6386
20801 2 0.0555927 122.301 65.6577
20802 2 1.86489 122.327 63.1055
15118 1 6.41563 120.706 64.3654
15163 1 3.68792 122.314 64.3844
20757 2 5.51183 122.301 65.6577
20776 2 4.59258 120.719 63.0867
15116 1 9.14415 122.314 64.3844
20720 2 8.23952 120.692 65.6386
20723 2 10.0488 120.719 63.0867
20778 2 7.32113 122.327 63.1055
15148 1 0.960209 123.923 64.4022
20758 2 2.78415 123.91 65.6756
20792 2 0.0564643 125.519 65.6924
20803 2 1.86576 125.542 63.1397
15117 1 6.41645 123.923 64.4022
15146 1 3.68874 125.531 64.4189
20760 2 5.5127 125.519 65.6924
20763 2 4.59345 123.935 63.1231
15119 1 9.14498 125.531 64.4189
20713 2 8.24039 123.91 65.6756
20722 2 10.0497 123.935 63.1231
20761 2 7.322 125.542 63.1397
15147 1 0.961041 127.139 64.4345
20744 2 2.78502 127.128 65.708
20793 2 0.0573276 128.737 65.7226
20794 2 1.86662 128.756 63.1694
15103 1 6.41728 127.139 64.4345
15149 1 3.68957 128.747 64.4489
20742 2 5.51357 128.737 65.7226
20762 2 4.59431 127.149 63.1551
15101 1 9.14581 128.747 64.4489
20712 2 8.24126 127.128 65.708
20715 2 10.0506 127.149 63.1551
20764 2 7.32286 128.756 63.1694
15140 1 0.961863 130.355 64.4623
20743 2 2.78587 130.345 65.736
20791 2 0.0581567 131.954 65.7484
20795 2 1.86743 131.97 63.1949
15102 1 6.4181 130.355 64.4623
15138 1 3.69038 131.962 64.4746
20745 2 5.5144 131.954 65.7484
20748 2 4.59515 130.363 63.1827
15104 1 9.14662 131.962 64.4746
20698 2 8.24211 130.345 65.736
20714 2 10.0514 130.363 63.1827
20746 2 7.32367 131.97 63.1949
15158 1 1.87691 115.849 66.8542
20371 2 0.972241 114.221 68.0997
20771 2 3.70085 115.832 68.1237
14724 1 4.60452 114.238 66.8305
20320 2 6.42848 114.221 68.0997
15124 1 7.33315 115.849 66.8542
20717 2 9.15709 115.832 68.1237
14685 1 10.0608 114.238 66.8305
15159 1 1.87773 119.069 66.8988
20755 2 0.973207 117.442 68.1466
15114 1 4.60544 117.459 66.8771
20718 2 6.42945 117.442 68.1466
20753 2 3.70179 119.053 68.1683
15066 1 10.0617 117.459 66.8771
15112 1 7.33397 119.069 66.8988
20719 2 9.15803 119.053 68.1683
15144 1 1.87856 122.289 66.9386
20754 2 0.97414 120.664 68.1888
15113 1 4.60626 120.679 66.9193
20710 2 6.43038 120.664 68.1888
20756 2 3.70273 122.275 68.2082
15065 1 10.0625 120.679 66.9193
15115 1 7.33479 122.289 66.9386
20708 2 9.15896 122.275 68.2082
15145 1 1.87941 125.508 66.9736
20740 2 0.975075 123.885 68.2263
15099 1 4.6071 123.899 66.9567
20709 2 6.43131 123.885 68.2263
20738 2 3.70366 125.496 68.2432
15064 1 10.0633 123.899 66.9567
15097 1 7.33565 125.508 66.9736
20711 2 9.1599 125.496 68.2432
15136 1 1.88027 128.728 67.004
20739 2 0.976009 127.106 68.2591
15098 1 4.60796 127.118 66.9893
20695 2 6.43225 127.106 68.2591
20741 2 3.70459 128.717 68.2737
15057 1 10.0642 127.118 66.9893
15100 1 7.33651 128.728 67.004
20693 2 9.16083 128.717 68.2737
15137 1 1.88111 131.947 67.0299
20732 2 0.976919 130.327 68.2873
15085 1 4.60882 130.337 67.0175
20694 2 6.43316 130.327 68.2873
20730 2 3.70547 131.938 68.2998
15056 1 10.0651 130.337 67.0175
15083 1 7.33735 131.947 67.0299
20696 2 9.16171 131.938 68.2998
15157 1 0.0664446 115.817 69.4121
20751 2 1.89122 115.799 70.6694
14710 1 0.978457 114.173 71.9631
14712 1 2.79407 114.206 69.3879
15108 1 3.70715 115.785 71.9873
15109 1 5.52268 115.817 69.4121
14674 1 6.4347 114.173 71.9631
20318 2 4.61878 114.186 70.6453
15059 1 9.16338 115.785 71.9873
20716 2 7.34746 115.799 70.6694
14683 1 8.25031 114.206 69.3879
20288 2 10.075 114.186 70.6453
15091 1 0.979599 117.398 72.0103
15110 1 2.79505 117.428 69.4351
15142 1 0.0674116 119.04 69.457
20752 2 1.89232 119.023 70.7141
15060 1 6.43584 117.398 72.0103
15089 1 3.7083 119.011 72.0322
15111 1 5.52365 119.04 69.457
20706 2 4.6199 117.411 70.6924
15061 1 9.16454 119.011 72.0322
15063 1 8.25129 117.428 69.4351
20664 2 10.0761 117.411 70.6924
20704 2 7.34856 119.023 70.7141
15090 1 0.980773 120.623 72.0528
15095 1 2.79602 120.651 69.4776
15143 1 0.0683909 122.263 69.497
20736 2 1.89341 122.248 70.7541
15052 1 6.43701 120.623 72.0528
15092 1 3.70949 122.236 72.0723
15093 1 5.52463 122.263 69.497
20705 2 4.62098 120.635 70.7347
15050 1 9.16573 122.236 72.0723
15062 1 8.25226 120.651 69.4776
20663 2 10.0772 120.635 70.7347
20707 2 7.34965 122.248 70.7541
15077 1 0.981983 123.849 72.0906
15094 1 2.79701 123.874 69.5152
15134 1 0.0693882 125.485 69.5322
20737 2 1.89449 125.472 70.7894
15051 1 6.43822 123.849 72.0906
15075 1 3.71071 125.462 72.1077
15096 1 5.52563 125.485 69.5322
20691 2 4.62207 123.86 70.7723
15053 1 9.16695 125.462 72.1077
15055 1 8.25325 123.874 69.5152
20662 2 10.0783 123.86 70.7723
20689 2 7.35073 125.472 70.7894
15076 1 0.983197 127.075 72.1236
15081 1 2.79801 127.096 69.5481
15135 1 0.0703797 128.708 69.5629
20728 2 1.89555 128.696 70.82
15041 1 6.43944 127.075 72.1236
15078 1 3.71191 128.687 72.1384
15079 1 5.52662 128.708 69.5629
20690 2 4.62314 127.084 70.8053
15039 1 9.16815 128.687 72.1384
15054 1 8.25424 127.096 69.5481
20656 2 10.0794 127.084 70.8053
20692 2 7.35178 128.696 70.82
15071 1 0.984367 130.3 72.1521
15080 1 2.79898 130.319 69.5765
15133 1 0.0713282 131.93 69.589
20729 2 1.89654 131.92 70.8463
15040 1 6.44061 130.3 72.1521
15069 1 3.71304 131.913 72.1647
15082 1 5.52757 131.93 69.589
20679 2 4.62417 130.308 70.8337
15042 1 9.16928 131.913 72.1647
15044 1 8.25522 130.319 69.5765
20655 2 10.0804 130.308 70.8337
20677 2 7.35278 131.92 70.8463
15087 1 1.83291 115.759 74.639
20750 2 0.0796912 115.765 73.2011
20306 2 0.968231 114.123 75.6524
20308 2 2.80717 114.152 73.1771
20700 2 3.69693 115.738 75.6761
20701 2 5.53593 115.765 73.2011
14672 1 4.56073 114.146 74.615
20281 2 6.42447 114.123 75.6524
15058 1 7.28915 115.759 74.639
20657 2 9.15317 115.738 75.6761
14665 1 10.017 114.146 74.615
20286 2 8.26341 114.152 73.1771
15088 1 1.83381 118.985 74.6836
20683 2 0.969437 117.352 75.6989
20702 2 2.80844 117.379 73.224
20734 2 0.0809599 118.992 73.2458
15048 1 4.56143 117.372 74.6619
20658 2 6.42568 117.352 75.6989
20681 2 3.69823 118.967 75.7204
20703 2 5.5372 118.992 73.2458
15030 1 10.0177 117.372 74.6619
15046 1 7.29004 118.985 74.6836
20659 2 9.15446 118.967 75.7204
20661 2 8.26468 117.379 73.224
15073 1 1.83504 122.212 74.7236
20682 2 0.970813 120.582 75.7409
20687 2 2.80972 120.606 73.2663
20735 2 0.0822365 122.22 73.2857
15047 1 4.56251 120.598 74.7042
20651 2 6.42705 120.582 75.7409
20684 2 3.69967 122.197 75.7602
20685 2 5.53847 122.22 73.2857
15029 1 10.0187 120.598 74.7042
15049 1 7.29128 122.212 74.7236
20649 2 9.15591 122.197 75.7602
20660 2 8.26595 120.606 73.2663
15074 1 1.83648 125.44 74.7589
20671 2 0.972304 123.812 75.7784
20686 2 2.81099 123.834 73.304
20726 2 0.083509 125.448 73.3211
15037 1 4.56386 123.826 74.7418
20650 2 6.42854 123.812 75.7784
20669 2 3.70119 125.427 75.7954
20688 2 5.53975 125.448 73.3211
15028 1 10.0201 123.826 74.7418
15035 1 7.29272 125.44 74.7589
20652 2 9.15742 125.427 75.7954
20654 2 8.26723 123.834 73.304
15067 1 1.83798 128.669 74.7896
20670 2 0.973824 127.042 75.8113
20675 2 2.81225 127.062 73.337
20727 2 0.0847395 128.676 73.3518
15036 1 4.56535 127.054 74.7748
20644 2 6.43006 127.042 75.8113
20672 2 3.70269 128.657 75.8261
20673 2 5.54098 128.676 73.3518
15027 1 10.0216 127.054 74.7748
15038 1 7.29422 128.669 74.7896
20642 2 9.15892 128.657 75.8261
20653 2 8.26849 127.062 73.337
15068 1 1.83944 131.897 74.8159
20667 2 0.975286 130.273 75.8398
20674 2 2.81344 130.289 73.3655
20725 2 0.0858838 131.903 73.3781
15033 1 4.56684 130.283 74.8033
20643 2 6.43152 130.273 75.8398
20665 2 3.70409 131.888 75.8524
20676 2 5.54212 131.903 73.3781
15026 1 10.0231 130.283 74.8033
15031 1 7.29568 131.897 74.8159
20645 2 9.16033 131.888 75.8524
20647 2 8.26968 130.289 73.3655
2879 1 1.78927 132.364 -2.37854
9177 2 0.90062 133.927 -0.923009
9185 2 2.71183 133.942 -3.43033
9183 2 3.62945 132.359 -0.935108
2866 1 4.51627 133.931 -2.36644
9147 2 6.35686 133.927 -0.923009
9184 2 5.44079 132.376 -3.44232
2868 1 7.24551 132.364 -2.37854
2820 1 9.97251 133.931 -2.36644
9146 2 9.08569 132.359 -0.935108
9150 2 8.16807 133.942 -3.43033
12456 2 10.897 132.376 -3.44232
2880 1 1.78723 135.498 -2.35548
9176 2 0.899339 137.062 -0.901999
9181 2 2.71041 137.074 -3.40947
9175 2 3.62807 135.495 -0.911974
2865 1 4.5146 137.065 -2.34559
9141 2 6.35558 137.062 -0.901999
9186 2 5.43919 135.508 -3.41938
2864 1 7.24347 135.498 -2.35548
2819 1 9.97084 137.065 -2.34559
9148 2 9.08431 135.495 -0.911974
9149 2 8.16665 137.074 -3.40947
12454 2 10.8954 135.508 -3.41938
2876 1 1.78585 138.632 -2.33672
9166 2 0.898294 140.197 -0.885202
9180 2 2.70931 140.206 -3.39276
9178 2 3.6269 138.63 -0.893077
2858 1 4.51341 140.199 -2.32889
9140 2 6.35453 140.197 -0.885202
9179 2 5.43794 138.64 -3.40059
2867 1 7.24208 138.632 -2.33672
2818 1 9.96965 140.199 -2.32889
9139 2 9.08314 138.63 -0.893077
9144 2 8.16555 140.206 -3.39276
12455 2 10.8942 138.64 -3.40059
2877 1 1.78481 141.766 -2.3221
9165 2 0.897505 143.332 -0.8726
9170 2 2.70849 143.338 -3.38022
9164 2 3.62599 141.765 -0.878376
2872 1 1.78408 144.899 -2.31165
9167 2 3.62533 144.899 -0.867873
2857 1 4.51253 143.333 -2.31636
9127 2 6.35374 143.332 -0.8726
9182 2 5.43698 141.772 -3.38597
2856 1 7.24105 141.766 -2.3221
2859 1 7.24032 144.899 -2.31165
9168 2 5.4363 144.904 -3.37551
2811 1 9.96877 143.333 -2.31636
9142 2 9.08222 141.765 -0.878376
9143 2 8.16473 143.338 -3.38022
12452 2 10.8932 141.772 -3.38597
9125 2 9.08157 144.899 -0.867873
12453 2 10.8925 144.904 -3.37551
9158 2 0.896977 146.467 -0.864196
9169 2 2.70794 146.469 -3.37185
2873 1 1.78364 148.032 -2.30538
9156 2 3.62493 148.034 -0.86157
2844 1 4.51194 146.466 -2.30799
9126 2 6.35322 146.467 -0.864196
9171 2 5.43589 148.035 -3.36924
2842 1 7.23988 148.032 -2.30538
2810 1 9.96818 146.466 -2.30799
9130 2 8.16418 146.469 -3.37185
9128 2 9.08117 148.034 -0.86157
12451 2 10.8921 148.035 -3.36924
9157 2 0.896713 149.601 -0.859994
9159 2 2.70766 149.601 -3.36767
191 1 1.7835 151.165 -2.30329
6327 2 3.6248 151.168 -0.859469
2843 1 4.51165 149.599 -2.30381
9109 2 6.35295 149.601 -0.859994
6328 2 5.43575 151.166 -3.36715
180 1 7.23973 151.165 -2.30329
2795 1 9.96789 149.599 -2.30381
9129 2 8.1639 149.601 -3.36767
6290 2 9.08104 151.168 -0.859469
9600 2 10.892 151.166 -3.36715
2862 1 2.71568 133.917 0.299961
9173 2 1.80875 132.341 1.61976
2861 1 5.4446 132.349 0.287831
9137 2 4.5361 133.91 1.63192
9145 2 7.26498 132.341 1.61976
2817 1 8.17192 133.917 0.299961
9084 2 9.99233 133.91 1.63192
5950 1 10.9008 132.349 0.287831
2854 1 2.71431 137.054 0.321006
9174 2 1.80727 135.48 1.64301
2863 1 5.44308 135.486 0.311018
9136 2 4.53475 137.049 1.65304
9135 2 7.26351 135.48 1.64301
2816 1 8.17055 137.054 0.321006
9083 2 9.99098 137.049 1.65304
5946 1 10.8993 135.486 0.311018
2853 1 2.71321 140.191 0.337818
9162 2 1.80605 138.618 1.66201
9163 2 1.80509 141.756 1.67677
2852 1 5.44184 138.623 0.329937
9123 2 4.53366 140.187 1.66992
9138 2 7.26229 138.618 1.66201
9121 2 7.26133 141.756 1.67677
2809 1 8.16945 140.191 0.337818
9082 2 9.98989 140.187 1.66992
5947 1 10.8981 138.623 0.329937
2840 1 2.71239 143.327 0.350429
9154 2 1.80441 144.894 1.68731
2855 1 5.44088 141.759 0.344648
9122 2 4.53284 143.325 1.68257
9124 2 7.26065 144.894 1.68731
2838 1 5.4402 144.896 0.355159
2808 1 8.16862 143.327 0.350429
9075 2 9.98907 143.325 1.68257
5942 1 10.8971 141.759 0.344648
5943 1 10.8964 144.896 0.355159
2839 1 2.71184 146.464 0.358838
9155 2 1.804 148.032 1.69364
9108 2 4.53229 146.463 1.691
2841 1 5.43978 148.032 0.361465
9106 2 7.26024 148.032 1.69364
2794 1 8.16808 146.464 0.358838
9074 2 9.98853 146.463 1.691
5941 1 10.896 148.032 0.361465
2829 1 2.71156 149.6 0.363042
6317 2 1.80386 151.17 1.69574
9107 2 4.53202 149.601 1.69522
173 1 5.43965 151.168 0.363568
6289 2 7.2601 151.17 1.69574
2793 1 8.1678 149.6 0.363042
9059 2 9.98826 149.601 1.69522
3262 1 10.8959 151.168 0.363568
2850 1 0.897029 133.902 2.89853
2860 1 3.62595 132.331 2.88635
2846 1 1.8057 132.316 5.46871
9133 2 2.71541 133.895 4.19957
2814 1 6.35327 133.902 2.89853
2802 1 4.533 133.887 5.4809
9132 2 5.44434 132.324 4.18739
2812 1 7.26194 132.316 5.46871
2813 1 9.08219 132.331 2.88635
2748 1 9.98924 133.887 5.4809
9081 2 8.17165 133.895 4.19957
12436 2 10.9006 132.324 4.18739
2849 1 0.895623 137.042 2.9197
2848 1 3.62441 135.472 2.90965
2847 1 1.80413 135.459 5.49202
9119 2 2.714 137.037 4.22074
2832 1 1.80285 138.602 5.51108
2806 1 6.35186 137.042 2.9197
2801 1 4.53157 137.031 5.50208
9134 2 5.44279 135.466 4.21069
2800 1 7.26037 135.459 5.49202
2803 1 7.25908 138.602 5.51108
2815 1 9.08065 135.472 2.90965
2747 1 9.98781 137.031 5.50208
9080 2 8.17024 137.037 4.22074
12424 2 10.899 135.466 4.21069
2836 1 0.894497 140.182 2.93661
2851 1 3.62314 138.612 2.92869
9118 2 2.71287 140.178 4.23766
2833 1 1.80185 141.745 5.52588
2834 1 3.62216 141.752 2.94347
2805 1 6.35074 140.182 2.93661
2787 1 4.53043 140.174 5.51901
9117 2 5.44152 138.607 4.22974
2785 1 7.25809 141.745 5.52588
9120 2 5.44053 141.749 4.24453
2804 1 9.07938 138.612 2.92869
2746 1 9.98667 140.174 5.51901
9073 2 8.16911 140.178 4.23766
12425 2 10.8978 138.607 4.22974
12416 2 10.8968 141.749 4.24453
2807 1 9.0784 141.752 2.94347
2835 1 0.893654 143.321 2.94927
9104 2 2.71203 143.319 4.25034
2837 1 3.62146 144.891 2.95402
2824 1 1.80115 144.888 5.53644
2791 1 6.34989 143.321 2.94927
2786 1 4.52958 143.316 5.53169
9102 2 5.43983 144.89 4.25509
2788 1 7.25739 144.888 5.53644
2739 1 9.98582 143.316 5.53169
9072 2 8.16827 143.319 4.25034
2789 1 9.0777 144.891 2.95402
12417 2 10.8961 144.89 4.25509
2828 1 0.893094 146.461 2.95771
9103 2 2.71147 146.46 4.25878
2826 1 3.62104 148.031 2.96035
2825 1 1.80073 148.031 5.54278
2790 1 6.34933 146.461 2.95771
2772 1 4.52902 146.459 5.54014
9105 2 5.43941 148.031 4.26142
2770 1 7.25697 148.031 5.54278
2738 1 9.98526 146.459 5.54014
9058 2 8.16771 146.46 4.25878
2792 1 9.07728 148.031 2.96035
12415 2 10.8957 148.031 4.26142
2827 1 0.892815 149.6 2.96193
9093 2 2.71119 149.602 4.263
172 1 3.6209 151.17 2.96246
158 1 1.80059 151.173 5.5449
2773 1 6.34905 149.6 2.96193
2771 1 4.52875 149.602 5.54436
6276 2 5.43927 151.172 4.26353
124 1 7.25683 151.173 5.5449
2724 1 9.98499 149.602 5.54436
9057 2 8.16743 149.602 4.263
125 1 9.07714 151.17 2.96246
9580 2 10.8955 151.172 4.26353
2798 1 2.7126 133.873 8.05761
9115 2 0.894845 133.88 6.77148
9131 2 3.62378 132.308 6.75933
9113 2 3.62222 135.453 6.78257
9078 2 6.35108 133.88 6.77148
2799 1 5.43997 135.446 8.0687
2745 1 8.16883 133.873 8.05761
9077 2 9.08001 132.308 6.75933
5902 1 10.8962 135.446 8.0687
9079 2 9.07846 135.453 6.78257
2783 1 2.71119 137.019 8.07873
9114 2 0.893438 137.025 6.7926
9116 2 3.62096 138.597 6.80158
9070 2 6.34968 137.025 6.7926
2781 1 5.43872 138.592 8.08769
2744 1 8.16743 137.019 8.07873
5903 1 10.895 138.592 8.08769
9068 2 9.0772 138.597 6.80158
2782 1 2.71008 140.165 8.0956
9100 2 0.892321 140.17 6.80949
9098 2 3.61999 141.742 6.81635
9069 2 6.34856 140.17 6.80949
2784 1 5.43775 141.739 8.10246
2737 1 8.16631 140.165 8.0956
9071 2 9.07623 141.742 6.81635
5894 1 10.894 141.739 8.10246
2768 1 2.70925 143.312 8.10826
9099 2 0.89149 143.314 6.82215
9101 2 3.6193 144.886 6.8269
9055 2 6.34773 143.314 6.82215
2766 1 5.43706 144.885 8.113
2736 1 8.16549 143.312 8.10826
9053 2 9.07554 144.886 6.8269
5895 1 10.8933 144.885 8.113
2767 1 2.70871 146.458 8.11669
9092 2 0.890942 146.459 6.83059
9090 2 3.61889 148.031 6.83323
9054 2 6.34718 146.459 6.83059
2769 1 5.43666 148.031 8.11933
2723 1 8.16495 146.458 8.11669
9056 2 9.07513 148.031 6.83323
5893 1 10.8929 148.031 8.11933
2757 1 2.70844 149.603 8.12091
9091 2 0.890673 149.603 6.83481
6275 2 3.61876 151.175 6.83534
9040 2 6.34691 149.603 6.83481
109 1 5.43653 151.176 8.12145
2722 1 8.16468 149.603 8.12091
6221 2 9.075 151.175 6.83534
3229 1 10.8928 151.176 8.12145
2779 1 0.892331 133.859 10.6321
9062 2 2.71056 133.853 11.9176
9112 2 1.80189 135.44 9.35554
2777 1 3.61975 135.434 10.6431
9066 2 4.53073 133.866 9.34452
2742 1 6.34857 133.859 10.6321
9064 2 7.25813 135.44 9.35554
9063 2 5.43801 135.428 11.9285
9024 2 9.98696 133.866 9.34452
9021 2 8.1668 133.853 11.9176
2743 1 9.07598 135.434 10.6431
12358 2 10.8942 135.428 11.9285
2778 1 0.890993 137.008 10.653
9047 2 2.70929 137.003 11.9384
9096 2 1.80067 138.588 9.37444
2780 1 3.61855 138.583 10.6619
9065 2 4.52936 137.014 9.36552
2734 1 6.34723 137.008 10.653
9067 2 7.25691 138.588 9.37444
9045 2 5.43688 138.578 11.9472
9023 2 9.9856 137.014 9.36552
9020 2 8.16553 137.003 11.9384
2732 1 9.07479 138.583 10.6619
12359 2 10.8931 138.578 11.9472
2764 1 0.889941 140.158 10.6698
9046 2 2.70829 140.154 11.955
9097 2 1.79974 141.735 9.38915
2762 1 3.61764 141.732 10.6766
9051 2 4.52829 140.162 9.38232
2733 1 6.34618 140.158 10.6698
9049 2 7.25598 141.735 9.38915
9048 2 5.43601 141.729 11.9618
9022 2 9.98453 140.162 9.38232
9014 2 8.16453 140.154 11.955
2735 1 9.07388 141.732 10.6766
12350 2 10.8922 141.729 11.9618
2763 1 0.889164 143.307 10.6824
9035 2 2.70755 143.304 11.9675
9088 2 1.79908 144.883 9.39965
2765 1 3.617 144.881 10.6871
9050 2 4.52749 143.309 9.39492
2720 1 6.3454 143.307 10.6824
9052 2 7.25532 144.883 9.39965
9033 2 5.4354 144.88 11.9722
9016 2 9.98373 143.309 9.39492
9013 2 8.16379 143.304 11.9675
2718 1 9.07323 144.881 10.6871
12351 2 10.8916 144.88 11.9722
2756 1 0.888655 146.456 10.6908
9034 2 2.70707 146.455 11.9759
9089 2 1.79869 148.031 9.40596
2754 1 3.61662 148.03 10.6934
9039 2 4.52697 146.457 9.40333
2719 1 6.34489 146.456 10.6908
9037 2 7.25493 148.031 9.40596
9036 2 5.43505 148.03 11.9785
9015 2 9.98321 146.457 9.40333
9007 2 8.16331 146.455 11.9759
2721 1 9.07286 148.03 10.6934
12349 2 10.8913 148.03 11.9785
2755 1 0.88841 149.605 10.695
9028 2 2.70684 149.606 11.9801
6255 2 1.79857 151.178 9.40808
108 1 3.6165 151.18 10.6955
9038 2 4.52672 149.604 9.40754
2709 1 6.34465 149.605 10.695
6220 2 7.25481 151.178 9.40808
6205 2 5.43494 151.181 11.9806
9008 2 9.98296 149.604 9.40754
9006 2 8.16308 149.606 11.9801
53 1 9.07274 151.18 10.6955
9518 2 10.8912 151.181 11.9806
2726 1 2.70861 133.832 15.778
9043 2 0.890594 133.839 14.4903
2776 1 1.79972 135.422 13.2163
9041 2 3.61811 135.416 14.5011
2730 1 4.52849 133.846 13.2054
9018 2 6.34683 133.839 14.4903
2727 1 5.43617 135.41 15.7887
2728 1 7.25596 135.422 13.2163
5830 1 10.8924 135.41 15.7887
2697 1 8.16485 133.832 15.778
2700 1 9.98473 133.846 13.2054
9019 2 9.07435 135.416 14.5011
2712 1 2.70755 136.987 15.7984
9042 2 0.889456 136.993 14.5108
2760 1 1.79863 138.574 13.2349
9044 2 3.6171 138.569 14.5196
2729 1 4.52727 136.998 13.2261
9011 2 6.34569 136.993 14.5108
2710 1 5.43522 138.565 15.8071
2731 1 7.25487 138.574 13.2349
5831 1 10.8915 138.565 15.8071
2696 1 8.16378 136.987 15.7984
2699 1 9.9835 136.998 13.2261
9009 2 9.07334 138.569 14.5196
9029 2 3.61633 141.723 14.534
2711 1 2.70672 140.142 15.8148
9031 2 0.888567 140.146 14.5273
2761 1 1.79781 141.726 13.2495
2713 1 5.4345 141.72 15.8214
2716 1 4.52631 140.15 13.2427
9010 2 6.34481 140.146 14.5273
2714 1 7.25404 141.726 13.2495
9012 2 9.07257 141.723 14.534
5822 1 10.8907 141.72 15.8214
2693 1 8.16295 140.142 15.8148
2698 1 9.98255 140.15 13.2427
9032 2 3.61579 144.877 14.5443
9030 2 0.887915 143.3 14.5396
2704 1 2.70611 143.298 15.8271
2752 1 1.79722 144.878 13.2599
2702 1 5.434 144.875 15.8317
9004 2 6.34415 143.3 14.5396
2715 1 4.5256 143.302 13.2552
2717 1 7.25346 144.878 13.2599
9002 2 9.07203 144.877 14.5443
2695 1 9.98184 143.302 13.2552
2692 1 8.16235 143.298 15.8271
5823 1 10.8902 144.875 15.8317
9027 2 0.88749 146.454 14.5479
2703 1 2.70571 146.453 15.8353
9025 2 3.61548 148.031 14.5505
2753 1 1.79689 148.03 13.2661
2705 1 5.43371 148.031 15.8379
2706 1 7.25312 148.03 13.2661
9003 2 6.34373 146.454 14.5479
2708 1 4.52514 146.454 13.2635
5821 1 10.89 148.031 15.8379
9005 2 9.07172 148.031 14.5505
2694 1 9.98138 146.454 13.2635
2690 1 8.16195 146.453 15.8353
9026 2 0.887288 149.607 14.5521
2701 1 2.70553 149.608 15.8395
87 1 1.79679 151.183 13.2682
6204 2 3.61539 151.184 14.5526
2707 1 4.52492 149.607 13.2677
9001 2 6.34353 149.607 14.5521
37 1 5.43363 151.186 15.84
52 1 7.25302 151.183 13.2682
2689 1 8.16176 149.608 15.8395
2691 1 9.98116 149.607 13.2677
6161 2 9.07163 151.184 14.5526
3158 1 10.8899 151.186 15.84
3070 1 0.888972 133.819 18.35
9384 2 1.79846 135.404 17.0731
3068 1 3.61663 135.398 18.3605
9370 2 4.52709 133.826 17.0625
3047 1 6.34521 133.819 18.35
9368 2 7.25469 135.404 17.0731
9324 2 9.98332 133.826 17.0625
3048 1 9.07287 135.398 18.3605
3069 1 0.8881 136.977 18.37
9380 2 1.7976 138.56 17.0913
3071 1 3.61586 138.556 18.3785
9369 2 4.52612 136.982 17.0827
3043 1 6.34434 136.977 18.37
9371 2 7.25384 138.56 17.0913
9323 2 9.98236 136.982 17.0827
3041 1 9.0721 138.556 18.3785
3063 1 0.887425 140.135 18.3861
9381 2 1.79696 141.717 17.1055
3061 1 3.61528 141.714 18.3926
9362 2 4.52537 140.139 17.0989
3042 1 6.34366 140.135 18.3861
9360 2 7.25319 141.717 17.1055
9322 2 9.98161 140.139 17.0989
3044 1 9.07151 141.714 18.3926
3062 1 0.886932 143.293 18.3982
9376 2 1.7965 144.874 17.1157
3064 1 3.61487 144.872 18.4028
9361 2 4.52483 143.295 17.1111
3031 1 6.34317 143.293 18.3982
9363 2 7.25274 144.874 17.1157
9315 2 9.98106 143.295 17.1111
3029 1 9.07111 144.872 18.4028
3056 1 0.886613 146.452 18.4063
9377 2 1.79624 148.031 17.1218
3054 1 3.61464 148.031 18.4089
3030 1 6.34285 146.452 18.4063
9348 2 4.52447 146.452 17.1193
9346 2 7.25248 148.031 17.1218
9314 2 9.98071 146.452 17.1193
3032 1 9.07087 148.031 18.4089
3055 1 0.886463 149.61 18.4104
6527 2 1.79617 151.188 17.1239
384 1 3.61457 151.189 18.411
3013 1 6.3427 149.61 18.4104
9347 2 4.5243 149.609 17.1234
6516 2 7.25241 151.188 17.1239
9299 2 9.98054 149.609 17.1234
358 1 9.07081 151.189 18.411
9366 2 2.7076 133.813 19.6341
9354 2 0.888418 133.8 22.205
3067 1 1.79739 135.386 20.9315
9352 2 3.61626 135.381 22.2152
9367 2 5.43532 135.392 19.6445
3039 1 4.52585 133.806 20.9212
9318 2 6.34466 133.8 22.205
3037 1 7.25362 135.386 20.9315
9321 2 8.16384 133.813 19.6341
2988 1 9.98209 133.806 20.9212
9319 2 9.07249 135.381 22.2152
12642 2 10.8916 135.392 19.6445
9358 2 2.70684 136.972 19.6539
9353 2 0.887889 136.962 22.2244
3059 1 1.79681 138.547 20.9493
9355 2 3.61579 138.543 22.2327
9356 2 5.43465 138.552 19.6624
3038 1 4.5252 136.967 20.9409
9310 2 6.34413 136.962 22.2244
3040 1 7.25305 138.547 20.9493
9320 2 8.16308 136.972 19.6539
2987 1 9.98144 136.967 20.9409
9308 2 9.07203 138.543 22.2327
12643 2 10.8909 138.552 19.6624
9357 2 2.70625 140.131 19.6698
9340 2 0.887484 140.124 22.2401
3060 1 1.79638 141.708 20.9631
9338 2 3.61544 141.706 22.2464
9359 2 5.43414 141.711 19.6763
3027 1 4.5247 140.128 20.9567
9309 2 6.34372 140.124 22.2401
3025 1 7.25262 141.708 20.9631
9313 2 8.16249 140.131 19.6698
2986 1 9.98094 140.128 20.9567
9311 2 9.07168 141.706 22.2464
12638 2 10.8904 141.711 19.6763
9344 2 2.70583 143.291 19.6818
9339 2 0.88719 143.287 22.2519
3052 1 1.79609 144.87 20.9731
9341 2 3.6152 144.868 22.2563
9342 2 5.43379 144.871 19.6864
3026 1 4.52434 143.289 20.9686
9295 2 6.34343 143.287 22.2519
3028 1 7.25232 144.87 20.9731
9312 2 8.16207 143.291 19.6818
2979 1 9.98058 143.289 20.9686
9293 2 9.07144 144.868 22.2563
12639 2 10.89 144.871 19.6864
9343 2 2.70555 146.451 19.6899
9332 2 0.887 146.45 22.2598
3053 1 1.79591 148.031 20.9791
9330 2 3.61506 148.031 22.2623
9345 2 5.43359 148.031 19.6924
3012 1 4.5241 146.45 20.9766
9294 2 6.34324 146.45 22.2598
3010 1 7.25215 148.031 20.9791
9298 2 8.16179 146.451 19.6899
2978 1 9.98034 146.45 20.9766
9296 2 9.0713 148.031 22.2623
12637 2 10.8898 148.031 19.6924
9333 2 2.70542 149.611 19.694
9331 2 0.886912 149.613 22.2638
378 1 1.79587 151.193 20.9812
6508 2 3.61503 151.194 22.2644
3011 1 4.52399 149.612 20.9806
9277 2 6.34315 149.613 22.2638
6509 2 5.43353 151.191 19.6945
357 1 7.25211 151.193 20.9812
9297 2 8.16166 149.611 19.694
2963 1 9.98023 149.612 20.9806
6461 2 9.07126 151.194 22.2644
9790 2 10.8898 151.191 19.6945
3035 1 2.70682 133.793 23.4918
9351 2 1.79757 135.369 24.7851
9306 2 4.52584 133.786 24.7752
3036 1 5.43473 135.375 23.5019
9304 2 7.25381 135.369 24.7851
2985 1 8.16306 133.793 23.4918
9252 2 9.98208 133.786 24.7752
6129 1 10.891 135.375 23.5019
3023 1 2.70642 136.957 23.511
9336 2 1.79732 138.534 24.8023
9305 2 4.52556 136.952 24.7942
3021 1 5.43437 138.539 23.5192
9307 2 7.25356 138.534 24.8023
2984 1 8.16265 136.957 23.511
9251 2 9.98179 136.952 24.7942
6130 1 10.8906 138.539 23.5192
3022 1 2.70611 140.121 23.5265
9337 2 1.79713 141.7 24.8158
9291 2 4.52534 140.117 24.8095
3024 1 5.4341 141.703 23.5328
9289 2 7.25337 141.7 24.8158
2977 1 8.16234 140.121 23.5265
9250 2 9.98158 140.117 24.8095
6122 1 10.8903 141.703 23.5328
3008 1 2.70588 143.285 23.5382
9328 2 1.797 144.866 24.8255
9290 2 4.52518 143.283 24.8211
3006 1 5.43392 144.867 23.5426
9292 2 7.25324 144.866 24.8255
2976 1 8.16212 143.285 23.5382
9243 2 9.98142 143.283 24.8211
6123 1 10.8902 144.867 23.5426
3007 1 2.70573 146.449 23.5461
9329 2 1.79693 148.032 24.8314
9276 2 4.52508 146.449 24.8289
3009 1 5.43381 148.032 23.5486
9274 2 7.25317 148.032 24.8314
2962 1 8.16197 146.449 23.5461
9242 2 9.98132 146.449 24.8289
6121 1 10.89 148.032 23.5486
2997 1 2.70567 149.614 23.5501
6494 2 1.79691 151.198 24.8334
9275 2 4.52503 149.615 24.8329
346 1 5.43378 151.196 23.5506
6460 2 7.25315 151.198 24.8334
2961 1 8.16191 149.614 23.5501
9228 2 9.98127 149.615 24.8329
3449 1 10.89 151.196 23.5506
3019 1 0.888196 133.78 26.0615
3017 1 3.61623 135.363 26.0714
9302 2 2.70746 133.773 27.3445
3016 1 1.79819 135.351 28.6401
2982 1 6.34443 133.78 26.0615
2970 1 4.52627 133.767 28.6304
9303 2 5.43555 135.357 27.3543
2968 1 7.25443 135.351 28.6401
12598 2 10.8918 135.357 27.3543
2983 1 9.07247 135.363 26.0714
2922 1 9.98251 133.767 28.6304
9249 2 8.1637 133.773 27.3445
3018 1 0.888036 136.946 26.0804
3020 1 3.61609 138.53 26.0884
9287 2 2.70741 136.941 27.3631
3000 1 1.79826 138.521 28.6568
2974 1 6.34427 136.946 26.0804
2969 1 4.52635 136.936 28.6489
9285 2 5.43552 138.526 27.3711
2971 1 7.2545 138.521 28.6568
12599 2 10.8918 138.526 27.3711
2972 1 9.07233 138.53 26.0884
2921 1 9.98259 136.936 28.6489
9248 2 8.16365 136.941 27.3631
3004 1 0.887916 140.113 26.0956
3002 1 3.61599 141.697 26.1018
9286 2 2.70738 140.11 27.3782
3001 1 1.79832 141.692 28.6699
2973 1 6.34415 140.113 26.0956
2955 1 4.52641 140.106 28.6638
9288 2 5.43549 141.694 27.3843
2953 1 7.25456 141.692 28.6699
12590 2 10.8917 141.694 27.3843
2975 1 9.07223 141.697 26.1018
2920 1 9.98265 140.106 28.6638
9241 2 8.16362 140.11 27.3782
3003 1 0.88783 143.281 26.107
3005 1 3.61592 144.864 26.1114
9272 2 2.70736 143.279 27.3896
2992 1 1.79836 144.862 28.6794
2959 1 6.34407 143.281 26.107
2954 1 4.52646 143.277 28.6751
9270 2 5.43547 144.863 27.3939
2956 1 7.2546 144.862 28.6794
12591 2 10.8917 144.863 27.3939
2957 1 9.07216 144.864 26.1114
2913 1 9.9827 143.277 28.6751
9240 2 8.1636 143.279 27.3896
2996 1 0.887774 146.448 26.1148
2994 1 3.61588 148.032 26.1172
9271 2 2.70735 146.448 27.3972
2993 1 1.79838 148.033 28.6851
2958 1 6.34401 146.448 26.1148
2941 1 4.52649 146.447 28.6827
9273 2 5.43546 148.032 27.3997
2939 1 7.25462 148.033 28.6851
12589 2 10.8917 148.032 27.3997
2960 1 9.07212 148.032 26.1172
2912 1 9.98273 146.447 28.6827
9227 2 8.16359 146.448 27.3972
2995 1 0.887749 149.616 26.1187
9261 2 2.70734 149.617 27.4012
345 1 3.61587 151.2 26.1193
327 1 1.79839 151.203 28.6872
2942 1 6.34399 149.616 26.1187
2940 1 4.52651 149.618 28.6866
6445 2 5.43546 151.201 27.4017
292 1 7.25463 151.203 28.6872
2901 1 9.98275 149.618 28.6866
9226 2 8.16358 149.617 27.4012
293 1 9.07211 151.2 26.1193
9757 2 10.8917 151.201 27.4017
2966 1 2.70862 133.753 31.1983
9283 2 0.889567 133.76 29.9129
9280 2 1.80055 135.334 32.4898
9281 2 3.61778 135.346 29.9225
9234 2 4.52846 133.747 32.4804
9246 2 6.34581 133.76 29.9129
2967 1 5.4369 135.34 31.2078
9232 2 7.25679 135.334 32.4898
6070 1 10.8931 135.34 31.2078
2919 1 8.16486 133.753 31.1983
9204 2 9.9847 133.747 32.4804
9247 2 9.07402 135.346 29.9225
2951 1 2.70893 136.926 31.2165
9282 2 0.889752 136.931 29.9312
9264 2 1.8009 138.508 32.5061
9284 2 3.61795 138.517 29.9391
9233 2 4.52886 136.921 32.4984
9238 2 6.34599 136.931 29.9312
2949 1 5.43717 138.513 31.2243
9235 2 7.25714 138.508 32.5061
6071 1 10.8934 138.513 31.2243
2918 1 8.16517 136.926 31.2165
9203 2 9.9851 136.921 32.4984
9236 2 9.07419 138.517 29.9391
2950 1 2.70917 140.099 31.2312
9268 2 0.889899 140.103 29.946
9265 2 1.80117 141.683 32.5189
9266 2 3.61808 141.689 29.9521
9220 2 4.52916 140.096 32.513
9237 2 6.34614 140.103 29.946
2952 1 5.43738 141.686 31.2372
9218 2 7.2574 141.683 32.5189
6062 1 10.8936 141.686 31.2372
2911 1 8.1654 140.099 31.2312
9202 2 9.9854 140.096 32.513
9239 2 9.07431 141.689 29.9521
2937 1 2.70934 143.273 31.2423
9267 2 0.890006 143.275 29.9572
9256 2 1.80135 144.858 32.5282
9269 2 3.61816 144.861 29.9615
9219 2 4.52939 143.271 32.524
9224 2 6.34624 143.275 29.9572
2935 1 5.43752 144.859 31.2465
9221 2 7.25759 144.858 32.5282
6063 1 10.8938 144.859 31.2465
2910 1 8.16558 143.273 31.2423
9199 2 9.98562 143.271 32.524
9222 2 9.0744 144.861 29.9615
2936 1 2.70945 146.446 31.2498
9260 2 0.890074 146.447 29.9648
9257 2 1.80145 148.033 32.5339
9258 2 3.61821 148.033 29.9672
9212 2 4.52953 146.446 32.5315
9223 2 6.34631 146.447 29.9648
2938 1 5.4376 148.033 31.2522
9210 2 7.25769 148.033 32.5339
6061 1 10.8938 148.033 31.2522
2900 1 8.16569 146.446 31.2498
9198 2 9.98577 146.446 32.5315
9225 2 9.07445 148.033 29.9672
2928 1 2.7095 149.62 31.2537
9259 2 0.890107 149.619 29.9687
6444 2 3.61823 151.205 29.9692
9211 2 4.5296 149.621 32.5353
9213 2 6.34635 149.619 29.9687
277 1 5.43762 151.207 31.2542
2899 1 8.16574 149.62 31.2537
9195 2 9.98583 149.621 32.5353
3398 1 10.8939 151.207 31.2542
6389 2 9.07447 151.205 29.9692
2947 1 0.891554 133.74 33.7653
9230 2 2.71172 133.733 35.0468
2945 1 3.61994 135.328 33.7746
2916 1 6.34779 133.74 33.7653
9231 2 5.44014 135.322 35.0561
12526 2 10.8964 135.322 35.0561
9201 2 8.16796 133.733 35.0468
2917 1 9.07618 135.328 33.7746
2948 1 3.62039 138.504 33.7908
2946 1 0.892058 136.916 33.7832
9216 2 2.71229 136.911 35.0646
9214 2 5.44065 138.5 35.0722
2908 1 6.3483 136.916 33.7832
12527 2 10.8969 138.5 35.0722
2906 1 9.07662 138.504 33.7908
9200 2 8.16853 136.911 35.0646
2931 1 3.62072 141.68 33.8036
2933 1 0.892448 140.092 33.7977
9215 2 2.71274 140.089 35.079
9217 2 5.44103 141.678 35.0849
2907 1 6.34869 140.092 33.7977
12518 2 10.8973 141.678 35.0849
2909 1 9.07696 141.68 33.8036
9197 2 8.16898 140.089 35.079
2934 1 3.62095 144.857 33.8128
9208 2 2.71306 143.267 35.0899
2932 1 0.89273 143.269 33.8086
9206 2 5.4413 144.856 35.0941
2897 1 6.34897 143.269 33.8086
12519 2 10.8975 144.856 35.0941
2895 1 9.07719 144.857 33.8128
9196 2 8.1693 143.267 35.0899
2927 1 0.89291 146.445 33.8161
2925 1 3.62108 148.034 33.8184
9207 2 2.71327 146.445 35.0973
9209 2 5.44145 148.034 35.0997
2896 1 6.34915 146.445 33.8161
2898 1 9.07732 148.034 33.8184
9194 2 8.1695 146.445 35.0973
12517 2 10.8977 148.034 35.0997
9205 2 2.71336 149.623 35.1011
2926 1 0.892993 149.622 33.8199
2890 1 6.34923 149.622 33.8199
9193 2 8.1696 149.623 35.1011
9406 2 0.895619 133.72 37.6121
14991 1 2.71557 133.713 38.896
2944 1 1.80358 135.316 36.3404
9404 2 3.62412 135.31 37.6214
9395 2 6.35186 133.72 37.6121
15345 1 5.4441 135.304 38.9052
2904 1 4.53135 133.727 36.3312
2902 1 7.25982 135.316 36.3404
2886 1 9.98759 133.727 36.3312
14961 1 8.17181 133.713 38.896
9396 2 9.08036 135.31 37.6214
18172 1 10.9003 135.304 38.9052
9405 2 0.896335 136.9 37.6298
15346 1 2.71636 136.895 38.9136
2929 1 1.80417 138.495 36.3565
9407 2 3.62475 138.491 37.6374
9392 2 6.35257 136.9 37.6298
15347 1 5.4448 138.487 38.9211
2903 1 4.53202 136.906 36.3489
2905 1 7.26041 138.495 36.3565
15317 1 8.1726 136.895 38.9136
2885 1 9.98825 136.906 36.3489
9390 2 9.08099 138.491 37.6374
18170 1 10.901 138.487 38.9211
9402 2 0.896889 140.081 37.6441
15342 1 2.71697 140.078 38.9278
2930 1 1.80462 141.675 36.3691
9400 2 3.62523 141.672 37.6499
9391 2 6.35313 140.081 37.6441
15340 1 5.44533 141.669 38.9337
2893 1 4.53253 140.085 36.3632
2891 1 7.26085 141.675 36.3691
15316 1 8.17321 140.078 38.9278
2884 1 9.98877 140.085 36.3632
9393 2 9.08147 141.672 37.6499
18171 1 10.9016 141.669 38.9337
9401 2 0.89729 143.263 37.6549
15341 1 2.71741 143.261 38.9387
2923 1 1.80492 144.854 36.3782
9403 2 3.62556 144.853 37.659
9388 2 6.35353 143.263 37.6549
15343 1 5.44569 144.852 38.9428
2892 1 4.5329 143.265 36.3741
2894 1 7.26116 144.854 36.3782
15311 1 8.17365 143.261 38.9387
2883 1 9.98914 143.265 36.3741
9386 2 9.08179 144.853 37.659
18168 1 10.9019 144.852 38.9428
9399 2 0.897548 146.444 37.6623
15332 1 2.71769 146.443 38.946
2924 1 1.80509 148.034 36.3838
9397 2 3.62574 148.034 37.6646
9387 2 6.35379 146.444 37.6623
15330 1 5.4459 148.035 38.9483
2889 1 4.53314 146.444 36.3815
2887 1 7.26133 148.034 36.3838
15310 1 8.17393 146.443 38.946
2882 1 9.98938 146.444 36.3815
9389 2 9.08198 148.034 37.6646
18169 1 10.9021 148.035 38.9483
9398 2 0.897667 149.625 37.6661
15331 1 2.71782 149.626 38.9498
9385 2 6.35391 149.625 37.6661
2888 1 4.53325 149.624 36.3853
15297 1 8.17406 149.626 38.9498
2881 1 9.98949 149.624 36.3853
20971 2 1.80874 135.298 40.1856
14989 1 0.900467 133.699 41.4597
15344 1 3.62905 135.292 41.4689
14941 1 6.35671 133.699 41.4597
20603 2 4.53643 133.706 40.1764
20962 2 7.26498 135.298 40.1856
15313 1 9.08529 135.292 41.4689
20555 2 9.99267 133.706 40.1764
20972 2 1.80947 138.482 40.2015
15338 1 0.90134 136.885 41.4773
15336 1 3.62982 138.478 41.4848
20960 2 4.53725 136.89 40.194
15314 1 6.35758 136.885 41.4773
20958 2 7.2657 138.482 40.2015
15315 1 9.08606 138.478 41.4848
20922 2 9.99348 136.89 40.194
20968 2 1.81001 141.666 40.2141
15337 1 0.902016 140.071 41.4915
15339 1 3.6304 141.663 41.4973
20959 2 4.53788 140.074 40.2082
15308 1 6.35825 140.071 41.4915
20961 2 7.26625 141.666 40.2141
15306 1 9.08664 141.663 41.4973
20921 2 9.99412 140.074 40.2082
20969 2 1.81039 144.851 40.2231
15328 1 0.902507 143.256 41.5023
15326 1 3.6308 144.849 41.5064
15307 1 6.35875 143.256 41.5023
20952 2 4.53834 143.258 40.219
20950 2 7.26663 144.851 40.2231
15309 1 9.08704 144.849 41.5064
20920 2 9.99458 143.258 40.219
20965 2 1.81061 148.035 40.2287
15327 1 0.902821 146.442 41.5096
15329 1 3.63103 148.035 41.5119
15296 1 6.35906 146.442 41.5096
20951 2 4.53864 146.443 40.2263
20953 2 7.26684 148.035 40.2287
15294 1 9.08727 148.035 41.5119
20913 2 9.99487 146.443 40.2263
15321 1 0.902967 149.628 41.5133
15295 1 6.35921 149.628 41.5133
20938 2 4.53877 149.627 40.2301
20912 2 9.99501 149.627 40.2301
20589 2 2.72169 133.692 42.7395
15334 1 1.81466 135.28 44.0315
20587 2 0.907635 133.678 45.3015
20954 2 3.63623 135.274 45.3108
20955 2 5.45027 135.286 42.7487
14939 1 4.5423 133.685 44.0222
20534 2 6.36387 133.678 45.3015
15312 1 7.2709 135.28 44.0315
20553 2 8.17792 133.692 42.7395
20915 2 9.09247 135.274 45.3108
14891 1 9.99854 133.685 44.0222
23790 2 10.9065 135.286 42.7487
20956 2 2.72257 136.88 42.7571
15335 1 1.81548 138.469 44.0475
20944 2 0.908542 136.869 45.3192
20942 2 3.63704 138.464 45.3268
20957 2 5.45105 138.473 42.7647
15304 1 4.54322 136.874 44.0399
20916 2 6.36478 136.869 45.3192
15302 1 7.27172 138.469 44.0475
23786 2 10.9073 138.473 42.7647
20919 2 8.1788 136.88 42.7571
15262 1 9.99945 136.874 44.0399
20917 2 9.09328 138.464 45.3268
20948 2 2.72325 140.067 42.7714
15324 1 1.81609 141.658 44.06
20943 2 0.909251 140.059 45.3335
20946 2 5.45164 141.661 42.7772
15303 1 4.54393 140.063 44.0542
20908 2 6.36549 140.059 45.3335
20945 2 3.63765 141.655 45.3394
15305 1 7.27233 141.658 44.06
23787 2 10.9079 141.661 42.7772
20918 2 8.17949 140.067 42.7714
15261 1 10.0002 140.063 44.0542
20906 2 9.09389 141.655 45.3394
20947 2 2.72375 143.254 42.7822
15325 1 1.81652 144.847 44.0691
20933 2 0.90977 143.25 45.3444
20949 2 5.45205 144.848 42.7863
15292 1 4.54445 143.252 44.065
20907 2 6.36601 143.25 45.3444
20931 2 3.63808 144.845 45.3485
15290 1 7.27276 144.847 44.0691
23783 2 10.9083 144.848 42.7863
20911 2 8.17999 143.254 42.7822
15260 1 10.0007 143.252 44.065
20909 2 9.09432 144.845 45.3485
20937 2 2.72407 146.442 42.7895
15320 1 1.81676 148.036 44.0746
20932 2 0.910105 146.441 45.3517
20935 2 5.45229 148.035 42.7918
15291 1 4.54478 146.441 44.0723
20896 2 6.36634 146.441 45.3517
20934 2 3.63832 148.036 45.354
15293 1 7.273 148.036 44.0746
23784 2 10.9085 148.035 42.7918
20910 2 8.18031 146.442 42.7895
15253 1 10.001 146.441 44.0723
20894 2 9.09456 148.036 45.354
20936 2 2.72422 149.629 42.7932
20926 2 0.910261 149.631 45.3554
15278 1 4.54493 149.63 44.076
20895 2 6.3665 149.631 45.3554
20897 2 8.18046 149.629 42.7932
15252 1 10.0012 149.63 44.076
15333 1 0.000954798 135.268 46.593
20940 2 1.82286 135.261 47.8718
14923 1 0.915555 133.657 49.1441
14925 1 2.72859 133.671 46.5837
15298 1 3.64415 135.255 49.1535
15299 1 5.45719 135.268 46.593
14872 1 6.37179 133.657 49.1441
20532 2 4.55051 133.664 47.8624
15255 1 9.10039 135.255 49.1535
20914 2 7.2791 135.261 47.8718
14889 1 8.18483 133.671 46.5837
20493 2 10.0067 133.664 47.8624
15284 1 0.916456 136.853 49.1621
15300 1 2.72951 136.864 46.6015
15322 1 0.00177628 138.46 46.6091
20941 2 1.82367 138.455 47.8879
15256 1 6.37269 136.853 49.1621
15282 1 3.64495 138.45 49.1697
15301 1 5.45801 138.46 46.6091
20904 2 4.55141 136.858 47.8803
15257 1 9.10119 138.45 49.1697
15259 1 8.18575 136.864 46.6015
20867 2 10.0076 136.858 47.8803
20902 2 7.27991 138.455 47.8879
15283 1 0.917168 140.048 49.1765
15288 1 2.73023 140.056 46.6158
15323 1 0.00240122 141.652 46.6217
20929 2 1.82429 141.649 47.9006
15248 1 6.37341 140.048 49.1765
15285 1 3.64557 141.646 49.1824
15286 1 5.45864 141.652 46.6217
20903 2 4.55212 140.052 47.8947
15246 1 9.10181 141.646 49.1824
15258 1 8.18647 140.056 46.6158
20866 2 10.0084 140.052 47.8947
20905 2 7.28052 141.649 47.9006
15273 1 0.917693 143.244 49.1874
15287 1 2.73076 143.248 46.6267
15318 1 0.00283612 144.844 46.6308
20930 2 1.82472 144.843 47.9097
15247 1 6.37393 143.244 49.1874
15271 1 3.64601 144.841 49.1915
15289 1 5.45907 144.844 46.6308
20892 2 4.55264 143.246 47.9056
15249 1 9.10224 144.841 49.1915
15251 1 8.187 143.248 46.6267
20865 2 10.0089 143.246 47.9056
20890 2 7.28095 144.843 47.9097
15272 1 0.918035 146.439 49.1948
15277 1 2.7311 146.44 46.634
15319 1 0.00308622 148.036 46.6363
20925 2 1.82497 148.036 47.9152
15236 1 6.37427 146.439 49.1948
15274 1 3.64626 148.037 49.1971
15275 1 5.45932 148.036 46.6363
20891 2 4.55298 146.439 47.9129
15234 1 9.1025 148.037 49.1971
15250 1 8.18734 146.44 46.634
20858 2 10.0092 146.439 47.9129
20893 2 7.2812 148.036 47.9152
15266 1 0.918195 149.634 49.1985
15276 1 2.73126 149.632 46.6377
15235 1 6.37443 149.634 49.1985
20879 2 4.55314 149.633 47.9167
15237 1 8.1875 149.632 46.6377
20857 2 10.0094 149.633 47.9167
15280 1 1.83175 135.242 51.7129
20939 2 0.010153 135.249 50.4317
20520 2 2.73781 133.65 50.4223
20899 2 5.46639 135.249 50.4317
14870 1 4.55942 133.643 51.7034
15254 1 7.28799 135.242 51.7129
14840 1 10.0157 133.643 51.7034
20491 2 8.19405 133.65 50.4223
15281 1 1.83253 138.441 51.7293
20900 2 2.73869 136.847 50.4403
20927 2 0.0109362 138.446 50.4481
15244 1 4.56028 136.842 51.7216
20901 2 5.46717 138.446 50.4481
15212 1 10.0165 136.842 51.7216
15242 1 7.28877 138.441 51.7293
20864 2 8.19492 136.847 50.4403
15269 1 1.83313 141.64 51.7421
20888 2 2.73938 140.044 50.4549
20928 2 0.0115406 141.643 50.4608
15243 1 4.56097 140.04 51.7362
20886 2 5.46778 141.643 50.4608
15211 1 10.0172 140.04 51.7362
15245 1 7.28937 141.64 51.7421
20863 2 8.19562 140.044 50.4549
15270 1 1.83355 144.838 51.7513
20887 2 2.73989 143.241 50.4658
20923 2 0.0119664 144.84 50.47
15232 1 4.56148 143.239 51.7472
20889 2 5.4682 144.84 50.47
15210 1 10.0177 143.239 51.7472
15230 1 7.28979 144.838 51.7513
20856 2 8.19613 143.241 50.4658
15265 1 1.8338 148.037 51.7569
20878 2 2.74023 146.438 50.4732
20924 2 0.0122142 148.037 50.4755
15231 1 4.56182 146.438 51.7546
20876 2 5.46845 148.037 50.4755
15204 1 10.0181 146.438 51.7546
15233 1 7.29004 148.037 51.7569
20855 2 8.19647 146.438 50.4732
20877 2 2.74039 149.635 50.477
15221 1 4.56198 149.636 51.7583
15203 1 10.0182 149.636 51.7583
20846 2 8.19663 149.635 50.477
15279 1 0.0199877 135.23 54.2714
20880 2 1.84286 135.223 55.5486
14860 1 2.74768 133.629 54.2617
20518 2 0.925765 133.636 52.981
15239 1 5.47623 135.23 54.2714
20898 2 3.65432 135.236 52.9907
20480 2 4.57057 133.621 55.5388
20482 2 6.382 133.636 52.981
20859 2 7.2991 135.223 55.5486
20860 2 9.11056 135.236 52.9907
14838 1 8.20392 133.629 54.2617
20473 2 10.0268 133.621 55.5388
15240 1 2.74849 136.831 54.2801
15267 1 0.0207213 138.432 54.288
20881 2 1.84357 138.427 55.5653
20884 2 0.926594 136.836 52.9994
15241 1 5.47696 138.432 54.288
20849 2 4.57135 136.825 55.5574
20861 2 6.38283 136.836 52.9994
20882 2 3.65507 138.436 53.0072
15209 1 8.20473 136.831 54.2801
20837 2 10.0276 136.825 55.5574
20847 2 7.29981 138.427 55.5653
20862 2 9.11131 138.436 53.0072
15228 1 2.74915 140.033 54.2949
15268 1 0.0212968 141.634 54.3009
20870 2 1.84413 141.63 55.5783
20883 2 0.927261 140.036 53.014
15226 1 5.47754 141.634 54.3009
20848 2 4.57199 140.029 55.5722
20853 2 6.3835 140.036 53.014
20885 2 3.65565 141.637 53.02
15208 1 8.20539 140.033 54.2949
20836 2 10.0282 140.029 55.5722
20850 2 7.30037 141.63 55.5783
20851 2 9.11189 141.637 53.02
15227 1 2.74964 143.235 54.306
15263 1 0.0217077 144.836 54.3101
20871 2 1.84454 144.834 55.5876
20874 2 0.927761 143.237 53.0251
15229 1 5.47795 144.836 54.3101
20841 2 4.57247 143.232 55.5834
20852 2 6.384 143.237 53.0251
20872 2 3.65607 144.837 53.0293
15202 1 8.20588 143.235 54.306
20835 2 10.0287 143.232 55.5834
20839 2 7.30078 144.834 55.5876
20854 2 9.11231 144.837 53.0293
15220 1 2.74997 146.436 54.3134
15264 1 0.0219496 148.037 54.3157
20868 2 1.84478 148.038 55.5932
20873 2 0.928091 146.437 53.0325
15218 1 5.47819 148.037 54.3157
20840 2 4.5728 146.436 55.5908
20845 2 6.38433 146.437 53.0325
20875 2 3.65631 148.037 53.0348
20843 2 9.11255 148.037 53.0348
20842 2 7.30101 148.038 55.5932
20834 2 10.029 146.436 55.5908
15201 1 8.20621 146.436 54.3134
20869 2 0.928248 149.637 53.0363
15219 1 2.75013 149.638 54.3172
20844 2 6.38449 149.637 53.0363
20838 2 4.57295 149.639 55.5946
20833 2 10.0292 149.639 55.5946
15196 1 8.20636 149.638 54.3172
21132 2 0.0319971 135.21 58.1055
14858 1 0.936549 133.614 56.819
20799 2 2.75973 133.607 58.0956
21125 2 5.48824 135.21 58.1055
15238 1 3.66506 135.217 56.8288
14833 1 6.39279 133.614 56.819
15205 1 9.1213 135.217 56.8288
20769 2 8.21597 133.607 58.0956
21126 2 2.76047 136.814 58.1144
21130 2 0.0326741 138.417 58.1224
15224 1 0.937309 136.819 56.8377
21127 2 5.48891 138.417 58.1224
15206 1 6.39355 136.819 56.8377
15222 1 3.66576 138.422 56.8456
21097 2 8.21671 136.814 58.1144
15207 1 9.122 138.422 56.8456
21122 2 2.76108 140.021 58.1294
21131 2 0.0332155 141.624 58.1355
15223 1 0.937933 140.025 56.8526
21120 2 5.48945 141.624 58.1355
15199 1 6.39417 140.025 56.8526
15225 1 3.66631 141.627 56.8587
21096 2 8.21732 140.021 58.1294
15197 1 9.12255 141.627 56.8587
21121 2 2.76155 143.228 58.1407
21128 2 0.0336085 144.831 58.1449
15216 1 0.938409 143.23 56.8638
21123 2 5.48985 144.831 58.1449
15198 1 6.39465 143.23 56.8638
15214 1 3.66671 144.833 56.868
21091 2 8.21779 143.228 58.1407
15200 1 9.12295 144.833 56.868
21112 2 2.76187 146.434 58.1482
21129 2 0.0338438 148.038 58.1506
15215 1 0.938728 146.435 56.8713
21110 2 5.49008 148.038 58.1506
15195 1 6.39497 146.435 56.8713
15217 1 3.66694 148.038 56.8736
21090 2 8.2181 146.434 58.1482
15193 1 9.12318 148.038 56.8736
21111 2 2.76202 149.641 58.152
15213 1 0.938882 149.64 56.8751
15194 1 6.39512 149.64 56.8751
21077 2 8.21826 149.641 58.152
15491 1 1.85448 135.204 59.3853
15490 1 0.0444394 135.191 61.9409
15141 1 2.7722 133.585 61.9308
20797 2 0.949451 133.592 60.6513
15155 1 4.58223 133.599 59.3753
15475 1 5.50068 135.191 61.9409
21124 2 3.67794 135.197 60.6614
20749 2 6.40569 133.592 60.6513
15482 1 7.31072 135.204 59.3853
15107 1 10.0385 133.599 59.3753
21093 2 9.13418 135.197 60.6614
15105 1 8.22844 133.585 61.9308
15492 1 1.85514 138.412 59.4023
15476 1 2.7729 136.797 61.95
15486 1 0.0450873 138.403 61.9582
21118 2 0.950161 136.802 60.6704
15480 1 4.58295 136.808 59.3943
15477 1 5.50133 138.403 61.9582
21094 2 6.4064 136.802 60.6704
21116 2 3.67859 138.408 60.6785
15442 1 10.0392 136.808 59.3943
15478 1 7.31138 138.412 59.4023
15439 1 8.22913 136.797 61.95
21095 2 9.13483 138.408 60.6785
15488 1 1.85568 141.621 59.4155
15468 1 2.77349 140.009 61.9653
15487 1 0.045615 141.615 61.9715
21117 2 0.950756 140.013 60.6856
15479 1 4.58355 140.017 59.4094
15466 1 5.50185 141.615 61.9715
21088 2 6.40699 140.013 60.6856
21119 2 3.67912 141.618 60.6918
15441 1 10.0398 140.017 59.4094
15481 1 7.31191 141.621 59.4155
15438 1 8.22973 140.009 61.9653
21086 2 9.13536 141.618 60.6918
15489 1 1.85607 144.83 59.4249
15467 1 2.77395 143.221 61.9767
15483 1 0.0460034 144.826 61.981
21108 2 0.951216 143.223 60.697
15472 1 4.58401 143.225 59.4207
15469 1 5.50224 144.826 61.981
21087 2 6.40745 143.223 60.697
21106 2 3.67951 144.828 60.7012
15440 1 10.0402 143.225 59.4207
15470 1 7.3123 144.83 59.4249
15431 1 8.23019 143.221 61.9767
21089 2 9.13575 144.828 60.7012
15485 1 1.8563 148.038 59.4306
15457 1 2.77426 146.432 61.9843
15484 1 0.0462391 148.038 61.9866
21107 2 0.951529 146.433 60.7045
15471 1 4.58432 146.434 59.4282
15455 1 5.50248 148.038 61.9866
21076 2 6.40777 146.433 60.7045
21109 2 3.67975 148.038 60.7069
15433 1 10.0406 146.434 59.4282
15473 1 7.31254 148.038 59.4306
15430 1 8.2305 146.432 61.9843
21074 2 9.13598 148.038 60.7069
15456 1 2.77442 149.644 61.9881
21101 2 0.951684 149.643 60.7084
15458 1 4.58448 149.642 59.432
21075 2 6.40792 149.643 60.7084
15432 1 10.0407 149.642 59.432
15417 1 8.23065 149.644 61.9881
21113 2 0.05892 135.171 65.77
21114 2 1.86818 135.184 63.2163
15139 1 0.962642 133.57 64.4858
20733 2 2.78667 133.563 65.7597
15474 1 3.69112 135.178 64.4961
21079 2 5.51516 135.171 65.77
15086 1 6.41888 133.57 64.4858
20747 2 4.59594 133.577 63.2061
15435 1 9.14736 135.178 64.4961
21092 2 7.32442 135.184 63.2163
20697 2 8.24291 133.563 65.7597
20699 2 10.0522 133.577 63.2061
15464 1 0.963345 136.786 64.5053
21080 2 2.78739 136.78 65.7792
21102 2 0.0595871 138.388 65.7874
21115 2 1.86883 138.398 63.2336
15436 1 6.41958 136.786 64.5053
15462 1 3.69178 138.393 64.5135
21081 2 5.51583 138.388 65.7874
21084 2 4.59664 136.791 63.2255
15437 1 9.14802 138.393 64.5135
21039 2 8.24362 136.78 65.7792
21042 2 10.0529 136.791 63.2255
21082 2 7.32507 138.398 63.2336
15463 1 0.963943 140.001 64.5207
21068 2 2.788 139.997 65.7947
21103 2 0.0601319 141.605 65.8009
21104 2 1.86936 141.611 63.247
15428 1 6.42018 140.001 64.5207
15465 1 3.69231 141.608 64.5269
21066 2 5.51637 141.605 65.8009
21083 2 4.59723 140.005 63.2408
15426 1 9.14855 141.608 64.5269
21038 2 8.24423 139.997 65.7947
21041 2 10.0535 140.005 63.2408
21085 2 7.3256 141.611 63.247
15453 1 0.964411 143.216 64.5321
21067 2 2.78847 143.213 65.8062
21098 2 0.0605345 144.822 65.8105
21105 2 1.86975 144.825 63.2565
15427 1 6.42065 143.216 64.5321
15451 1 3.69271 144.823 64.5364
21069 2 5.51677 144.822 65.8105
21072 2 4.59769 143.218 63.2522
15429 1 9.14895 144.823 64.5364
21031 2 8.24471 143.213 65.8062
21040 2 10.0539 143.218 63.2522
21070 2 7.32599 144.825 63.2565
15452 1 0.964731 146.431 64.5398
21057 2 2.7888 146.43 65.8139
21099 2 0.0607808 148.038 65.8163
21100 2 1.86999 148.038 63.2622
15416 1 6.42097 146.431 64.5398
15454 1 3.69295 148.039 64.5421
21055 2 5.51702 148.038 65.8163
21071 2 4.59801 146.432 63.2598
15414 1 9.14919 148.039 64.5421
21030 2 8.24504 146.43 65.8139
21033 2 10.0542 146.432 63.2598
21073 2 7.32623 148.038 63.2622
15446 1 0.964892 149.646 64.5436
21056 2 2.78896 149.647 65.8177
15415 1 6.42113 149.646 64.5436
21058 2 4.59817 149.645 63.2637
21017 2 8.2452 149.647 65.8177
21032 2 10.0544 149.645 63.2637
15460 1 1.88189 135.165 67.0516
20731 2 0.977771 133.548 68.3112
21078 2 3.70628 135.158 68.3216
15084 1 4.60963 133.556 67.0413
20680 2 6.43401 133.548 68.3112
15434 1 7.33812 135.165 67.0516
21035 2 9.16252 135.158 68.3216
15045 1 10.0659 133.556 67.0413
15461 1 1.88257 138.384 67.0692
21064 2 0.978533 136.768 68.3309
15424 1 4.61036 136.775 67.0609
21036 2 6.43477 136.768 68.3309
21062 2 3.70699 138.378 68.3392
15387 1 10.0666 136.775 67.0609
15422 1 7.33881 138.384 67.0692
21037 2 9.16323 138.378 68.3392
15449 1 1.88313 141.603 67.0827
21063 2 0.979175 139.988 68.3465
15423 1 4.61098 139.993 67.0764
21028 2 6.43541 139.988 68.3465
21065 2 3.70756 141.598 68.3528
15386 1 10.0672 139.993 67.0764
15425 1 7.33937 141.603 67.0827
21026 2 9.1638 141.598 68.3528
15450 1 1.88354 144.821 67.0923
21053 2 0.979675 143.208 68.3581
15412 1 4.61147 143.212 67.088
21027 2 6.43591 143.208 68.3581
21051 2 3.70799 144.818 68.3624
15385 1 10.0677 143.212 67.088
15410 1 7.33978 144.821 67.0923
21029 2 9.16422 144.818 68.3624
15445 1 1.88379 148.039 67.098
21052 2 0.980017 146.428 68.3658
15411 1 4.61181 146.43 67.0956
21016 2 6.43626 146.428 68.3658
21054 2 3.70824 148.038 68.3682
15378 1 10.068 146.43 67.0956
15413 1 7.34003 148.039 67.098
21014 2 9.16448 148.038 68.3682
21046 2 0.98019 149.648 68.3696
15399 1 4.61198 149.649 67.0995
21015 2 6.43643 149.648 68.3696
15377 1 10.0682 149.649 67.0995
15459 1 0.0721948 135.152 69.6109
21060 2 1.89744 135.144 70.8682
15070 1 0.985444 133.526 72.1763
15072 1 2.79989 133.541 69.6005
15418 1 3.71405 135.139 72.1867
15419 1 5.52843 135.152 69.6109
15034 1 6.44168 133.526 72.1763
20678 2 4.62512 133.532 70.8577
15380 1 9.17029 135.139 72.1867
21034 2 7.35368 135.144 70.8682
15043 1 8.25613 133.541 69.6005
20648 2 10.0814 133.532 70.8577
15404 1 0.986387 136.751 72.1961
15420 1 2.80071 136.763 69.6202
15447 1 0.0729456 138.374 69.6286
21061 2 1.89821 138.368 70.8859
15381 1 6.44263 136.751 72.1961
15402 1 3.71492 138.364 72.2045
15421 1 5.52918 138.374 69.6286
21024 2 4.62596 136.756 70.8775
15382 1 9.17116 138.364 72.2045
15384 1 8.25694 136.763 69.6202
20992 2 10.0822 136.756 70.8775
21022 2 7.35445 138.368 70.8859
15403 1 0.987168 139.977 72.2119
15408 1 2.80139 139.985 69.6359
15448 1 0.0735538 141.596 69.6422
21049 2 1.89883 141.591 70.8996
15373 1 6.44341 139.977 72.2119
15405 1 3.71561 141.589 72.2182
15406 1 5.52979 141.596 69.6422
21023 2 4.62666 139.979 70.8932
15371 1 9.17185 141.589 72.2182
15383 1 8.25763 139.985 69.6359
20991 2 10.0829 139.979 70.8932
21025 2 7.35507 141.591 70.8996
15394 1 0.987767 143.202 72.2236
15407 1 2.80192 143.207 69.6475
15443 1 0.0740003 144.818 69.6519
21050 2 1.89928 144.814 70.9093
15372 1 6.44401 143.202 72.2236
15392 1 3.71611 144.814 72.2279
15409 1 5.53024 144.818 69.6519
21012 2 4.6272 143.203 70.9049
15374 1 9.17235 144.814 72.2279
15376 1 8.25816 143.207 69.6475
20990 2 10.0834 143.203 70.9049
21010 2 7.35552 144.814 70.9093
15393 1 0.988171 146.427 72.2313
15398 1 2.80228 146.429 69.6552
15444 1 0.0742729 148.039 69.6576
21045 2 1.89956 148.037 70.9151
15365 1 6.44441 146.427 72.2313
15395 1 3.71642 148.039 72.2338
15396 1 5.53051 148.039 69.6576
21011 2 4.62756 146.426 70.9126
15363 1 9.17266 148.039 72.2338
15375 1 8.25852 146.429 69.6552
20984 2 10.0838 146.426 70.9126
21013 2 7.3558 148.037 70.9151
15389 1 0.988375 149.652 72.2352
15397 1 2.80246 149.65 69.6591
15364 1 6.44461 149.652 72.2352
21001 2 4.62775 149.649 70.9165
15366 1 8.2587 149.65 69.6591
20983 2 10.084 149.649 70.9165
15400 1 1.84076 135.127 74.8379
21059 2 0.086902 135.13 73.4001
20666 2 0.976618 133.503 75.864
20668 2 2.81453 133.517 73.3896
21018 2 3.70534 135.118 75.8745
21019 2 5.54314 135.13 73.4001
15032 1 4.56824 133.512 74.8274
20641 2 6.43286 133.503 75.864
15379 1 7.297 135.127 74.8379
20985 2 9.16158 135.118 75.8745
15025 1 10.0245 133.512 74.8274
20646 2 8.27077 133.517 73.3896
15401 1 1.84188 138.356 74.8558
21004 2 0.977769 136.733 75.8839
21020 2 2.81547 136.744 73.4095
21047 2 0.0877641 138.357 73.4179
15369 1 4.56947 136.741 74.8474
20986 2 6.43401 136.733 75.8839
21002 2 3.70639 138.348 75.8924
21021 2 5.544 138.357 73.4179
15357 1 10.0257 136.741 74.8474
15367 1 7.29812 138.356 74.8558
20987 2 9.16262 138.348 75.8924
20989 2 8.27171 136.744 73.4095
15390 1 1.84278 141.585 74.8695
21003 2 0.978709 139.963 75.8998
21008 2 2.81625 139.97 73.4253
21048 2 0.0884495 141.583 73.4317
15368 1 4.57048 139.97 74.8631
20979 2 6.43495 139.963 75.8998
21005 2 3.70721 141.578 75.9062
21006 2 5.54469 141.583 73.4317
15356 1 10.0267 139.97 74.8631
15370 1 7.29902 141.585 74.8695
20977 2 9.16345 141.578 75.9062
20988 2 8.27249 139.97 73.4253
15391 1 1.84343 144.814 74.8793
20996 2 0.979421 143.193 75.9116
21007 2 2.81684 143.197 73.437
21043 2 0.0889456 144.81 73.4414
15361 1 4.57126 143.2 74.8749
20978 2 6.43566 143.193 75.9116
20994 2 3.70781 144.808 75.916
21009 2 5.54518 144.81 73.4414
15355 1 10.0275 143.2 74.8749
15359 1 7.29967 144.814 74.8793
20980 2 9.16405 144.808 75.916
20982 2 8.27308 143.197 73.437
15388 1 1.84382 148.044 74.8851
20995 2 0.979898 146.423 75.9194
21000 2 2.81724 146.423 73.4448
21044 2 0.0892454 148.036 73.4473
15360 1 4.57178 146.429 74.8827
20975 2 6.43614 146.423 75.9194
20997 2 3.70817 148.038 75.9219
20998 2 5.54548 148.036 73.4473
15354 1 10.028 146.429 74.8827
15362 1 7.30006 148.044 74.8851
20973 2 9.1644 148.038 75.9219
20981 2 8.27348 146.423 73.4448
20993 2 0.980136 149.653 75.9233
20999 2 2.81744 149.649 73.4487
15358 1 4.57204 149.659 74.8866
20974 2 6.43637 149.653 75.9233
15353 1 10.0283 149.659 74.8866
20976 2 8.27368 149.649 73.4487
9585 2 11.8092 1.52763 -0.859994
9593 2 13.6201 1.52427 -3.36767
3264 1 12.6961 3.0904 -2.30538
9583 2 14.5374 3.09481 -0.86157
3250 1 15.4241 1.52394 -2.30381
9555 2 17.2654 1.52763 -0.859994
9594 2 16.3484 3.08989 -3.36924
3248 1 18.1524 3.0904 -2.30538
3204 1 20.8804 1.52394 -2.30381
9558 2 19.0764 1.52427 -3.36767
9556 2 19.9936 3.09481 -0.86157
6334 2 21.8046 3.08989 -3.36924
9584 2 11.8095 4.66198 -0.864196
9589 2 13.6204 4.6555 -3.37185
3260 1 12.6966 6.22335 -2.31165
9586 2 14.5378 6.22915 -0.867873
3249 1 15.4244 4.65687 -2.30799
9549 2 17.2657 4.66198 -0.864196
9587 2 16.3488 6.22112 -3.37551
3251 1 18.1528 6.22335 -2.31165
3203 1 20.8807 4.65687 -2.30799
9557 2 19.0767 4.6555 -3.37185
9547 2 19.994 6.22915 -0.867873
6335 2 21.805 6.22112 -3.37551
9574 2 11.81 7.79634 -0.8726
9588 2 13.621 7.78677 -3.38022
3261 1 12.6973 9.35639 -2.3221
9572 2 14.5385 9.36355 -0.878376
3242 1 15.425 7.78986 -2.31636
9548 2 17.2662 7.79634 -0.8726
9590 2 16.3495 9.35244 -3.38597
3240 1 18.1535 9.35639 -2.3221
3202 1 20.8812 7.78986 -2.31636
9552 2 19.0772 7.78677 -3.38022
9550 2 19.9947 9.36355 -0.878376
6332 2 21.8057 9.35244 -3.38597
9573 2 11.8108 10.9308 -0.885202
9578 2 13.6218 10.9181 -3.39276
3256 1 12.6983 12.4896 -2.33672
9575 2 14.5394 12.4981 -0.893077
3241 1 15.4259 10.923 -2.32889
9535 2 17.267 10.9308 -0.885202
9576 2 16.3504 12.4839 -3.40059
3243 1 18.1546 12.4896 -2.33672
3195 1 20.8821 10.923 -2.32889
9551 2 19.078 10.9181 -3.39276
9533 2 19.9956 12.4981 -0.893077
6333 2 21.8067 12.4839 -3.40059
9566 2 11.8118 14.0654 -0.902
9577 2 13.6229 14.0497 -3.40947
3257 1 12.6997 15.6231 -2.35548
9564 2 14.5405 15.6328 -0.911974
3228 1 15.4271 14.0563 -2.34559
9534 2 17.2681 14.0654 -0.902
9579 2 16.3517 15.6156 -3.41938
3226 1 18.1559 15.6231 -2.35548
3194 1 20.8833 14.0563 -2.34559
9538 2 19.0791 14.0497 -3.40947
9536 2 19.9968 15.6328 -0.911974
6331 2 21.8079 15.6156 -3.41938
9565 2 11.8131 17.2003 -0.92301
9567 2 13.6243 17.1815 -3.43033
3647 1 12.7017 18.757 -2.37854
9999 2 14.5419 18.7678 -0.935108
3227 1 15.4287 17.1899 -2.36644
9517 2 17.2693 17.2003 -0.92301
10000 2 16.3533 18.7475 -3.44232
3636 1 18.158 18.757 -2.37854
3179 1 20.885 17.1899 -2.36644
9537 2 19.0805 17.1815 -3.43033
9962 2 19.9982 18.7678 -0.935108
6744 2 21.8095 18.7475 -3.44232
3246 1 13.624 1.52819 0.363042
9582 2 12.7165 3.09972 1.69364
9545 2 15.4445 1.53088 1.69522
3247 1 16.3523 3.09621 0.361465
9543 2 18.1727 3.09972 1.69364
3201 1 19.0803 1.52819 0.363042
9492 2 20.9007 1.53088 1.69522
186 1 21.8085 3.09621 0.361465
3238 1 13.6243 4.66423 0.358837
9570 2 12.7169 6.23737 1.68731
9544 2 15.4448 4.66854 1.691
3236 1 16.3527 6.23225 0.355159
9546 2 18.1731 6.23737 1.68731
3200 1 19.0806 4.66423 0.358837
9491 2 20.901 4.66854 1.691
187 1 21.8089 6.23225 0.355159
3237 1 13.6249 7.80029 0.350429
9571 2 12.7176 9.37505 1.67677
9531 2 15.4453 7.80621 1.68257
3239 1 16.3534 9.36834 0.344648
9529 2 18.1738 9.37505 1.67677
3193 1 19.0811 7.80029 0.350429
9490 2 20.9016 7.80621 1.68257
182 1 21.8096 9.36834 0.344648
3224 1 13.6257 10.9364 0.337817
9562 2 12.7185 12.5128 1.66201
9530 2 15.4461 10.9439 1.66992
3222 1 16.3543 12.5046 0.329937
9532 2 18.1748 12.5128 1.66201
3192 1 19.0819 10.9364 0.337817
9483 2 20.9024 10.9439 1.66992
183 1 21.8106 12.5046 0.329937
3223 1 13.6268 14.0727 0.321006
9563 2 12.7197 15.6508 1.64301
9516 2 15.4472 14.0818 1.65304
3225 1 16.3556 15.641 0.311018
9514 2 18.176 15.6508 1.64301
3178 1 19.083 14.0727 0.321006
9482 2 20.9035 14.0818 1.65304
181 1 21.8118 15.641 0.311018
3213 1 13.6282 17.2093 0.29996
9989 2 12.7212 18.7889 1.61976
9515 2 15.4486 17.2198 1.63192
3629 1 16.3571 18.7778 0.28783
9961 2 18.1775 18.7889 1.61976
3177 1 19.0844 17.2093 0.29996
9467 2 20.9048 17.2198 1.63192
574 1 21.8133 18.7778 0.28783
3234 1 11.8053 1.5321 2.96193
3232 1 14.5335 3.10177 2.96035
9541 2 13.6237 1.5348 4.263
3231 1 12.7132 3.10822 5.54279
3198 1 17.2615 1.5321 2.96193
3186 1 15.4412 1.53692 5.54437
9542 2 16.3519 3.10528 4.26142
3184 1 18.1695 3.10822 5.54279
3199 1 19.9898 3.10177 2.96035
3132 1 20.8975 1.53692 5.54437
9489 2 19.0799 1.5348 4.263
6304 2 21.8081 3.10528 4.26142
3233 1 11.8056 4.67143 2.95771
3235 1 14.5339 6.2411 2.95402
9527 2 13.6239 4.67575 4.25878
3216 1 12.7136 6.2508 5.53647
3190 1 17.2618 4.67143 2.95771
3185 1 15.4415 4.67951 5.54016
9525 2 16.3523 6.24621 4.25509
3187 1 18.1699 6.2508 5.53647
3188 1 19.9902 6.2411 2.95402
3131 1 20.8978 4.67951 5.54016
9488 2 19.0802 4.67575 4.25878
6305 2 21.8085 6.24621 4.25509
3220 1 11.8061 7.81077 2.94927
3218 1 14.5346 9.38045 2.94347
9526 2 13.6245 7.81667 4.25034
3217 1 12.7144 9.39335 5.52591
3189 1 17.2624 7.81077 2.94927
3171 1 15.4421 7.82208 5.53172
9528 2 16.353 9.38714 4.24453
3169 1 18.1706 9.39335 5.52591
3191 1 19.9909 9.38045 2.94347
3130 1 20.8983 7.82208 5.53172
9481 2 19.0807 7.81667 4.25034
6296 2 21.8092 9.38714 4.24453
3219 1 11.807 10.9501 2.93661
3221 1 14.5356 12.5199 2.92869
9512 2 13.6253 10.9576 4.23766
3208 1 12.7154 12.5359 5.51111
3175 1 17.2632 10.9501 2.93661
3170 1 15.4429 10.9646 5.51904
9510 2 16.354 12.5281 4.22974
3172 1 18.1716 12.5359 5.51111
3173 1 19.9919 12.5199 2.92869
3123 1 20.8992 10.9646 5.51904
9480 2 19.0816 10.9576 4.23766
6297 2 21.8102 12.5281 4.22974
3212 1 11.8081 14.0896 2.9197
3210 1 14.5369 15.6594 2.90965
9511 2 13.6265 14.0986 4.22074
3209 1 12.7167 15.6785 5.49204
3174 1 17.2643 14.0896 2.9197
3156 1 15.4441 14.1072 5.50211
9513 2 16.3553 15.6692 4.21069
3154 1 18.1729 15.6785 5.49204
6295 2 21.8115 15.6692 4.21069
9466 2 19.0827 14.0986 4.22074
3122 1 20.9003 14.1072 5.50211
3176 1 19.9931 15.6594 2.90965
3614 1 12.7183 18.8212 5.4687
3628 1 14.5384 18.7992 2.88635
9501 2 13.6279 17.2397 4.19957
3211 1 11.8095 17.2293 2.89853
3580 1 18.1745 18.8212 5.4687
9948 2 16.3568 18.8104 4.18738
3155 1 15.4455 17.2499 5.48091
3157 1 17.2657 17.2293 2.89853
6724 2 21.8131 18.8104 4.18738
3581 1 19.9947 18.7992 2.88635
9465 2 19.0841 17.2397 4.19957
3108 1 20.9018 17.2499 5.48091
3182 1 13.6209 1.54163 8.12093
9523 2 11.8032 1.53935 6.83482
9521 2 14.5314 3.11145 6.83325
9486 2 17.2594 1.53935 6.83482
3183 1 16.3492 3.11454 8.11937
3129 1 19.0772 1.54163 8.12093
9487 2 19.9876 3.11145 6.83325
142 1 21.8054 3.11454 8.11937
3167 1 13.6212 4.68743 8.11674
9522 2 11.8034 4.68353 6.83062
9524 2 14.5318 6.25561 6.82694
9478 2 17.2597 4.68353 6.83062
3165 1 16.3496 6.26031 8.11307
3128 1 19.0775 4.68743 8.11674
9476 2 19.988 6.25561 6.82694
143 1 21.8058 6.26031 8.11307
3166 1 13.6218 7.83318 8.10834
9508 2 11.804 7.82767 6.8222
9506 2 14.5325 9.39972 6.81641
9477 2 17.2602 7.82767 6.8222
3168 1 16.3503 9.40603 8.10255
3121 1 19.078 7.83318 8.10834
9479 2 19.9888 9.39972 6.81641
134 1 21.8065 9.40603 8.10255
3152 1 13.6226 10.9789 8.0957
9507 2 11.8049 10.9718 6.80955
9509 2 14.5335 12.5438 6.80164
9463 2 17.2611 10.9718 6.80955
3150 1 16.3513 12.5517 8.08779
3120 1 19.0789 10.9789 8.0957
9461 2 19.9898 12.5438 6.80164
135 1 21.8075 12.5517 8.08779
3151 1 13.6238 14.1245 8.07882
9500 2 11.806 14.1159 6.79266
9498 2 14.5348 15.6879 6.78261
9462 2 17.2622 14.1159 6.79266
3153 1 16.3526 15.6973 8.06878
3107 1 19.08 14.1245 8.07882
9464 2 19.991 15.6879 6.78261
133 1 21.8088 15.6973 8.06878
3141 1 13.6253 17.2701 8.05768
9499 2 11.8074 17.2599 6.77151
9947 2 14.5364 18.832 6.75934
9448 2 17.2637 17.2599 6.77151
3565 1 16.3542 18.8428 8.04551
3106 1 19.0815 17.2701 8.05768
541 1 21.8105 18.8428 8.04551
9893 2 19.9926 18.832 6.75934
3163 1 11.8009 1.54634 10.695
9470 2 13.6193 1.54868 11.9801
9520 2 12.7112 3.11767 9.40601
3161 1 14.5291 3.12083 10.6935
9474 2 15.4392 1.54398 9.40757
3126 1 17.2571 1.54634 10.695
9472 2 18.1674 3.11767 9.40601
9471 2 16.3476 3.12395 11.9786
9432 2 20.8954 1.54398 9.40757
9429 2 19.0756 1.54868 11.9801
3127 1 19.9854 3.12083 10.6935
6238 2 21.8038 3.12395 11.9786
3162 1 11.8012 4.69531 10.6909
9455 2 13.6196 4.6992 11.976
9504 2 12.7116 6.26501 9.39974
3164 1 14.5295 6.26977 10.6872
9473 2 15.4395 4.69135 9.4034
3118 1 17.2574 4.69531 10.6909
9475 2 18.1679 6.26501 9.39974
9453 2 16.348 6.27443 11.9724
9431 2 20.8957 4.69135 9.4034
9428 2 19.0758 4.6992 11.976
3116 1 19.9858 6.26977 10.6872
6239 2 21.8042 6.27443 11.9724
9505 2 12.7123 9.41227 9.38927
3148 1 11.8017 7.8442 10.6825
9454 2 13.6201 7.84962 11.9677
3146 1 14.5302 9.41859 10.6768
9459 2 15.44 7.83865 9.39503
9457 2 18.1685 9.41227 9.38927
3117 1 17.258 7.8442 10.6825
9456 2 16.3486 9.42478 11.962
9430 2 20.8963 7.83865 9.39503
9422 2 19.0764 7.84962 11.9677
3119 1 19.9865 9.41859 10.6768
6230 2 21.8048 9.42478 11.962
9496 2 12.7133 12.5594 9.37458
3147 1 11.8026 10.993 10.67
9443 2 13.6209 10.9999 11.9553
3149 1 14.5312 12.5673 10.6621
9458 2 15.4409 10.9859 9.38245
9460 2 18.1695 12.5594 9.37458
3104 1 17.2588 10.993 10.67
9441 2 16.3495 12.575 11.9475
9424 2 20.8971 10.9859 9.38245
9421 2 19.0772 10.9999 11.9553
3102 1 19.9874 12.5673 10.6621
6231 2 21.8058 12.575 11.9475
9497 2 12.7146 15.7065 9.35566
3140 1 11.8037 14.1416 10.6532
9442 2 13.622 14.15 11.9386
3138 1 14.5325 15.7158 10.6433
9447 2 15.442 14.133 9.36565
9445 2 18.1708 15.7065 9.35566
3103 1 17.2599 14.1416 10.6532
9444 2 16.3507 15.725 11.9287
9423 2 20.8982 14.133 9.36565
9415 2 19.0782 14.15 11.9386
3105 1 19.9887 15.7158 10.6433
6229 2 21.807 15.725 11.9287
3139 1 11.8051 17.29 10.6322
9436 2 13.6233 17.2998 11.9178
9927 2 12.7161 18.8534 9.33252
3564 1 14.534 18.8642 10.6202
9446 2 15.4434 17.28 9.34462
3093 1 17.2613 17.29 10.6322
9892 2 18.1724 18.8534 9.33252
9877 2 16.3523 18.8747 11.9058
9416 2 20.8997 17.28 9.34462
9414 2 19.0796 17.2998 11.9178
3509 1 19.9903 18.8642 10.6202
6662 2 21.8085 18.8747 11.9058
3110 1 13.618 1.55588 15.8395
9451 2 11.7998 1.55344 14.5521
3160 1 12.7094 3.12715 13.2662
9449 2 14.528 3.13027 14.5506
3114 1 15.4374 1.55108 13.2677
9426 2 17.256 1.55344 14.5521
3111 1 16.3462 3.1335 15.838
3112 1 18.1656 3.12715 13.2662
3081 1 19.0743 1.55588 15.8395
3084 1 20.8937 1.55108 13.2677
9427 2 19.9842 3.13027 14.5506
70 1 21.8025 3.1335 15.838
3096 1 13.6183 4.71109 15.8355
9450 2 11.8 4.70708 14.5481
3144 1 12.7098 6.2792 13.2601
9452 2 14.5284 6.28385 14.5445
3113 1 15.4377 4.70319 13.2637
9419 2 17.2563 4.70708 14.5481
3094 1 16.3466 6.28865 15.832
3115 1 18.166 6.2792 13.2601
3080 1 19.0745 4.71109 15.8355
3083 1 20.8939 4.70319 13.2637
9417 2 19.9846 6.28385 14.5445
71 1 21.8028 6.28865 15.832
3095 1 13.6187 7.86616 15.8274
9439 2 11.8005 7.86058 14.5399
9437 2 14.5289 9.43727 14.5343
3145 1 12.7104 9.43111 13.2497
3100 1 15.4382 7.85518 13.2554
9418 2 17.2567 7.86058 14.5399
3098 1 18.1667 9.43111 13.2497
3097 1 16.3471 9.44361 15.8218
3077 1 19.0749 7.86616 15.8274
3082 1 20.8944 7.85518 13.2554
9420 2 19.9852 9.43727 14.5343
62 1 21.8034 9.44361 15.8218
9438 2 11.8012 11.0139 14.5276
3088 1 13.6194 11.021 15.8152
9440 2 14.5298 12.5905 14.5199
3136 1 12.7113 12.5828 13.2353
9412 2 17.2575 11.0139 14.5276
3099 1 15.4389 11.007 13.243
3101 1 18.1675 12.5828 13.2353
3086 1 16.3479 12.5983 15.8076
63 1 21.8041 12.5983 15.8076
9410 2 19.986 12.5905 14.5199
3079 1 20.8952 11.007 13.243
3076 1 19.0756 11.021 15.8152
3137 1 12.7125 15.7343 13.2166
9433 2 14.5309 15.7434 14.5014
9435 2 11.8022 14.167 14.5112
3087 1 13.6203 14.1756 15.7989
3090 1 18.1687 15.7343 13.2166
9411 2 17.2584 14.167 14.5112
3092 1 15.44 14.1586 13.2264
9413 2 19.9871 15.7434 14.5014
3074 1 19.0765 14.1756 15.7989
3078 1 20.8962 14.1586 13.2264
3085 1 13.6215 17.3298 15.7785
9434 2 11.8034 17.3197 14.4906
9876 2 14.5323 18.8959 14.4788
3543 1 12.714 18.8854 13.1938
3091 1 15.4413 17.3099 13.2057
9409 2 17.2597 17.3197 14.4906
3089 1 16.349 15.7527 15.7892
3508 1 18.1702 18.8854 13.1938
61 1 21.8052 15.7527 15.7892
3073 1 19.0777 17.3298 15.7785
3075 1 20.8975 17.3099 13.2057
9833 2 19.9885 18.8959 14.4788
3454 1 11.799 1.56074 18.4105
9792 2 12.7088 3.13664 17.122
3452 1 14.5272 3.1399 18.4091
9778 2 15.4368 1.55826 17.1235
3431 1 17.2552 1.56074 18.4105
9776 2 18.165 3.13664 17.122
9732 2 20.893 1.55826 17.1235
3432 1 19.9834 3.1399 18.4091
3453 1 11.7991 4.71903 18.4066
9788 2 12.7091 6.2933 17.116
3455 1 14.5274 6.29811 18.4031
9777 2 15.437 4.71499 17.1195
3427 1 17.2554 4.71903 18.4066
9779 2 18.1653 6.2933 17.116
9731 2 20.8932 4.71499 17.1195
3425 1 19.9837 6.29811 18.4031
3447 1 11.7995 7.87715 18.3986
9789 2 12.7096 9.44977 17.1059
9770 2 15.4374 7.87156 17.1115
3426 1 17.2558 7.87715 18.3986
9768 2 18.1658 9.44977 17.1059
9730 2 20.8936 7.87156 17.1115
3446 1 11.8001 11.035 18.3866
3445 1 14.5279 9.45613 18.3931
9769 2 15.438 11.0279 17.0994
3415 1 17.2563 11.035 18.3866
3428 1 19.9841 9.45613 18.3931
9723 2 20.8943 11.0279 17.0994
9784 2 12.7103 12.606 17.0918
3440 1 11.8008 14.1926 18.3706
3448 1 14.5285 12.6139 18.3791
3414 1 17.2571 14.1926 18.3706
9756 2 15.4389 14.1839 17.0832
9771 2 18.1665 12.606 17.0918
3413 1 19.9848 12.6139 18.3791
9722 2 20.8951 14.1839 17.0832
9785 2 12.7112 15.7618 17.0736
3439 1 11.8018 17.3497 18.3506
3438 1 14.5294 15.7712 18.3611
3397 1 17.2581 17.3497 18.3506
9755 2 15.4399 17.3396 17.063
9754 2 18.1675 15.7618 17.0736
3416 1 19.9857 15.7712 18.3611
9707 2 20.8962 17.3396 17.063
9774 2 13.6179 1.56314 19.6941
9762 2 11.7994 1.56807 22.2639
3451 1 12.7084 3.14634 20.9793
9760 2 14.5276 3.14952 22.2625
3423 1 15.4365 1.56565 20.9808
9726 2 17.2556 1.56807 22.2639
9775 2 16.3461 3.14305 19.6926
3421 1 18.1647 3.14634 20.9793
9729 2 19.0742 1.56314 19.6941
3372 1 20.8927 1.56565 20.9808
6522 2 21.8023 3.14305 19.6926
9727 2 19.9838 3.14952 22.2625
9766 2 13.6181 4.72294 19.6902
9761 2 11.7995 4.73093 22.2601
3422 1 15.4366 4.727 20.9769
9718 2 17.2558 4.73093 22.2601
9728 2 19.0743 4.72294 19.6902
3371 1 20.8929 4.727 20.9769
9765 2 13.6184 7.88257 19.6823
3443 1 12.7086 6.30762 20.9735
9748 2 11.7998 7.89361 22.2524
9763 2 14.5277 6.3123 22.2568
9764 2 16.3463 6.30278 19.6867
3411 1 15.4369 7.88818 20.9691
9717 2 17.256 7.89361 22.2524
3424 1 18.1649 6.30762 20.9735
9721 2 19.0746 7.88257 19.6823
3370 1 20.8931 7.88818 20.9691
9716 2 19.984 6.3123 22.2568
6523 2 21.8026 6.30278 19.6867
9752 2 13.6189 11.0419 19.6704
3444 1 12.709 9.46867 20.9637
9747 2 11.8001 11.056 22.2408
9746 2 14.528 9.47486 22.2471
9767 2 16.3467 9.46229 19.6769
3410 1 15.4373 11.0491 20.9574
9703 2 17.2563 11.056 22.2408
3409 1 18.1652 9.46867 20.9637
9720 2 19.0751 11.0419 19.6704
3363 1 20.8936 11.0491 20.9574
9719 2 19.9843 9.47486 22.2471
6518 2 21.803 9.46229 19.6769
9751 2 13.6196 14.201 19.6546
3436 1 12.7095 12.6294 20.95
9740 2 11.8006 14.2181 22.2253
9749 2 14.5284 12.6371 22.2335
9750 2 16.3473 12.6215 19.663
3396 1 15.4379 14.2096 20.9417
9702 2 17.2568 14.2181 22.2253
3412 1 18.1657 12.6294 20.95
9706 2 19.0758 14.201 19.6546
3362 1 20.8942 14.2096 20.9417
9701 2 19.9847 12.6371 22.2335
6519 2 21.8036 12.6215 19.663
9741 2 13.6204 17.3595 19.6348
3437 1 12.7102 15.7897 20.9324
9739 2 11.8012 17.3796 22.2059
9738 2 14.529 15.7989 22.2161
9753 2 16.3481 15.7803 19.6452
3395 1 15.4387 17.3697 20.9221
9685 2 17.2575 17.3796 22.2059
3394 1 18.1664 15.7897 20.9324
9705 2 19.0767 17.3595 19.6348
3347 1 20.8949 17.3697 20.9221
9704 2 19.9852 15.7989 22.2161
6517 2 21.8043 15.7803 19.6452
3419 1 13.6182 1.57061 23.5502
9714 2 15.4375 1.57306 24.833
3369 1 19.0744 1.57061 23.5502
9660 2 20.8938 1.57306 24.833
3407 1 13.6183 4.73502 23.5465
9759 2 12.7094 3.15603 24.8316
3420 1 16.3463 3.15283 23.5488
9713 2 15.4376 4.73897 24.8293
9712 2 18.1657 3.15603 24.8316
3368 1 19.0745 4.73502 23.5465
9659 2 20.8938 4.73897 24.8293
369 1 21.8025 3.15283 23.5488
3406 1 13.6184 7.89924 23.5388
9744 2 12.7095 6.32187 24.826
3405 1 16.3464 6.31716 23.5431
9699 2 15.4377 7.90471 24.8218
9715 2 18.1658 6.32187 24.826
3361 1 19.0747 7.89924 23.5388
9658 2 20.894 7.90471 24.8218
370 1 21.8027 6.31716 23.5431
3392 1 13.6187 11.0632 23.5273
9745 2 12.7097 9.48748 24.8165
3408 1 16.3467 9.48126 23.5336
9698 2 15.4379 11.0702 24.8104
9697 2 18.1659 9.48748 24.8165
3360 1 19.0749 11.0632 23.5273
9651 2 20.8942 11.0702 24.8104
362 1 21.8029 9.48126 23.5336
3391 1 13.6191 14.2268 23.512
9736 2 12.7099 12.6528 24.8033
9700 2 18.1662 12.6528 24.8033
9684 2 15.4382 14.2353 24.7952
3390 1 16.347 12.645 23.5201
363 1 21.8032 12.645 23.5201
9650 2 20.8945 14.2353 24.7952
3346 1 19.0753 14.2268 23.512
9737 2 12.7103 15.8176 24.7862
3381 1 13.6196 17.3898 23.4928
9682 2 18.1665 15.8176 24.7862
9683 2 15.4386 17.3998 24.7763
3393 1 16.3475 15.8084 23.5029
361 1 21.8037 15.8084 23.5029
9636 2 20.8948 17.3998 24.7763
3345 1 19.0758 17.3898 23.4928
3403 1 11.8002 1.57562 26.1189
9710 2 13.6198 1.5781 27.4013
3366 1 17.2565 1.57562 26.1189
3354 1 15.439 1.58068 28.6868
3306 1 20.8952 1.58068 28.6868
9657 2 19.0761 1.5781 27.4013
3402 1 11.8003 4.74308 26.1152
3401 1 14.5284 3.15937 26.1175
3400 1 12.7109 3.16595 28.6855
9695 2 13.6198 4.74706 27.3977
3358 1 17.2565 4.74308 26.1152
3353 1 15.439 4.75119 28.6832
9711 2 16.348 3.16259 27.4
3352 1 18.1671 3.16595 28.6855
3367 1 19.9846 3.15937 26.1175
3305 1 20.8952 4.75119 28.6832
9656 2 19.0761 4.74706 27.3977
6478 2 21.8042 3.16259 27.4
3388 1 11.8004 7.91036 26.1078
3404 1 14.5284 6.32675 26.112
3384 1 12.7109 6.33639 28.68
9694 2 13.6199 7.91585 27.3903
3357 1 17.2566 7.91036 26.1078
3339 1 15.439 7.92153 28.6759
9693 2 16.348 6.33148 27.3945
3355 1 18.1671 6.33639 28.68
3356 1 19.9847 6.32675 26.112
3304 1 20.8952 7.92153 28.6759
9649 2 19.0761 7.91585 27.3903
6479 2 21.8042 6.33148 27.3945
3387 1 11.8005 11.0774 26.0965
3386 1 14.5285 9.49391 26.1026
3385 1 12.7108 9.50662 28.6708
9680 2 13.6199 11.0844 27.3792
3343 1 17.2567 11.0774 26.0965
3338 1 15.4389 11.0916 28.6649
9696 2 16.348 9.50016 27.3852
3337 1 18.1671 9.50662 28.6708
3359 1 19.9848 9.49391 26.1026
3297 1 20.8952 11.0916 28.6649
9648 2 19.0762 11.0844 27.3792
6470 2 21.8043 9.50016 27.3852
3380 1 11.8007 14.244 26.0815
3389 1 14.5287 12.6607 26.0895
3376 1 12.7108 12.6765 28.658
9679 2 13.62 14.2526 27.3643
3342 1 17.2569 14.244 26.0815
3325 1 15.4389 14.2614 28.6502
9678 2 16.3481 12.6685 27.3722
3340 1 18.1671 12.6765 28.658
3341 1 19.9849 12.6607 26.0895
3296 1 20.8952 14.2614 28.6502
9635 2 19.0763 14.2526 27.3643
6471 2 21.8043 12.6685 27.3722
3379 1 11.8009 17.4101 26.0628
3378 1 14.5289 15.8271 26.0726
3377 1 12.7108 15.8461 28.6414
9669 2 13.6202 17.4202 27.3458
3326 1 17.2572 17.4101 26.0628
3324 1 15.4389 17.4306 28.6319
9681 2 16.3482 15.8365 27.3555
3323 1 18.167 15.8461 28.6414
3344 1 19.9851 15.8271 26.0726
3285 1 20.8952 17.4306 28.6319
9634 2 19.0764 17.4202 27.3458
6469 2 21.8044 15.8365 27.3555
3350 1 13.622 1.58578 31.2539
9687 2 12.714 0.000720295 32.5359
9691 2 11.8026 1.58317 29.9688
9642 2 15.4421 1.58829 32.5355
9654 2 17.2588 1.58317 29.9688
9652 2 18.1702 0.000720295 32.5359
3303 1 19.0782 1.58578 31.2539
9612 2 20.8983 1.58829 32.5355
3335 1 13.6219 4.75935 31.2503
9688 2 12.7139 3.17585 32.5342
9690 2 11.8026 4.7552 29.9653
9689 2 14.5307 3.1692 29.9675
3351 1 16.3501 3.17258 31.2526
9641 2 15.442 4.76338 32.532
9646 2 17.2588 4.7552 29.9653
9640 2 18.1702 3.17585 32.5342
3302 1 19.0782 4.75935 31.2503
9611 2 20.8982 4.76338 32.532
9655 2 19.9869 3.1692 29.9675
310 1 21.8063 3.17258 31.2526
3334 1 13.6218 7.93277 31.2432
9672 2 12.7138 6.35088 32.5289
9676 2 11.8025 7.92706 29.958
9692 2 14.5306 6.34115 29.9621
3333 1 16.35 6.34608 31.2472
9628 2 15.4419 7.93833 32.5249
9645 2 17.2587 7.92706 29.958
9643 2 18.17 6.35088 32.5289
3295 1 19.078 7.93277 31.2432
9610 2 20.8981 7.93833 32.5249
9644 2 19.9869 6.34115 29.9621
311 1 21.8062 6.34608 31.2472
3321 1 13.6217 11.106 31.2323
9673 2 12.7136 9.52574 32.52
9675 2 11.8024 11.0987 29.9471
9674 2 14.5306 9.51291 29.953
3336 1 16.3499 9.5194 31.2382
9627 2 15.4416 11.1131 32.5141
9632 2 17.2587 11.0987 29.9471
9626 2 18.1699 9.52574 32.52
3294 1 19.0779 11.106 31.2323
9607 2 20.8979 11.1131 32.5141
9647 2 19.9868 9.51291 29.953
302 1 21.8061 9.5194 31.2382
3320 1 13.6214 14.2788 31.2179
9664 2 12.7134 12.7003 32.5074
9668 2 11.8023 14.27 29.9325
9677 2 14.5305 12.6844 29.9403
3319 1 16.3497 12.6924 31.2256
9620 2 15.4414 14.2875 32.4998
9631 2 17.2585 14.27 29.9325
9629 2 18.1696 12.7003 32.5074
3284 1 19.0777 14.2788 31.2179
9606 2 20.8976 14.2875 32.4998
9630 2 19.9867 12.6844 29.9403
303 1 21.8059 12.6924 31.2256
3312 1 13.6212 17.4513 31.2
9665 2 12.7131 15.8746 32.4914
9667 2 11.8022 17.4408 29.9144
9666 2 14.5304 15.8555 29.9239
3322 1 16.3494 15.8651 31.2094
9619 2 15.441 17.4616 32.482
9621 2 17.2584 17.4408 29.9144
9618 2 18.1693 15.8746 32.4914
3283 1 19.0774 17.4513 31.2
9603 2 20.8973 17.4616 32.482
9633 2 19.9866 15.8555 29.9239
301 1 21.8057 15.8651 31.2094
3331 1 11.8055 1.59092 33.8201
9638 2 13.6258 1.59344 35.1013
3348 1 14.5336 0.00257617 33.8205
3300 1 17.2617 1.59092 33.8201
9637 2 16.354 0.00433633 35.1017
3299 1 19.9898 0.00257617 33.8205
9609 2 19.0821 1.59344 35.1013
6422 2 21.8102 0.00433633 35.1017
3330 1 11.8054 4.76755 33.8166
9624 2 13.6257 4.77161 35.0979
3329 1 14.5335 3.17925 33.8188
3292 1 17.2616 4.76755 33.8166
9639 2 16.3539 3.18254 35.1
3301 1 19.9898 3.17925 33.8188
9608 2 19.082 4.77161 35.0979
6406 2 21.8101 3.18254 35.1
3332 1 14.5334 6.35583 33.8136
3317 1 11.8052 7.94407 33.8096
9623 2 13.6255 7.94967 35.0908
9622 2 16.3537 6.36066 35.0948
3291 1 17.2614 7.94407 33.8096
9605 2 19.0817 7.94967 35.0908
3290 1 19.9896 6.35583 33.8136
6407 2 21.81 6.36066 35.0948
3315 1 14.5332 9.53225 33.8047
9616 2 13.6252 11.1276 35.0802
3316 1 11.8049 11.1204 33.7989
9625 2 16.3535 9.53864 35.086
3281 1 17.2611 11.1204 33.7989
9604 2 19.0814 11.1276 35.0802
3293 1 19.9894 9.53225 33.8047
6398 2 21.8097 9.53864 35.086
3318 1 14.5328 12.7084 33.7922
9615 2 13.6247 14.3052 35.0661
3311 1 11.8045 14.2964 33.7847
9614 2 16.3531 12.7164 35.0736
3280 1 17.2608 14.2964 33.7847
9602 2 19.081 14.3052 35.0661
3279 1 19.9891 12.7084 33.7922
6399 2 21.8093 12.7164 35.0736
3310 1 11.8041 17.4721 33.767
9613 2 13.6242 17.4825 35.0486
3309 1 14.5324 15.8843 33.7763
3274 1 17.2603 17.4721 33.767
9617 2 16.3526 15.8939 35.0578
6397 2 21.8088 15.8939 35.0578
3282 1 19.9887 15.8843 33.7763
9601 2 19.0804 17.4825 35.0486
9814 2 11.8101 1.59862 37.6663
15677 1 13.6303 1.60128 38.95
3327 1 12.7176 0.00620625 36.3858
9816 2 14.5383 0.00797179 37.6666
9803 2 17.2664 1.59862 37.6663
15676 1 16.3584 0.00985227 38.9503
3288 1 15.4457 1.59609 36.3855
3298 1 18.1739 0.00620625 36.3858
9802 2 19.9945 0.00797179 37.6666
15642 1 19.0865 1.60128 38.95
3270 1 20.902 1.59609 36.3855
12864 1 21.8147 0.00985227 38.9503
9813 2 11.81 4.77989 37.6629
15673 1 13.6301 4.78411 38.9466
3328 1 12.7175 3.18596 36.3842
9812 2 14.5382 3.18927 37.665
9800 2 17.2662 4.77989 37.6629
15678 1 16.3583 3.1927 38.9487
3287 1 15.4456 4.77581 36.3821
3286 1 18.1738 3.18596 36.3842
9804 2 19.9944 3.18927 37.665
15641 1 19.0864 4.78411 38.9466
3269 1 20.9018 4.77581 36.3821
12862 1 21.8146 3.1927 38.9487
9810 2 11.8097 7.96108 37.6559
15672 1 13.6298 7.96686 38.9396
3313 1 12.7173 6.36564 36.379
9815 2 14.538 6.3705 37.6598
9799 2 17.2659 7.96108 37.6559
15671 1 16.3581 6.3755 38.9436
3277 1 15.4453 7.95543 36.3751
3289 1 18.1736 6.36564 36.379
9798 2 19.9942 6.3705 37.6598
15636 1 19.0861 7.96686 38.9396
3268 1 20.9016 7.95543 36.3751
12863 1 21.8143 6.3755 38.9436
9809 2 11.8093 11.1421 37.6454
15662 1 13.6294 11.1495 38.9292
3314 1 12.717 9.54518 36.3702
9808 2 14.5376 9.55162 37.6511
9796 2 17.2655 11.1421 37.6454
15674 1 16.3577 9.5582 38.9349
3276 1 15.4449 11.1349 36.3645
3275 1 18.1733 9.54518 36.3702
9801 2 19.9939 9.55162 37.6511
15635 1 19.0856 11.1495 38.9292
3267 1 20.9012 11.1349 36.3645
12860 1 21.814 9.5582 38.9349
9807 2 11.8087 14.323 37.6314
15661 1 13.6287 14.332 38.9152
3307 1 12.7166 12.7245 36.3579
9811 2 14.5372 12.7326 37.6388
9795 2 17.265 14.323 37.6314
15660 1 16.3572 12.7408 38.9226
3273 1 15.4444 14.3141 36.3505
3278 1 18.1728 12.7245 36.3579
9794 2 19.9934 12.7326 37.6388
15622 1 19.085 14.332 38.9152
3266 1 20.9007 14.3141 36.3505
12861 1 21.8134 12.7408 38.9226
9806 2 11.8081 17.5036 37.614
15651 1 13.628 17.5143 38.8979
3308 1 12.716 15.9037 36.3422
9805 2 14.5365 15.9133 37.6231
9793 2 17.2643 17.5036 37.614
15663 1 16.3565 15.9231 38.907
3272 1 15.4438 17.4931 36.333
3271 1 18.1723 15.9037 36.3422
9797 2 19.9928 15.9133 37.6231
15621 1 19.0842 17.5143 38.8979
3265 1 20.9 17.4931 36.333
12859 1 21.8127 15.9231 38.907
21299 2 12.7231 0.0116194 40.2306
15669 1 11.8154 1.60649 41.5135
15675 1 14.5436 0.0135071 41.5139
21286 2 15.4512 1.60383 40.2303
15639 1 17.2717 1.60649 41.5135
21288 2 18.1794 0.0116194 40.2306
15638 1 19.9998 0.0135071 41.5139
21240 2 20.9075 1.60383 40.2303
21300 2 12.723 3.19603 40.2291
15668 1 11.8152 4.79245 41.5102
15667 1 14.5435 3.19948 41.5123
21285 2 15.4511 4.78822 40.2269
15633 1 17.2715 4.79245 41.5102
21284 2 18.1793 3.19603 40.2291
15640 1 19.9997 3.19948 41.5123
21239 2 20.9073 4.78822 40.2269
21296 2 12.7228 6.3804 40.2239
15658 1 11.8149 7.97837 41.5033
15670 1 14.5432 6.38542 41.5072
21278 2 15.4507 7.97255 40.22
15632 1 17.2711 7.97837 41.5033
21287 2 18.179 6.3804 40.2239
15631 1 19.9994 6.38542 41.5072
21238 2 20.907 7.97255 40.22
21297 2 12.7224 9.56468 40.2152
15657 1 11.8144 11.1642 41.4928
15656 1 14.5428 9.57129 41.4985
21277 2 15.4503 11.1568 40.2095
15619 1 17.2706 11.1642 41.4928
21276 2 18.1786 9.56468 40.2152
15634 1 19.999 9.57129 41.4985
21231 2 20.9065 11.1568 40.2095
21292 2 12.7218 12.7489 40.203
15650 1 11.8137 14.3499 41.4789
15659 1 14.5422 12.7571 41.4863
15618 1 17.2699 14.3499 41.4789
21264 2 15.4496 14.3409 40.1956
21279 2 18.1781 12.7489 40.203
15617 1 19.9984 12.7571 41.4863
21230 2 20.9059 14.3409 40.1956
21293 2 12.7211 15.9329 40.1874
15649 1 11.8128 17.5356 41.4616
15648 1 14.5414 15.9428 41.4707
15601 1 17.2691 17.5356 41.4616
21263 2 15.4488 17.5248 40.1783
21262 2 18.1774 15.9329 40.1874
15620 1 19.9976 15.9428 41.4707
21215 2 20.9051 17.5248 40.1783
21282 2 13.6367 1.60905 42.7934
15665 1 12.7293 0.0171637 44.0766
21270 2 11.8227 1.61428 45.3556
21281 2 16.3648 0.015272 42.7938
21280 2 14.5509 0.0189231 45.356
15629 1 15.4574 1.61172 44.0762
21234 2 17.279 1.61428 45.3556
15637 1 18.1855 0.0171637 44.0766
21237 2 19.0929 1.60905 42.7934
15576 1 20.9136 1.61172 44.0762
21233 2 20.0071 0.0189231 45.356
18478 2 21.8211 0.015272 42.7938
21274 2 13.6365 4.79659 42.79
15666 1 12.7292 3.20628 44.075
21269 2 11.8225 4.80499 45.3522
21283 2 16.3647 3.20282 42.7922
15628 1 15.4572 4.80084 44.0728
21226 2 17.2788 4.80499 45.3522
21268 2 14.5508 3.20964 45.3544
15627 1 18.1854 3.20628 44.075
21236 2 19.0927 4.79659 42.79
15575 1 20.9134 4.80084 44.0728
21235 2 20.007 3.20964 45.3544
18474 2 21.821 3.20282 42.7922
21273 2 13.6361 7.98409 42.7831
15654 1 12.7289 6.39539 44.0698
21256 2 11.8222 7.9957 45.3453
21272 2 16.3645 6.39035 42.787
15615 1 15.4568 7.98994 44.0659
21225 2 17.2784 7.9957 45.3453
21271 2 14.5505 6.40035 45.3492
15630 1 18.1852 6.39539 44.0698
21229 2 19.0924 7.98409 42.7831
15574 1 20.9131 7.98994 44.0659
21224 2 20.0067 6.40035 45.3492
18475 2 21.8207 6.39035 42.787
21260 2 13.6356 11.1715 42.7727
15655 1 12.7285 9.58447 44.0611
21255 2 11.8216 11.1864 45.3348
21275 2 16.364 9.57782 42.7783
15614 1 15.4563 11.179 44.0555
21211 2 17.2779 11.1864 45.3348
21254 2 14.55 9.59104 45.3405
15613 1 18.1847 9.58447 44.0611
21228 2 19.0919 11.1715 42.7727
15567 1 20.9125 11.179 44.0555
21227 2 20.0063 9.59104 45.3405
18470 2 21.8203 9.57782 42.7783
21259 2 13.6349 14.3589 42.7588
15646 1 12.7278 12.7735 44.0489
21248 2 11.8209 14.3771 45.3208
21257 2 14.5494 12.7817 45.3282
21258 2 16.3634 12.7652 42.7662
15600 1 15.4556 14.368 44.0415
21210 2 17.2771 14.3771 45.3208
15616 1 18.1841 12.7735 44.0489
21214 2 19.0912 14.3589 42.7588
15566 1 20.9118 14.368 44.0415
21209 2 20.0056 12.7817 45.3282
18471 2 21.8197 12.7652 42.7662
21249 2 13.634 17.5462 42.7414
15647 1 12.727 15.9625 44.0333
21247 2 11.82 17.5677 45.3034
21246 2 14.5486 15.9724 45.3125
21261 2 16.3626 15.9526 42.7505
15599 1 15.4546 17.557 44.0242
21194 2 17.2762 17.5677 45.3034
15598 1 18.1832 15.9625 44.0333
21213 2 19.0903 17.5462 42.7414
15551 1 20.9109 17.557 44.0242
21212 2 20.0048 15.9724 45.3125
18469 2 21.8189 15.9526 42.7505
15607 1 11.8307 1.62221 49.1987
15625 1 13.6437 1.61696 46.6379
15664 1 10.9156 0.0208158 46.6383
21266 2 12.7375 0.0225664 47.9172
15570 1 17.2869 1.62221 49.1987
15623 1 14.5588 0.0244574 49.1991
15624 1 16.3719 0.0208158 46.6383
21222 2 15.4656 1.61952 47.9168
15569 1 20.015 0.0244574 49.1991
15573 1 19.1 1.61696 46.6379
21174 2 20.9218 1.61952 47.9168
21232 2 18.1938 0.0225664 47.9172
15606 1 11.8305 4.81773 49.1953
15611 1 13.6435 4.80927 46.6345
15652 1 10.9155 3.21311 46.6367
21267 2 12.7374 3.21647 47.9156
15562 1 17.2867 4.81773 49.1953
15605 1 14.5587 3.21996 49.1974
15626 1 16.3718 3.21311 46.6367
21221 2 15.4654 4.81344 47.9134
15571 1 20.0149 3.21996 49.1974
15572 1 19.0998 4.80927 46.6345
21173 2 20.9216 4.81344 47.9134
21220 2 18.1936 3.21647 47.9156
15592 1 11.8301 8.01328 49.1883
15610 1 13.6431 8.00158 46.6276
15653 1 10.9152 6.40542 46.6315
21252 2 12.7371 6.4104 47.9104
15561 1 17.2863 8.01328 49.1883
15608 1 14.5584 6.4155 49.1922
15609 1 16.3715 6.40542 46.6315
21207 2 15.465 8.00737 47.9065
15560 1 20.0146 6.4155 49.1922
15565 1 19.0994 8.00158 46.6276
21172 2 20.9213 8.00737 47.9065
21223 2 18.1934 6.4104 47.9104
15591 1 11.8295 11.2089 49.1777
15596 1 13.6426 11.1939 46.6171
15644 1 10.9148 9.59773 46.6228
21253 2 12.7367 9.60434 47.9016
15547 1 17.2858 11.2089 49.1777
15590 1 14.5579 9.61106 49.1834
15612 1 16.371 9.59773 46.6228
21206 2 15.4645 11.2013 47.8959
15563 1 20.0142 9.61106 49.1834
15564 1 19.0988 11.1939 46.6171
21165 2 20.9207 11.2013 47.8959
21205 2 18.1929 9.60434 47.9016
15584 1 11.8288 14.4045 49.1635
15595 1 13.6418 14.3862 46.6031
15645 1 10.9141 12.79 46.6105
21244 2 12.736 12.7983 47.8893
15546 1 17.285 14.4045 49.1635
15593 1 14.5573 12.8067 49.171
15594 1 16.3704 12.79 46.6105
21193 2 15.4638 14.3953 47.8818
15545 1 20.0135 12.8067 49.171
15550 1 19.0981 14.3862 46.6031
21164 2 20.92 14.3953 47.8818
21208 2 18.1923 12.7983 47.8893
15583 1 11.8279 17.6002 49.1458
15585 1 13.6409 17.5786 46.5855
15643 1 10.9133 15.9824 46.5947
21245 2 12.7352 15.9923 47.8734
15532 1 17.2841 17.6002 49.1458
15582 1 14.5565 16.0024 49.1551
15597 1 16.3695 15.9824 46.5947
21192 2 15.4629 17.5893 47.8642
15548 1 20.0127 16.0024 49.1551
15549 1 19.0972 17.5786 46.5855
21153 2 20.9191 17.5893 47.8642
21191 2 18.1915 15.9923 47.8734
15603 1 12.7463 0.0280829 51.7589
21218 2 13.6529 1.62476 50.4771
21265 2 10.9248 0.0261962 50.4775
15558 1 15.4744 1.62745 51.7585
21217 2 16.381 0.0261962 50.4775
15516 1 20.9307 1.62745 51.7585
15568 1 18.2026 0.0280829 51.7589
21171 2 19.1091 1.62476 50.4771
15604 1 12.7462 3.22683 51.7572
21203 2 13.6527 4.8219 50.4737
21250 2 10.9247 3.22333 50.4758
15557 1 15.4742 4.82621 51.755
21219 2 16.3809 3.22333 50.4758
15515 1 20.9305 4.82621 51.755
15556 1 18.2025 3.22683 51.7572
21170 2 19.1089 4.8219 50.4737
15588 1 12.746 6.42561 51.7519
21202 2 13.6523 8.01909 50.4666
21251 2 10.9244 6.42049 50.4706
15543 1 15.4739 8.02502 51.7479
21201 2 16.3806 6.42049 50.4706
15514 1 20.9301 8.02502 51.7479
15559 1 18.2022 6.42561 51.7519
21163 2 19.1085 8.01909 50.4666
15589 1 12.7455 9.62445 51.743
21189 2 13.6518 11.2163 50.456
21242 2 10.9239 9.61769 50.4617
15542 1 15.4733 11.2239 51.7372
21204 2 16.3802 9.61769 50.4617
15508 1 20.9296 11.2239 51.7372
15541 1 18.2018 9.62445 51.743
21162 2 19.108 11.2163 50.456
15580 1 12.7449 12.8234 51.7305
21188 2 13.6511 14.4136 50.4417
21243 2 10.9233 12.815 50.4493
15531 1 15.4726 14.4229 51.7229
21187 2 16.3795 12.815 50.4493
15507 1 20.9289 14.4229 51.7229
15544 1 18.2011 12.8234 51.7305
21152 2 19.1073 14.4136 50.4417
15581 1 12.7441 16.0224 51.7144
21180 2 13.6502 17.6111 50.4238
21241 2 10.9225 16.0123 50.4332
15530 1 15.4718 17.622 51.7049
21190 2 16.3788 16.0123 50.4332
15500 1 20.928 17.622 51.7049
15529 1 18.2004 16.0224 51.7144
21151 2 19.1064 17.6111 50.4238
15554 1 13.6626 1.63268 54.3173
15602 1 10.9345 0.0316876 54.3177
21195 2 12.7573 0.0333949 55.5951
21199 2 11.8407 1.62999 53.0364
15553 1 16.3907 0.0316876 54.3177
21156 2 15.4854 1.63521 55.5947
21168 2 17.2969 1.62999 53.0364
21216 2 14.5689 0.0298072 53.0368
15513 1 19.1188 1.63268 54.3173
21138 2 20.9417 1.63521 55.5947
21166 2 18.2136 0.0333949 55.5951
21167 2 20.0251 0.0298072 53.0368
15539 1 13.6624 4.83472 54.3138
15586 1 10.9344 3.23369 54.316
21196 2 12.7572 3.23704 55.5934
21198 2 11.8405 4.83039 53.0329
15555 1 16.3906 3.23369 54.316
21155 2 15.4852 4.83889 55.5912
21160 2 17.2968 4.83039 53.0329
21197 2 14.5688 3.23019 53.0351
15512 1 19.1186 4.83472 54.3138
21137 2 20.9415 4.83889 55.5912
21154 2 18.2135 3.23704 55.5934
21169 2 20.025 3.23019 53.0351
15538 1 13.6621 8.03681 54.3066
15587 1 10.9341 6.43576 54.3107
21181 2 12.757 6.44075 55.588
21185 2 11.8402 8.03085 53.0258
15537 1 16.3904 6.43576 54.3107
21145 2 15.4849 8.04263 55.584
21159 2 17.2964 8.03085 53.0258
21200 2 14.5685 6.43061 53.0298
15506 1 19.1183 8.03681 54.3066
21136 2 20.9411 8.04263 55.584
21157 2 18.2132 6.44075 55.588
21158 2 20.0247 6.43061 53.0298
15527 1 13.6615 11.239 54.2958
15578 1 10.9337 9.63789 54.3017
21182 2 12.7565 9.64454 55.579
21184 2 11.8397 11.2314 53.015
15540 1 16.3899 9.63789 54.3017
21144 2 15.4844 11.2465 55.573
21149 2 17.2959 11.2314 53.015
21183 2 14.5681 9.6311 53.0209
15505 1 19.1178 11.239 54.2958
21135 2 20.9406 11.2465 55.573
21143 2 18.2128 9.64454 55.579
21161 2 20.0243 9.6311 53.0209
15526 1 13.6609 14.4413 54.2812
15579 1 10.9331 12.8401 54.289
21175 2 12.756 12.8485 55.5662
21179 2 11.839 14.432 53.0006
15525 1 16.3893 12.8401 54.289
21141 2 15.4838 14.4505 55.5584
21148 2 17.2952 14.432 53.0006
21186 2 14.5675 12.8317 53.0082
15499 1 19.1171 14.4413 54.2812
21134 2 20.94 14.4505 55.5584
21146 2 18.2122 12.8485 55.5662
21147 2 20.0237 12.8317 53.0082
21178 2 11.8382 17.6328 52.9824
21176 2 12.7553 16.0525 55.5496
15577 1 10.9324 16.0425 54.2726
15520 1 13.6601 17.6438 54.263
21177 2 14.5667 16.0324 52.9919
21142 2 17.2944 17.6328 52.9824
21140 2 15.483 17.6547 55.5399
15528 1 16.3886 16.0425 54.2726
21150 2 20.0229 16.0324 52.9919
21139 2 18.2115 16.0525 55.5496
21133 2 20.9392 17.6547 55.5399
15498 1 19.1163 17.6438 54.263
21485 2 13.6745 1.64041 58.1521
21492 2 10.9464 0.036955 58.1525
15535 1 11.8513 1.6379 56.8752
21484 2 16.4026 0.036955 58.1525
15510 1 17.3076 1.6379 56.8752
15552 1 14.5795 0.0352681 56.8756
21450 2 19.1307 1.64041 58.1521
15509 1 20.0357 0.0352681 56.8756
21481 2 13.6743 4.84738 58.1485
21490 2 10.9463 3.24389 58.1507
15534 1 11.8512 4.84322 56.8716
21486 2 16.4025 3.24389 58.1507
15503 1 17.3074 4.84322 56.8716
15533 1 14.5794 3.24056 56.8739
21449 2 19.1306 4.84738 58.1485
15511 1 20.0356 3.24056 56.8739
21480 2 13.674 8.05443 58.1412
21491 2 10.9461 6.45089 58.1453
15523 1 11.8508 8.04862 56.8643
21479 2 16.4023 6.45089 58.1453
15502 1 17.3071 8.04862 56.8643
15536 1 14.5791 6.44591 56.8684
21444 2 19.1302 8.05443 58.1412
15501 1 20.0354 6.44591 56.8684
21470 2 13.6735 11.2616 58.1301
21488 2 10.9456 9.65799 58.1361
15522 1 11.8503 11.2541 56.8533
21482 2 16.4019 9.65799 58.1361
15496 1 17.3066 11.2541 56.8533
15521 1 14.5787 9.65136 56.8593
21443 2 19.1298 11.2616 58.1301
15504 1 20.035 9.65136 56.8593
21469 2 13.6729 14.4689 58.1152
21489 2 10.9451 12.8652 58.1231
15519 1 11.8497 14.4598 56.8386
21468 2 16.4013 12.8652 58.1231
15495 1 17.306 14.4598 56.8386
15524 1 14.5782 12.8569 56.8464
21430 2 19.1291 14.4689 58.1152
15494 1 20.0344 12.8569 56.8464
21459 2 13.6722 17.6765 58.0965
21487 2 10.9444 16.0727 58.1063
15518 1 11.849 17.6657 56.82
21471 2 16.4007 16.0727 58.1063
15493 1 17.3052 17.6657 56.82
15517 1 14.5775 16.0627 56.8298
21429 2 19.1284 17.6765 58.0965
15497 1 20.0337 16.0627 56.8298
15851 1 12.7689 0.0388248 59.4325
15834 1 13.6869 1.6483 61.9881
15850 1 10.9588 0.0423727 61.9886
21477 2 11.8642 1.64558 60.7084
15838 1 15.4969 1.64311 59.4321
15833 1 16.415 0.0423727 61.9886
21447 2 17.3204 1.64558 60.7084
21483 2 14.5923 0.0404827 60.7089
15792 1 20.9532 1.64311 59.4321
15840 1 18.2251 0.0388248 59.4325
15789 1 19.1431 1.6483 61.9881
21446 2 20.0485 0.0404827 60.7089
15852 1 12.7688 3.24741 59.4307
15826 1 13.6867 4.86022 61.9844
15846 1 10.9587 3.25425 61.9868
21476 2 11.864 4.85584 60.7048
15837 1 15.4968 4.85172 59.4285
15835 1 16.4149 3.25425 61.9868
21441 2 17.3202 4.85584 60.7048
21475 2 14.5922 3.2507 60.7071
15791 1 20.953 4.85172 59.4285
15836 1 18.225 3.24741 59.4307
15788 1 19.143 4.86022 61.9844
21448 2 20.0484 3.2507 60.7071
15848 1 12.7685 6.45607 59.4252
15825 1 13.6864 8.07224 61.977
15847 1 10.9585 6.46622 61.9812
21466 2 11.8637 8.06619 60.6973
15830 1 15.4964 8.06043 59.4211
15824 1 16.4147 6.46622 61.9812
21440 2 17.3199 8.06619 60.6973
21478 2 14.592 6.461 60.7015
15790 1 20.9527 8.06043 59.4211
15839 1 18.2248 6.45607 59.4252
15781 1 19.1426 8.07224 61.977
21439 2 20.0482 6.461 60.7015
15849 1 12.7681 9.66484 59.416
15812 1 13.6859 11.2844 61.9657
15842 1 10.9581 9.67831 61.9718
21465 2 11.8632 11.2767 60.6861
15829 1 15.496 11.2693 59.4099
15827 1 16.4143 9.67831 61.9718
21427 2 17.3194 11.2767 60.6861
21464 2 14.5916 9.67142 60.6922
15783 1 20.9522 11.2693 59.4099
15828 1 18.2244 9.66484 59.416
15780 1 19.1422 11.2844 61.9657
21442 2 20.0478 9.67142 60.6922
15844 1 12.7676 12.8738 59.4029
15811 1 13.6854 14.4968 61.9505
15843 1 10.9575 12.8906 61.9586
21458 2 11.8626 14.4874 60.671
15816 1 15.4954 14.4783 59.395
15810 1 16.4138 12.8906 61.9586
21426 2 17.3189 14.4874 60.671
21467 2 14.591 12.882 60.6791
15782 1 20.9516 14.4783 59.395
15831 1 18.2238 12.8738 59.4029
15766 1 19.1416 14.4968 61.9505
21425 2 20.0473 12.882 60.6791
15845 1 12.7669 16.0829 59.386
15801 1 13.6847 17.7094 61.9314
15841 1 10.9569 16.103 61.9414
21457 2 11.8619 17.6983 60.652
15815 1 15.4947 17.6876 59.3761
15813 1 16.4131 16.103 61.9414
21409 2 17.3182 17.6983 60.652
21456 2 14.5904 16.0928 60.662
15767 1 20.9509 17.6876 59.3761
15814 1 18.2232 16.0829 59.386
15765 1 19.1409 17.7094 61.9314
21428 2 20.0466 16.0928 60.662
15822 1 11.8774 1.65357 64.5436
21433 2 13.7014 1.65575 65.8177
21472 2 10.9733 0.0473783 65.8182
21473 2 12.7825 0.0439687 63.2642
15786 1 17.3336 1.65357 64.5436
15832 1 14.6055 0.0459923 64.5441
21432 2 16.4296 0.0473783 65.8182
21437 2 15.5106 1.65071 63.2637
15785 1 20.0617 0.0459923 64.5441
21381 2 19.1577 1.65575 65.8177
21384 2 20.9669 1.65071 63.2637
21445 2 18.2388 0.0439687 63.2642
15821 1 11.8772 4.86878 64.5399
21419 2 13.7013 4.87256 65.8139
21460 2 10.9733 3.26414 65.8163
21474 2 12.7825 3.25747 63.2623
15778 1 17.3334 4.86878 64.5399
15820 1 14.6054 3.26116 64.5422
21434 2 16.4295 3.26414 65.8163
21436 2 15.5105 4.86425 63.26
15787 1 20.0617 3.26116 64.5422
21380 2 19.1575 4.87256 65.8139
21383 2 20.9667 4.86425 63.26
21435 2 18.2387 3.25747 63.2623
15808 1 11.8769 8.0841 64.5323
21418 2 13.7009 8.08949 65.8063
21461 2 10.973 6.48101 65.8106
21462 2 12.7822 6.47106 63.2567
15777 1 17.3331 8.0841 64.5323
15823 1 14.6052 6.47642 64.5366
21417 2 16.4292 6.48101 65.8106
21423 2 15.5102 8.07791 63.2525
15776 1 20.0614 6.47642 64.5366
21373 2 19.1572 8.08949 65.8063
21382 2 20.9664 8.07791 63.2525
21438 2 18.2385 6.47106 63.2567
15807 1 11.8764 11.2996 64.5209
21404 2 13.7005 11.3066 65.7948
21452 2 10.9726 9.69802 65.8011
21463 2 12.7818 9.68479 63.2473
15763 1 17.3326 11.2996 64.5209
15806 1 14.6048 9.69182 64.5271
21420 2 16.4288 9.69802 65.8011
21422 2 15.5097 11.2917 63.2411
15779 1 20.061 9.69182 64.5271
21372 2 19.1567 11.3066 65.7948
21375 2 20.9659 11.2917 63.2411
21421 2 18.2381 9.68479 63.2473
15800 1 11.8758 14.5153 64.5055
21403 2 13.6999 14.5239 65.7794
21453 2 10.9721 12.9152 65.7876
21454 2 12.7813 12.8987 63.234
15762 1 17.3321 14.5153 64.5055
15809 1 14.6042 12.9074 64.5137
21402 2 16.4283 12.9152 65.7876
21408 2 15.5091 14.5057 63.2258
15761 1 20.0605 12.9074 64.5137
21358 2 19.1561 14.5239 65.7794
21374 2 20.9653 14.5057 63.2258
21424 2 18.2375 12.8987 63.234
15799 1 11.8751 17.7312 64.4861
21393 2 13.6992 17.7415 65.7599
21451 2 10.9714 16.1327 65.7701
21455 2 12.7807 16.1128 63.2167
15746 1 17.3314 17.7312 64.4861
15798 1 14.6036 16.1232 64.4963
21405 2 16.4276 16.1327 65.7701
21407 2 15.5084 17.72 63.2065
15764 1 20.0598 16.1232 64.4963
21357 2 19.1554 17.7415 65.7599
21359 2 20.9647 17.72 63.2065
21406 2 18.2369 16.1128 63.2167
15818 1 12.7964 0.0500745 67.0999
21415 2 11.8927 1.66055 68.3696
15774 1 15.5245 1.65929 67.0995
21378 2 17.3489 1.66055 68.3696
21431 2 14.6208 0.0505576 68.3701
15726 1 20.9807 1.65929 67.0995
15784 1 18.2526 0.0500745 67.0999
21377 2 20.077 0.0505576 68.3701
15819 1 12.7963 3.26852 67.098
21414 2 11.8925 4.88059 68.3658
15773 1 15.5243 4.87778 67.0956
21370 2 17.3487 4.88059 68.3658
21413 2 14.6207 3.27055 68.3682
15725 1 20.9805 4.87778 67.0956
15772 1 18.2525 3.26852 67.098
21379 2 20.077 3.27055 68.3682
15804 1 12.796 6.48707 67.0923
21400 2 11.8922 8.10076 68.3581
15759 1 15.5239 8.09639 67.088
21369 2 17.3484 8.10076 68.3581
21416 2 14.6205 6.49065 68.3624
15724 1 20.9802 8.09639 67.088
15775 1 18.2523 6.48707 67.0923
21368 2 20.0767 6.49065 68.3624
15805 1 12.7956 9.70576 67.0827
21399 2 11.8917 11.3211 68.3465
15758 1 15.5235 11.3152 67.0764
21355 2 17.3479 11.3211 68.3465
21398 2 14.62 9.71091 68.3528
15717 1 20.9797 11.3152 67.0764
15757 1 18.2518 9.70576 67.0827
21371 2 20.0763 9.71091 68.3528
15796 1 12.795 12.9246 67.0692
21392 2 11.891 14.5417 68.3309
15745 1 15.5228 14.5342 67.0609
21354 2 17.3472 14.5417 68.3309
21401 2 14.6195 12.9314 68.3392
15716 1 20.9791 14.5342 67.0609
15760 1 18.2513 12.9246 67.0692
21353 2 20.0757 12.9314 68.3392
15797 1 12.7944 16.1438 67.0516
21391 2 11.8902 17.7626 68.3112
15744 1 15.5221 17.7534 67.0413
21340 2 17.3465 17.7626 68.3112
21390 2 14.6188 16.1521 68.3216
15705 1 20.9783 17.7534 67.0413
15743 1 18.2506 16.1438 67.0516
21356 2 20.075 16.1521 68.3216
15751 1 11.9009 1.66926 72.2352
15770 1 13.7149 1.66423 69.6591
15817 1 10.9868 0.0533766 69.6596
21411 2 12.8121 0.052885 70.917
15720 1 17.3571 1.66926 72.2352
15768 1 14.629 0.0567216 72.2357
15769 1 16.4431 0.0533766 69.6596
21366 2 15.5402 1.66446 70.9165
15719 1 20.0852 0.0567216 72.2357
15723 1 19.1712 1.66423 69.6591
21324 2 20.9965 1.66446 70.9165
21376 2 18.2684 0.052885 70.917
15750 1 11.9006 4.89439 72.2313
15755 1 13.7148 4.886 69.6552
15802 1 10.9867 3.2751 69.6576
21412 2 12.812 3.27605 70.9151
15712 1 17.3569 4.89439 72.2313
15749 1 14.6289 3.28181 72.2338
15771 1 16.443 3.2751 69.6576
21365 2 15.54 4.88768 70.9126
15721 1 20.0851 3.28181 72.2338
15722 1 19.171 4.886 69.6552
21323 2 20.9963 4.88768 70.9126
21364 2 18.2683 3.27605 70.9151
15737 1 11.9002 8.11966 72.2236
15754 1 13.7144 8.1079 69.6475
15803 1 10.9865 6.49693 69.6519
21396 2 12.8118 6.49934 70.9093
15711 1 17.3565 8.11966 72.2236
15752 1 14.6286 6.50701 72.2279
15753 1 16.4427 6.49693 69.6519
21351 2 15.5397 8.11104 70.9049
15710 1 20.0848 6.50701 72.2279
15715 1 19.1706 8.1079 69.6475
21322 2 20.9959 8.11104 70.9049
21367 2 18.268 6.49934 70.9093
15736 1 11.8996 11.3451 72.2119
15741 1 13.7139 11.33 69.6359
15794 1 10.986 9.71891 69.6422
21397 2 12.8113 9.7228 70.8996
15701 1 17.3559 11.3451 72.2119
15735 1 14.6281 9.73235 72.2182
15756 1 16.4423 9.71891 69.6422
21350 2 15.5391 11.3346 70.8932
15713 1 20.0843 9.73235 72.2182
15714 1 19.1701 11.33 69.6359
21316 2 20.9954 11.3346 70.8932
21349 2 18.2675 9.7228 70.8996
15731 1 11.8989 14.5707 72.1961
15740 1 13.7132 14.5523 69.6202
15795 1 10.9854 12.9411 69.6286
21388 2 12.8107 12.9465 70.8859
15700 1 17.3551 14.5707 72.1961
15738 1 14.6274 12.9579 72.2045
15739 1 16.4417 12.9411 69.6286
21339 2 15.5384 14.5585 70.8775
15699 1 20.0836 12.9579 72.2045
15704 1 19.1694 14.5523 69.6202
21315 2 20.9947 14.5585 70.8775
21352 2 18.2669 12.9465 70.8859
15730 1 11.8979 17.7966 72.1763
15732 1 13.7124 17.7748 69.6005
15793 1 10.9847 16.1635 69.6109
21389 2 12.8099 16.1705 70.8682
15694 1 17.3542 17.7966 72.1763
15729 1 14.6265 16.1836 72.1867
15742 1 16.4409 16.1635 69.6109
21338 2 15.5376 17.7826 70.8577
15702 1 20.0828 16.1836 72.1867
15703 1 19.1686 17.7748 69.6005
21308 2 20.9938 17.7826 70.8577
21337 2 18.2662 16.1705 70.8682
15747 1 12.7564 0.0654968 74.8871
21343 2 11.8926 1.67556 75.9233
21362 2 13.7299 1.66777 73.4487
21410 2 11.0018 0.0546334 73.4492
15708 1 15.4845 1.68021 74.8866
21318 2 17.3489 1.67556 75.9233
21360 2 14.6208 0.0605853 75.9238
21361 2 16.4581 0.0546334 73.4492
15690 1 20.9408 1.68021 74.8866
15718 1 18.2127 0.0654968 74.8871
21317 2 20.077 0.0605853 75.9238
21321 2 19.1862 1.66777 73.4487
15748 1 12.7563 3.29493 74.8851
21342 2 11.8924 4.90558 75.9194
21347 2 13.7297 4.89411 73.4448
21394 2 11.0017 3.28092 73.4473
15707 1 15.4843 4.90966 74.8827
21311 2 17.3486 4.90558 75.9194
21341 2 14.6206 3.29056 75.9219
21363 2 16.458 3.28092 73.4473
15689 1 20.9405 4.90966 74.8827
15706 1 18.2125 3.29493 74.8851
21319 2 20.0769 3.29056 75.9219
21320 2 19.186 4.89411 73.4448
15733 1 12.7559 6.52441 74.8793
21331 2 11.8919 8.13571 75.9116
21346 2 13.7293 8.12061 73.437
21395 2 11.0014 6.50733 73.4414
15697 1 15.4837 8.13917 74.8749
21310 2 17.3481 8.13571 75.9116
21344 2 14.6203 6.52063 75.916
21345 2 16.4577 6.50733 73.4414
15688 1 20.94 8.13917 74.8749
15709 1 18.2121 6.52441 74.8793
21309 2 20.0765 6.52063 75.916
21314 2 19.1856 8.12061 73.437
15734 1 12.7553 9.75393 74.8695
21330 2 11.8912 11.366 75.8998
21335 2 13.7287 11.3473 73.4253
21386 2 11.0009 9.73394 73.4317
15696 1 15.483 11.3687 74.8631
21304 2 17.3474 11.366 75.8998
21329 2 14.6197 9.75083 75.9062
21348 2 16.4572 9.73394 73.4317
15687 1 20.9392 11.3687 74.8631
15695 1 18.2115 9.75393 74.8695
21312 2 20.0759 9.75083 75.9062
21313 2 19.185 11.3473 73.4253
15727 1 12.7544 12.9835 74.8558
21327 2 11.8902 14.5965 75.8839
21334 2 13.728 14.5744 73.4095
21387 2 11.0002 12.9608 73.4179
15693 1 15.4819 14.5982 74.8474
21303 2 17.3465 14.5965 75.8839
21332 2 14.6189 12.9812 75.8924
21333 2 16.4565 12.9608 73.4179
15686 1 20.9382 14.5982 74.8474
15698 1 18.2106 12.9835 74.8558
21302 2 20.0751 12.9812 75.8924
21307 2 19.1842 14.5744 73.4095
15728 1 12.7532 16.213 74.8379
21326 2 11.8891 17.8271 75.864
21328 2 13.727 17.8018 73.3896
21385 2 10.9994 16.188 73.4001
15692 1 15.4807 17.8277 74.8274
21301 2 17.3453 17.8271 75.864
21325 2 14.6178 16.2118 75.8745
21336 2 16.4556 16.188 73.4001
15685 1 20.937 17.8277 74.8274
15691 1 18.2095 16.213 74.8379
21305 2 20.0741 16.2118 75.8745
21306 2 19.1832 17.8018 73.3896
9993 2 11.8146 20.3355 -0.948255
10001 2 13.6261 20.3138 -3.45534
3648 1 12.7045 21.8916 -2.40582
9991 2 14.5435 21.9034 -0.962428
3634 1 15.4312 20.3242 -2.39168
9963 2 17.2708 20.3355 -0.948255
10002 2 16.3552 21.8803 -3.46936
3632 1 18.1607 21.8916 -2.40582
3588 1 20.8874 20.3242 -2.39168
9966 2 19.0823 20.3138 -3.45534
9964 2 19.9997 21.9034 -0.962428
6742 2 21.8114 21.8803 -3.46936
9992 2 11.8163 23.4715 -0.977614
9997 2 13.6282 23.447 -3.48438
3644 1 12.7077 25.0273 -2.43711
9994 2 14.5453 25.0398 -0.993795
3633 1 15.4341 23.4593 -2.42097
9957 2 17.2725 23.4715 -0.977614
9995 2 16.3575 25.014 -3.50037
3635 1 18.164 25.0273 -2.43711
3587 1 20.8904 23.4593 -2.42097
9965 2 19.0844 23.447 -3.48438
9955 2 20.0015 25.0398 -0.993795
6743 2 21.8137 25.014 -3.50037
9982 2 11.8181 26.6083 -1.01095
9996 2 13.6306 26.5813 -3.51731
3645 1 12.7116 28.1642 -2.47228
9980 2 14.5472 28.1771 -1.02905
3626 1 15.4377 26.5955 -2.45423
9956 2 17.2744 26.6083 -1.01095
9998 2 16.36 28.149 -3.53517
3624 1 18.1678 28.1642 -2.47228
3586 1 20.8939 26.5955 -2.45423
9960 2 19.0868 26.5813 -3.51731
9958 2 20.0035 28.1771 -1.02905
6740 2 21.8163 28.149 -3.53517
9981 2 11.8201 29.7463 -1.04807
9986 2 13.6333 29.7171 -3.55392
3640 1 12.716 31.3028 -2.5111
9983 2 14.5493 31.3158 -1.06797
3625 1 15.4418 29.7333 -2.49126
9943 2 17.2764 29.7463 -1.04807
9984 2 16.3629 31.2857 -3.57352
3627 1 18.1723 31.3028 -2.5111
3579 1 20.8981 29.7333 -2.49126
9959 2 19.0895 29.7171 -3.55392
9941 2 20.0055 31.3158 -1.06797
6741 2 21.8191 31.2857 -3.57352
9974 2 11.8222 32.8857 -1.08869
9985 2 13.6363 32.8548 -3.59392
3641 1 12.7211 34.4435 -2.55323
3612 1 15.4466 32.8729 -2.53178
9942 2 17.2785 32.8857 -1.08869
9972 2 14.5514 34.4561 -1.1102
9987 2 16.366 34.4245 -3.61506
3610 1 18.1774 34.4435 -2.55323
3578 1 20.9029 32.8729 -2.53178
9946 2 19.0925 32.8548 -3.59392
9944 2 20.0077 34.4561 -1.1102
6739 2 21.8222 34.4245 -3.61506
9973 2 11.8244 36.027 -1.13241
9975 2 13.6395 35.9949 -3.63688
4031 1 12.7268 37.5866 -2.5982
10416 2 10.9131 37.566 -3.65931
3611 1 15.452 36.0147 -2.57539
9925 2 17.2806 36.027 -1.13241
10407 2 14.5536 37.5985 -1.15527
10408 2 16.3694 37.566 -3.65931
4020 1 18.1831 37.5866 -2.5982
3563 1 20.9083 36.0147 -2.57539
9945 2 19.0958 35.9949 -3.63688
10370 2 20.0098 37.5985 -1.15527
3630 1 13.6298 20.3463 0.274643
9990 2 12.7229 21.9275 1.5923
9953 2 15.4502 20.3582 1.60655
3631 1 16.3589 21.915 0.260421
9951 2 18.1792 21.9275 1.5923
3585 1 19.0861 20.3463 0.274643
9900 2 20.9064 20.3582 1.60655
570 1 21.8151 21.915 0.260421
3622 1 13.6317 23.4839 0.24518
9978 2 12.7249 25.0667 1.56072
9952 2 15.452 23.497 1.57701
3620 1 16.3609 25.053 0.228935
9954 2 18.1811 25.0667 1.56072
3584 1 19.088 23.4839 0.24518
9899 2 20.9082 23.497 1.57701
571 1 21.8172 25.053 0.228935
3621 1 13.6339 26.6223 0.211708
9979 2 12.7271 28.2065 1.5252
9939 2 15.4541 26.6365 1.54344
3623 1 16.3632 28.1919 0.193524
9937 2 18.1833 28.2065 1.5252
3577 1 19.0902 26.6223 0.211708
9898 2 20.9103 26.6365 1.54344
566 1 21.8194 28.1919 0.193524
3608 1 13.6363 29.7618 0.174413
9970 2 12.7294 31.3474 1.48595
9938 2 15.4563 29.7768 1.50602
3606 1 16.3657 31.3321 0.154414
9940 2 18.1856 31.3474 1.48595
3576 1 19.0926 29.7618 0.174413
9891 2 20.9126 29.7768 1.50602
567 1 21.8219 31.3321 0.154414
3607 1 13.6389 32.9027 0.133574
9971 2 12.7319 34.4895 1.44331
9924 2 15.4587 32.9183 1.46503
3609 1 16.3684 34.4737 0.111946
3562 1 19.0951 32.9027 0.133574
9890 2 20.915 32.9183 1.46503
9922 2 18.1881 34.4895 1.44331
565 1 21.8246 34.4737 0.111946
3597 1 13.6416 36.0453 0.0895941
4030 1 10.9149 37.6173 0.0665913
10397 2 12.7344 37.6333 1.39774
9923 2 15.4613 36.0612 1.42086
4013 1 16.3712 37.6173 0.0665913
3561 1 19.0979 36.0453 0.0895941
9875 2 20.9175 36.0612 1.42086
10369 2 18.1907 37.6333 1.39774
3618 1 11.8112 20.3693 2.8731
3616 1 14.5402 21.9394 2.8588
9949 2 13.6296 20.381 4.17415
3615 1 12.7202 21.9641 5.44111
3582 1 17.2674 20.3693 2.8731
3570 1 15.4473 20.3926 5.45543
9950 2 16.3586 21.9518 4.15986
3568 1 18.1764 21.9641 5.44111
3583 1 19.9965 21.9394 2.8588
3516 1 20.9035 20.3926 5.45543
9897 2 19.0858 20.381 4.17415
6712 2 21.8149 21.9518 4.15986
3617 1 11.8131 23.5096 2.84346
3619 1 14.5423 25.0799 2.82711
9935 2 13.6315 23.5226 4.14454
3600 1 12.7223 25.1071 5.40934
3574 1 17.2694 23.5096 2.84346
3569 1 15.4493 23.5356 5.42574
9933 2 16.3607 25.0935 4.12819
3571 1 18.1786 25.1071 5.40934
3572 1 19.9986 25.0799 2.82711
3515 1 20.9056 23.5356 5.42574
9896 2 19.0878 23.5226 4.14454
6713 2 21.817 25.0935 4.12819
3604 1 11.8153 26.6505 2.80976
3602 1 14.5447 28.2212 2.79143
9934 2 13.6338 26.6646 4.11085
3601 1 12.7248 28.2505 5.37352
3573 1 17.2716 26.6505 2.80976
3555 1 15.4517 26.6788 5.39193
9936 2 16.3631 28.2357 4.09253
3553 1 18.181 28.2505 5.37352
3575 1 20.0009 28.2212 2.79143
3514 1 20.9079 26.6788 5.39193
9889 2 19.09 26.6646 4.11085
6704 2 21.8193 28.2357 4.09253
3603 1 11.8178 29.7921 2.77215
3605 1 14.5472 31.3632 2.75196
9920 2 13.6362 29.8071 4.07326
3592 1 12.7275 31.3943 5.33385
3559 1 17.274 29.7921 2.77215
3554 1 15.4543 29.8224 5.35415
9918 2 16.3657 31.3786 4.05308
3556 1 18.1838 31.3943 5.33385
3557 1 20.0034 31.3632 2.75196
3507 1 20.9105 29.8224 5.35415
9888 2 19.0925 29.8071 4.07326
6705 2 21.8219 31.3786 4.05308
3596 1 11.8204 32.9346 2.73091
3594 1 14.5499 34.5064 2.70905
9919 2 13.6389 32.9503 4.03203
3593 1 12.7305 34.5388 5.29063
3558 1 17.2767 32.9346 2.73091
3540 1 15.4571 32.9665 5.31266
9921 2 16.3685 34.5223 4.01017
3538 1 18.1867 34.5388 5.29063
3560 1 20.0062 34.5064 2.70905
3506 1 20.9133 32.9665 5.31266
9874 2 19.0952 32.9503 4.03203
6703 2 21.8247 34.5223 4.01017
3595 1 11.8232 36.0784 2.68643
9909 2 13.6418 36.0945 3.98755
3998 1 12.7336 37.684 5.2443
10396 2 10.9151 37.667 3.96424
3541 1 17.2794 36.0784 2.68643
3539 1 15.4602 36.1113 5.26782
4012 1 14.5528 37.6508 2.66314
10356 2 16.3714 37.667 3.96424
3492 1 20.9164 36.1113 5.26782
9873 2 19.098 36.0945 3.98755
3965 1 20.009 37.6508 2.66314
3964 1 18.1899 37.684 5.2443
3566 1 13.627 20.4156 8.03228
9931 2 11.8092 20.4041 6.74612
9929 2 14.5383 21.9761 6.73185
9894 2 17.2654 20.4041 6.74612
3567 1 16.3561 21.9883 8.018
526 1 21.8124 21.9883 8.018
3513 1 19.0833 20.4156 8.03228
9895 2 19.9945 21.9761 6.73185
3551 1 13.6291 23.561 8.00267
9930 2 11.8112 23.5482 6.71653
9932 2 14.5405 25.1204 6.70019
9886 2 17.2675 23.5482 6.71653
3549 1 16.3584 25.1338 7.98631
527 1 21.8146 25.1338 7.98631
3512 1 19.0853 23.561 8.00267
9884 2 19.9967 25.1204 6.70019
3550 1 13.6315 26.7065 7.96892
9916 2 11.8136 26.6925 6.68284
9913 2 12.7228 28.2933 9.23811
9914 2 14.543 28.2647 6.6645
9885 2 17.2698 26.6925 6.68284
3552 1 16.361 28.2792 7.95053
9865 2 18.179 28.2933 9.23811
518 1 21.8172 28.2792 7.95053
3505 1 19.0878 26.7065 7.96892
9887 2 19.9992 28.2647 6.6645
3536 1 13.6342 29.8519 7.93117
9915 2 11.8162 29.837 6.6452
9904 2 12.7257 31.4396 9.19868
9917 2 14.5458 31.4094 6.62497
9866 2 15.4523 29.8665 9.21887
9871 2 17.2725 29.837 6.6452
3534 1 16.3638 31.4247 7.91085
9868 2 18.1819 31.4396 9.19868
519 1 21.8201 31.4247 7.91085
3504 1 19.0905 29.8519 7.93117
9832 2 20.9086 29.8665 9.21887
9869 2 20.002 31.4094 6.62497
3535 1 13.6373 32.9975 7.88963
9908 2 11.8191 32.9818 6.60385
9905 2 12.7289 34.5858 9.15561
9906 2 14.5488 34.5544 6.58189
9855 2 15.4554 33.0127 9.17758
9870 2 17.2754 32.9818 6.60385
3537 1 16.367 34.5703 7.86754
9853 2 18.1851 34.5858 9.15561
517 1 21.8232 34.5703 7.86754
3491 1 19.0935 32.9975 7.88963
9831 2 20.9116 33.0127 9.17758
9872 2 20.005 34.5544 6.58189
3525 1 13.6405 36.1432 7.84463
9907 2 11.8222 36.1271 6.55914
3997 1 10.9141 37.7162 7.82098
10335 2 12.7323 37.7321 9.10927
9854 2 15.4587 36.159 9.13282
9856 2 17.2785 36.1271 6.55914
3949 1 16.3704 37.7162 7.82098
10355 2 14.552 37.6999 6.53567
3490 1 19.0968 36.1432 7.84463
9824 2 20.9149 36.159 9.13282
10300 2 18.1886 37.7321 9.10927
10301 2 20.0082 37.6999 6.53567
9928 2 12.718 22.0002 9.30517
3547 1 11.8068 20.4382 10.607
9878 2 13.625 20.4494 11.8928
3545 1 14.5359 22.0123 10.5929
9882 2 15.4452 20.4268 9.31937
9880 2 18.1743 22.0002 9.30517
3510 1 17.263 20.4382 10.607
9879 2 16.3541 22.0241 11.8787
9840 2 20.9014 20.4268 9.31937
9837 2 19.0812 20.4494 11.8928
3511 1 19.9922 22.0123 10.5929
6646 2 21.8103 22.0241 11.8787
9912 2 12.7203 25.1468 9.27367
3546 1 11.8089 23.5862 10.5776
9863 2 13.627 23.5986 11.8636
3548 1 14.5382 25.1601 10.5614
9881 2 15.4472 23.5735 9.28993
9883 2 18.1765 25.1468 9.27367
3502 1 17.2651 23.5862 10.5776
9861 2 16.3562 25.1731 11.8475
9839 2 20.9035 23.5735 9.28993
9836 2 19.0832 23.5986 11.8636
3500 1 19.9944 25.1601 10.5614
6647 2 21.8125 25.1731 11.8475
3532 1 11.8113 26.7339 10.5441
9862 2 13.6293 26.7474 11.8304
3530 1 14.5407 28.3076 10.5259
9867 2 15.4496 26.7201 9.25639
3501 1 17.2675 26.7339 10.5441
9864 2 16.3588 28.3216 11.8123
9838 2 20.9058 26.7201 9.25639
9830 2 19.0856 26.7474 11.8304
3503 1 19.997 28.3076 10.5259
6638 2 21.815 28.3216 11.8123
3531 1 11.814 29.8812 10.5066
9851 2 13.6321 29.8957 11.7932
3533 1 14.5437 31.4547 10.4864
3488 1 17.2703 29.8812 10.5066
9849 2 16.3617 31.4697 11.7731
9829 2 19.0883 29.8957 11.7932
3486 1 19.9999 31.4547 10.4864
6639 2 21.8179 31.4697 11.7731
3524 1 11.8172 33.0281 10.4652
9850 2 13.6351 33.0435 11.7522
3522 1 14.547 34.6015 10.4432
3487 1 17.2734 33.0281 10.4652
9852 2 16.3649 34.6172 11.7303
9823 2 19.0914 33.0435 11.7522
3489 1 20.0032 34.6015 10.4432
6637 2 21.8212 34.6172 11.7303
3523 1 11.8206 36.1748 10.4203
9844 2 13.6386 36.1907 11.7076
3477 1 17.2768 36.1748 10.4203
3948 1 14.5505 37.7481 10.3966
10285 2 16.3685 37.7642 11.684
9822 2 19.0948 36.1907 11.7076
7070 2 21.8248 37.7642 11.684
3893 1 20.0068 37.7481 10.3966
3494 1 13.6229 20.4834 15.754
9859 2 11.805 20.472 14.466
3544 1 12.7157 22.0361 13.1668
9857 2 14.534 22.0479 14.4521
3493 1 16.3503 18.9067 15.7667
3498 1 15.4429 20.4608 13.1808
9834 2 17.2612 20.472 14.466
3496 1 18.172 22.0361 13.1668
470 1 21.8065 18.9067 15.7667
3465 1 19.0792 20.4834 15.754
3468 1 20.8992 20.4608 13.1808
9835 2 19.9902 22.0479 14.4521
3480 1 13.6247 23.6365 15.7254
9858 2 11.8068 23.6238 14.4373
3528 1 12.7179 25.1863 13.1357
9860 2 14.536 25.1994 14.4214
3495 1 16.3519 22.06 15.7402
3497 1 15.4449 23.6113 13.1518
9827 2 17.263 23.6238 14.4373
3499 1 18.1741 25.1863 13.1357
454 1 21.8081 22.06 15.7402
3464 1 19.0809 23.6365 15.7254
3467 1 20.9011 23.6113 13.1518
9825 2 19.9922 25.1994 14.4214
3479 1 13.6268 26.7887 15.6929
9847 2 11.809 26.7749 14.4045
3529 1 12.7204 28.3359 13.1006
9845 2 14.5384 28.3501 14.3866
3478 1 16.3538 25.2127 15.7097
3484 1 15.4472 26.7612 13.1187
9826 2 17.2653 26.7749 14.4045
3482 1 18.1766 28.3359 13.1006
455 1 21.8101 25.2127 15.7097
3461 1 19.0831 26.7887 15.6929
3466 1 20.9034 26.7612 13.1187
9828 2 19.9946 28.3501 14.3866
9846 2 11.8116 29.9252 14.3677
3472 1 13.6294 29.94 15.6563
3520 1 12.7233 31.4848 13.0615
9848 2 14.5412 31.5 14.3479
9820 2 17.2679 29.9252 14.3677
3483 1 15.4499 29.9104 13.0815
3481 1 16.3562 28.3645 15.6751
3485 1 18.1795 31.4848 13.0615
446 1 21.8124 28.3645 15.6751
3463 1 20.9062 29.9104 13.0815
3460 1 19.0856 29.94 15.6563
9818 2 19.9974 31.5 14.3479
9843 2 11.8146 33.0745 14.3272
3471 1 13.6324 33.0902 15.616
3521 1 12.7266 34.6329 13.0187
9841 2 14.5444 34.6488 14.3055
9819 2 17.2709 33.0745 14.3272
3476 1 15.453 33.0589 13.0406
3470 1 16.3589 31.5153 15.6366
3474 1 18.1828 34.6329 13.0187
9821 2 20.0007 34.6488 14.3055
447 1 21.8152 31.5153 15.6366
3462 1 20.9093 33.0589 13.0406
3458 1 19.0886 33.0902 15.616
9842 2 11.8181 36.2229 14.283
3469 1 13.6358 36.2391 15.5719
10284 2 14.5481 37.7967 14.2596
3927 1 12.7303 37.7801 12.9723
9817 2 17.2743 36.2229 14.283
3475 1 15.4565 36.2066 12.9959
3473 1 16.3621 34.6648 15.5944
3892 1 18.1865 37.7801 12.9723
3457 1 19.092 36.2391 15.5719
445 1 21.8184 34.6648 15.5944
3459 1 20.9128 36.2066 12.9959
10241 2 20.0043 37.7967 14.2596
10199 2 12.7124 18.9172 17.0514
3838 1 11.8031 20.5061 18.3266
3840 1 14.5305 18.928 18.3391
10186 2 15.4413 20.4946 17.0388
3815 1 17.2593 20.5061 18.3266
10188 2 18.1687 18.9172 17.0514
3814 1 19.9868 18.928 18.3391
10140 2 20.8975 20.4946 17.0388
10200 2 12.7139 22.0719 17.0252
3837 1 11.8046 23.6619 18.2986
3836 1 14.5319 22.0841 18.3131
10185 2 15.4429 23.649 17.0106
3811 1 17.2608 23.6619 18.2986
10184 2 18.1702 22.0719 17.0252
3816 1 19.9881 22.0841 18.3131
10139 2 20.8992 23.649 17.0106
10196 2 12.7158 25.2259 16.995
3831 1 11.8065 26.8166 18.2667
3839 1 14.5336 25.2394 18.2832
10178 2 15.4449 26.8026 16.9784
3810 1 17.2627 26.8166 18.2667
10187 2 18.172 25.2259 16.995
3809 1 19.9898 25.2394 18.2832
10138 2 20.9012 26.8026 16.9784
10197 2 12.7179 28.3789 16.9608
3830 1 11.8087 29.9702 18.231
3829 1 14.5357 28.3936 18.2493
10177 2 15.4473 29.955 16.9423
3799 1 17.265 29.9702 18.231
10176 2 18.1742 28.3789 16.9608
3812 1 19.9919 28.3936 18.2493
10131 2 20.9035 29.955 16.9423
10192 2 12.7205 31.5308 16.9229
3824 1 11.8114 33.1224 18.1914
3832 1 14.5381 31.5465 18.2117
3798 1 17.2677 33.1224 18.1914
10164 2 15.4501 33.1062 16.9024
10179 2 18.1768 31.5308 16.9229
3797 1 19.9944 31.5465 18.2117
10130 2 20.9064 33.1062 16.9024
10193 2 12.7236 34.6813 16.8811
3823 1 11.8147 36.2728 18.1481
3822 1 14.5411 34.6978 18.1702
3781 1 17.2709 36.2728 18.1481
10163 2 15.4534 36.256 16.8589
10162 2 18.1798 34.6813 16.8811
3800 1 19.9974 34.6978 18.1702
10115 2 20.9097 36.256 16.8589
10182 2 13.6215 20.5174 19.6111
3834 1 12.711 18.9495 20.9108
10170 2 11.802 20.5405 22.1827
10180 2 14.5297 18.9601 22.1948
10181 2 16.3491 18.9386 19.6234
3807 1 15.4396 20.5291 20.8986
10134 2 17.2583 20.5405 22.1827
3813 1 18.1673 18.9495 20.9108
10137 2 19.0778 20.5174 19.6111
3756 1 20.8959 20.5291 20.8986
10133 2 19.986 18.9601 22.1948
6934 2 21.8053 18.9386 19.6234
10174 2 13.6229 23.6746 19.5835
3835 1 12.7121 22.1084 20.8854
10169 2 11.8031 23.7005 22.1558
10168 2 14.5307 22.1206 22.1697
10183 2 16.3503 22.0961 19.5978
3806 1 15.4409 23.6876 20.8713
10126 2 17.2593 23.7005 22.1558
3805 1 18.1683 22.1084 20.8854
10136 2 19.0791 23.6746 19.5835
3755 1 20.8971 23.6876 20.8713
10135 2 19.9869 22.1206 22.1697
6930 2 21.8065 22.0961 19.5978
10173 2 13.6246 26.8307 19.552
3827 1 12.7135 25.2665 20.8562
10156 2 11.8044 26.8594 22.1251
10171 2 14.5318 25.2801 22.1409
10172 2 16.3518 25.2528 19.5682
3795 1 15.4424 26.8451 20.8402
10125 2 17.2606 26.8594 22.1251
3808 1 18.1697 25.2665 20.8562
10129 2 19.0808 26.8307 19.552
3754 1 20.8986 26.8451 20.8402
10124 2 19.9881 25.2801 22.1409
6931 2 21.8081 25.2528 19.5682
10160 2 13.6267 29.9856 19.5167
3828 1 12.7151 28.4233 20.8232
10155 2 11.806 30.0169 22.0908
10154 2 14.5333 28.4383 22.1084
10175 2 16.3537 28.4083 19.5349
3794 1 15.4443 30.0012 20.8053
10111 2 17.2623 30.0169 22.0908
3793 1 18.1714 28.4233 20.8232
10128 2 19.0829 29.9856 19.5167
3747 1 20.9005 30.0012 20.8053
10127 2 19.9895 28.4383 22.1084
6926 2 21.8099 28.4083 19.5349
10159 2 13.6292 33.1389 19.4777
3820 1 12.7173 31.5786 20.7865
10148 2 11.8081 33.1727 22.0528
10157 2 14.5351 31.5951 22.0722
10158 2 16.356 31.5624 19.4977
3780 1 15.4466 33.1556 20.7667
10110 2 17.2644 33.1727 22.0528
3796 1 18.1735 31.5786 20.7865
10114 2 19.0854 33.1389 19.4777
3746 1 20.9028 33.1556 20.7667
10109 2 19.9914 31.5951 22.0722
6927 2 21.8122 31.5624 19.4977
10149 2 13.6322 36.2904 19.435
3821 1 12.7199 34.7321 20.7461
10147 2 11.8107 36.3265 22.0111
10146 2 14.5375 34.7499 22.0324
10161 2 16.3587 34.7149 19.4568
3779 1 15.4495 36.308 20.7245
10093 2 17.267 36.3265 22.0111
3778 1 18.1761 34.7321 20.7461
10113 2 19.0885 36.2904 19.435
3731 1 20.9057 36.308 20.7245
10112 2 19.9937 34.7499 22.0324
6925 2 21.815 34.7149 19.4568
3803 1 13.6203 20.5522 23.4699
10166 2 12.7107 18.9819 24.7654
3802 1 16.348 18.9711 23.4818
10122 2 15.4391 20.5637 24.7537
10132 2 18.167 18.9819 24.7654
3753 1 19.0765 20.5522 23.4699
10068 2 20.8953 20.5637 24.7537
761 1 21.8043 18.9711 23.4818
3791 1 13.6211 23.7137 23.4433
10167 2 12.7113 22.1454 24.741
3804 1 16.3488 22.1331 23.4571
10121 2 15.4398 23.7267 24.7274
10120 2 18.1675 22.1454 24.741
3752 1 19.0774 23.7137 23.4433
10067 2 20.896 23.7267 24.7274
753 1 21.805 22.1331 23.4571
3790 1 13.6222 26.874 23.413
10152 2 12.7121 25.3079 24.7129
3789 1 16.3498 25.294 23.4286
10107 2 15.4407 26.8887 24.6975
10123 2 18.1683 25.3079 24.7129
3745 1 19.0785 26.874 23.413
10066 2 20.8969 26.8887 24.6975
754 1 21.806 25.294 23.4286
3776 1 13.6236 30.033 23.3791
10153 2 12.7131 28.4691 24.6813
3792 1 16.351 28.4537 23.3965
10106 2 15.4418 30.0492 24.6641
10105 2 18.1693 28.4691 24.6813
3744 1 19.0799 30.033 23.3791
10059 2 20.898 30.0492 24.6641
746 1 21.8072 28.4537 23.3965
3764 1 11.8045 33.226 25.9159
3775 1 13.6255 33.1901 23.3417
10144 2 12.7144 31.6288 24.6461
3726 1 17.2607 33.226 25.9159
3774 1 16.3526 31.6118 23.3608
10092 2 15.4433 33.2079 24.6273
10108 2 18.1706 31.6288 24.6461
3730 1 19.0817 33.1901 23.3417
10058 2 20.8996 33.2079 24.6273
747 1 21.8089 31.6118 23.3608
3763 1 11.8062 36.384 25.8762
3765 1 13.6278 36.3451 23.3006
10145 2 12.7162 34.7865 24.6075
3762 1 14.5334 34.8053 25.8965
3710 1 17.2624 36.384 25.8762
3777 1 16.3547 34.7679 23.3216
10091 2 15.4454 36.3644 24.5869
10090 2 18.1724 34.7865 24.6075
3728 1 19.9896 34.8053 25.8965
3729 1 19.0841 36.3451 23.3006
10044 2 20.9016 36.3644 24.5869
745 1 21.8109 34.7679 23.3216
3787 1 11.8013 20.5756 26.0404
3801 1 14.5292 18.993 26.0521
3783 1 12.7108 19.015 28.6214
10118 2 13.6203 20.5873 27.3237
3750 1 17.2575 20.5756 26.0404
3738 1 15.4389 20.5992 28.61
10117 2 16.3484 19.0038 27.3352
3748 1 18.167 19.015 28.6214
3749 1 19.9854 18.993 26.0521
3690 1 20.8952 20.5992 28.61
10065 2 19.0766 20.5873 27.3237
6901 2 21.8046 19.0038 27.3352
3786 1 11.8017 23.7402 26.0145
3785 1 14.5296 22.158 26.0279
3784 1 12.7108 22.1833 28.5978
10103 2 13.6206 23.7534 27.2981
3742 1 17.258 23.7402 26.0145
3737 1 15.439 23.7671 28.5847
10119 2 16.3486 22.1705 27.3113
3736 1 18.1671 22.1833 28.5978
3751 1 19.9858 22.158 26.0279
3689 1 20.8952 23.7671 28.5847
10064 2 19.0769 23.7534 27.2981
6886 2 21.8048 22.1705 27.3113
3772 1 11.8024 26.9037 25.9851
3788 1 14.5301 25.3221 26.0002
3768 1 12.711 25.3506 28.5708
10102 2 13.621 26.9186 27.269
3741 1 17.2586 26.9037 25.9851
3723 1 15.4392 26.9339 28.5561
10101 2 16.3489 25.3362 27.284
3739 1 18.1672 25.3506 28.5708
3740 1 19.9864 25.3221 26.0002
3688 1 20.8954 26.9339 28.5561
10057 2 19.0773 26.9186 27.269
6887 2 21.8052 25.3362 27.284
3771 1 11.8032 30.0657 25.9522
3770 1 14.5309 28.4849 25.969
3769 1 12.7112 28.5168 28.5405
10088 2 13.6217 30.0823 27.2366
3727 1 17.2595 30.0657 25.9522
3722 1 15.4395 30.0994 28.5241
10104 2 16.3494 28.5007 27.2532
3721 1 18.1674 28.5168 28.5405
3743 1 19.9871 28.4849 25.969
3681 1 20.8957 30.0994 28.5241
10056 2 19.0779 30.0823 27.2366
6878 2 21.8057 28.5007 27.2532
3773 1 14.5319 31.6461 25.9344
3760 1 12.7116 31.6815 28.507
10087 2 13.6226 33.2444 27.2009
3709 1 15.44 33.2632 28.489
10086 2 16.3502 31.6636 27.2192
3724 1 18.1678 31.6815 28.507
3725 1 19.9882 31.6461 25.9344
3680 1 20.8963 33.2632 28.489
10043 2 19.0788 33.2444 27.2009
6879 2 21.8064 31.6636 27.2192
3761 1 12.7123 34.8443 28.4702
10077 2 13.6239 36.4042 27.1618
3708 1 15.441 36.4249 28.4507
10089 2 16.3513 34.8246 27.1818
3707 1 18.1686 34.8443 28.4702
3669 1 20.8972 36.4249 28.4507
10042 2 19.0801 36.4042 27.1618
6877 2 21.8075 34.8246 27.1818
3734 1 13.6209 20.6232 31.1786
10095 2 12.7127 19.0484 32.4718
10099 2 11.8021 20.6111 29.8928
10116 2 14.5303 19.026 29.904
3733 1 16.3492 19.0373 31.1897
10050 2 15.4406 20.6351 32.4608
10062 2 17.2583 20.6111 29.8928
10060 2 18.1689 19.0484 32.4718
3687 1 19.0772 20.6232 31.1786
10020 2 20.8968 20.6351 32.4608
10061 2 19.9865 19.026 29.904
710 1 21.8054 19.0373 31.1897
3719 1 13.6206 23.7944 31.1538
10096 2 12.7123 22.2217 32.4489
10098 2 11.802 23.7806 29.8678
10097 2 14.5301 22.1959 29.8807
3735 1 16.3489 22.2089 31.1666
10049 2 15.4402 23.808 32.4363
10054 2 17.2582 23.7806 29.8678
10048 2 18.1685 22.2217 32.4489
3686 1 19.0768 23.7944 31.1538
10019 2 20.8964 23.808 32.4363
10063 2 19.9864 22.1959 29.8807
694 1 21.8051 22.2089 31.1666
3718 1 13.6203 26.9647 31.1259
10080 2 12.7118 25.3942 32.4228
10084 2 11.8019 26.9491 29.8394
10100 2 14.5301 25.365 29.854
3717 1 16.3486 25.3796 31.1403
10036 2 15.4397 26.9801 32.4086
10053 2 17.2582 26.9491 29.8394
10051 2 18.168 25.3942 32.4228
3679 1 19.0765 26.9647 31.1259
10018 2 20.8959 26.9801 32.4086
10052 2 19.9863 25.365 29.854
695 1 21.8048 25.3796 31.1403
3705 1 13.62 30.1338 31.0948
10081 2 12.7113 28.5658 32.3935
10083 2 11.802 30.1164 29.8079
10082 2 14.5301 28.5329 29.8241
3720 1 16.3483 28.5494 31.1107
10035 2 15.4392 30.1512 32.3778
10040 2 17.2582 30.1164 29.8079
10034 2 18.1676 28.5658 32.3935
3678 1 19.0763 30.1338 31.0948
10015 2 20.8954 30.1512 32.3778
10055 2 19.9863 28.5329 29.8241
686 1 21.8045 28.5494 31.1107
3704 1 13.6199 33.3016 31.0607
10072 2 12.7109 31.7363 32.3612
10076 2 11.8022 33.2821 29.7732
10085 2 14.5302 31.6995 29.791
3703 1 16.3481 31.7179 31.0781
10028 2 15.4388 33.321 32.344
10039 2 17.2585 33.2821 29.7732
10037 2 18.1671 31.7363 32.3612
3668 1 19.0762 33.3016 31.0607
10014 2 20.895 33.321 32.344
10038 2 19.9864 31.6995 29.791
687 1 21.8043 31.7179 31.0781
3696 1 13.62 36.4674 31.0236
10073 2 12.7105 34.9053 32.326
10075 2 11.8028 36.4459 29.7354
10074 2 14.5306 34.8643 29.7547
3706 1 16.3481 34.8848 31.0425
10027 2 15.4386 36.4891 32.3073
10029 2 17.259 36.4459 29.7354
10026 2 18.1668 34.9053 32.326
3667 1 19.0763 36.4674 31.0236
10011 2 20.8948 36.4891 32.3073
10041 2 19.9868 34.8643 29.7547
685 1 21.8043 34.8848 31.0425
3715 1 11.8035 20.6473 33.746
10046 2 13.6236 20.6594 35.0276
3732 1 14.5319 19.0598 33.7569
3684 1 17.2597 20.6473 33.746
10045 2 16.352 19.071 35.0385
3683 1 19.9881 19.0598 33.7569
10017 2 19.0798 20.6594 35.0276
6830 2 21.8083 19.071 35.0385
3714 1 11.8029 23.822 33.7217
10032 2 13.6228 23.8358 35.0035
3713 1 14.5313 22.2347 33.7343
3676 1 17.2591 23.822 33.7217
10047 2 16.3513 22.2477 35.016
3685 1 19.9875 22.2347 33.7343
10016 2 19.079 23.8358 35.0035
6814 2 21.8075 22.2477 35.016
3716 1 14.5306 25.4091 33.7084
3701 1 11.8021 26.9959 33.6943
10031 2 13.6219 27.0116 34.9762
10030 2 16.3505 25.4238 34.9902
3675 1 17.2584 26.9959 33.6943
10013 2 19.0782 27.0116 34.9762
3674 1 19.9869 25.4091 33.7084
6815 2 21.8067 25.4238 34.9902
3699 1 14.5299 28.5826 33.6795
10024 2 13.621 30.1867 34.946
3700 1 11.8014 30.169 33.6639
10033 2 16.3496 28.5992 34.9614
3665 1 17.2576 30.169 33.6639
10012 2 19.0772 30.1867 34.946
3677 1 19.9861 28.5826 33.6795
6806 2 21.8058 28.5992 34.9614
3702 1 14.5291 31.7551 33.6476
10023 2 13.62 33.3608 34.9129
3695 1 11.8006 33.3409 33.6306
10022 2 16.3486 31.7738 34.9298
3664 1 17.2568 33.3409 33.6306
10010 2 19.0763 33.3608 34.9129
3663 1 19.9853 31.7551 33.6476
6807 2 21.8049 31.7738 34.9298
3693 1 14.5283 34.9264 33.6129
10021 2 13.6191 36.5337 34.877
3694 1 11.7999 36.5114 33.5946
10025 2 16.3476 34.9474 34.8953
3658 1 17.2561 36.5114 33.5946
10009 2 19.0753 36.5337 34.877
3666 1 19.9846 34.9264 33.6129
6805 2 21.8039 34.9474 34.8953
10222 2 11.8072 20.6839 37.5933
16037 1 13.627 20.6963 38.8773
3711 1 12.7153 19.0825 36.3231
10224 2 14.5358 19.0938 37.604
10211 2 17.2634 20.6839 37.5933
16036 1 16.3556 19.1053 38.888
3672 1 15.443 20.6717 36.3123
3682 1 18.1715 19.0825 36.3231
10210 2 19.992 19.0938 37.604
16002 1 19.0832 20.6963 38.8773
3654 1 20.8992 20.6717 36.3123
13224 1 21.8119 19.1053 38.888
10221 2 11.8062 23.8639 37.5693
16033 1 13.6259 23.8781 38.8534
3712 1 12.7144 22.2609 36.3007
10220 2 14.5348 22.2739 37.5817
10208 2 17.2624 23.8639 37.5693
16038 1 16.3546 22.2872 38.8657
3671 1 15.4421 23.8499 36.2883
3670 1 18.1707 22.2609 36.3007
10212 2 19.9911 22.2739 37.5817
16001 1 19.0821 23.8781 38.8534
3653 1 20.8983 23.8499 36.2883
13222 1 21.8108 22.2872 38.8657
10218 2 11.805 27.0435 37.5423
16032 1 13.6245 27.0596 38.8265
3697 1 12.7134 25.4388 36.2751
10223 2 14.5338 25.4537 37.5562
10207 2 17.2613 27.0435 37.5423
16031 1 16.3533 25.4689 38.8403
3661 1 15.441 27.0276 36.2612
3673 1 18.1697 25.4388 36.2751
10206 2 19.99 25.4537 37.5562
15996 1 19.0808 27.0596 38.8265
3652 1 20.8972 27.0276 36.2612
13223 1 21.8096 25.4689 38.8403
10217 2 11.8037 30.2226 37.5124
16022 1 13.623 30.2409 38.7967
3698 1 12.7123 28.6163 36.2466
10216 2 14.5325 28.6331 37.5277
10204 2 17.26 30.2226 37.5124
16034 1 16.3519 28.6503 38.812
3660 1 15.4398 30.2047 36.2312
3659 1 18.1685 28.6163 36.2466
10209 2 19.9888 28.6331 37.5277
15995 1 19.0793 30.2409 38.7967
3651 1 20.896 30.2047 36.2312
13220 1 21.8082 28.6503 38.812
10215 2 11.8023 33.4012 37.4796
16021 1 13.6213 33.4218 38.7642
3691 1 12.711 31.793 36.2152
10219 2 14.5311 31.812 37.4963
10203 2 17.2585 33.4012 37.4796
16020 1 16.3503 31.8314 38.7808
3657 1 15.4385 33.3811 36.1985
3662 1 18.1673 31.793 36.2152
10202 2 19.9874 31.812 37.4963
15982 1 19.0775 33.4218 38.7642
3650 1 20.8947 33.3811 36.1985
13221 1 21.8065 31.8314 38.7808
10214 2 11.8007 36.5791 37.4442
16011 1 13.6194 36.6024 38.7291
3692 1 12.7097 34.9689 36.1811
10213 2 14.5296 34.9903 37.4623
10201 2 17.257 36.5791 37.4442
16023 1 16.3485 35.0121 38.7469
3656 1 15.4371 36.5566 36.1632
3655 1 18.1659 34.9689 36.1811
10205 2 19.9859 34.9903 37.4623
15981 1 19.0756 36.6024 38.7291
3649 1 20.8933 36.5566 36.1632
13219 1 21.8047 35.0121 38.7469
21659 2 12.7202 19.1167 40.1684
16029 1 11.8118 20.7211 41.441
16035 1 14.5404 19.1283 41.4517
21646 2 15.4478 20.7086 40.1576
15999 1 17.268 20.7211 41.441
21648 2 18.1765 19.1167 40.1684
15998 1 19.9967 19.1283 41.4517
21600 2 20.9041 20.7086 40.1576
21660 2 12.7191 22.3004 40.1461
16028 1 11.8105 23.9065 41.4171
16027 1 14.5393 22.3138 41.4294
21645 2 15.4467 23.8922 40.1337
15993 1 17.2667 23.9065 41.4171
21644 2 18.1754 22.3004 40.1461
16000 1 19.9955 22.3138 41.4294
21599 2 20.9029 23.8922 40.1337
21656 2 12.7179 25.4839 40.1206
16018 1 11.809 27.0919 41.3902
16030 1 14.5379 25.4992 41.404
21638 2 15.4453 27.0756 40.1068
15992 1 17.2652 27.0919 41.3902
21647 2 18.1741 25.4839 40.1206
15991 1 19.9941 25.4992 41.404
21598 2 20.9015 27.0756 40.1068
21657 2 12.7164 28.6673 40.0922
16017 1 11.8073 30.2773 41.3603
16016 1 14.5363 28.6846 41.3756
21637 2 15.4437 30.2589 40.0769
15979 1 17.2635 30.2773 41.3603
21636 2 18.1727 28.6673 40.0922
15994 1 19.9925 28.6846 41.3756
21591 2 20.9 30.2589 40.0769
21652 2 12.7148 31.8505 40.0608
16010 1 11.8053 33.4628 41.3276
16019 1 14.5345 31.87 41.3442
15978 1 17.2616 33.4628 41.3276
21624 2 15.442 33.442 40.0441
21639 2 18.171 31.8505 40.0608
15977 1 19.9907 31.87 41.3442
21590 2 20.8982 33.442 40.0441
21653 2 12.7129 35.0336 40.0268
16009 1 11.8031 36.6486 41.2922
21609 2 13.6245 36.6713 42.5705
16008 1 14.5324 35.0557 41.3102
15961 1 17.2594 36.6486 41.2922
21621 2 16.3537 35.0771 42.5888
21623 2 15.44 36.6251 40.0087
21622 2 18.1691 35.0336 40.0268
15980 1 19.9886 35.0557 41.3102
21573 2 19.0807 36.6713 42.5705
21575 2 20.8963 36.6251 40.0087
18829 2 21.8099 35.0771 42.5888
21642 2 13.633 20.7335 42.7207
16025 1 12.726 19.1515 44.0142
21630 2 11.8189 20.7584 45.2825
21640 2 14.5476 19.1631 45.2933
21641 2 16.3617 19.1398 42.7315
15989 1 15.4535 20.746 44.0034
21594 2 17.2751 20.7584 45.2825
15997 1 18.1822 19.1515 44.0142
21597 2 19.0892 20.7335 42.7207
15936 1 20.9098 20.746 44.0034
21593 2 20.0038 19.1631 45.2933
18838 2 21.8179 19.1398 42.7315
21634 2 13.6317 23.9207 42.6967
16026 1 12.7248 22.3405 43.9918
21629 2 11.8176 23.9493 45.2583
21628 2 14.5464 22.3538 45.2708
21643 2 16.3605 22.3271 42.7091
15988 1 15.4522 23.935 43.9794
21586 2 17.2738 23.9493 45.2583
15987 1 18.181 22.3405 43.9918
21596 2 19.0879 23.9207 42.6967
15935 1 20.9084 23.935 43.9794
21595 2 20.0026 22.3538 45.2708
18834 2 21.8167 22.3271 42.7091
21633 2 13.6302 27.1079 42.6696
16014 1 12.7233 25.5296 43.9662
21616 2 11.8161 27.1404 45.2308
21631 2 14.545 25.5448 45.2449
21632 2 16.3591 25.5143 42.6835
15975 1 15.4506 27.1243 43.9522
21585 2 17.2723 27.1404 45.2308
15990 1 18.1796 25.5296 43.9662
21589 2 19.0865 27.1079 42.6696
15934 1 20.9069 27.1243 43.9522
21584 2 20.0012 25.5448 45.2449
18835 2 21.8154 25.5143 42.6835
21620 2 13.6285 30.2954 42.6394
16015 1 12.7217 28.719 43.9374
21615 2 11.8144 30.3319 45.2001
21614 2 14.5434 28.7361 45.2159
21635 2 16.3575 28.7016 42.6549
15974 1 15.4489 30.3138 43.9219
21571 2 17.2706 30.3319 45.2001
15973 1 18.1779 28.719 43.9374
21588 2 19.0848 30.2954 42.6394
15927 1 20.9051 30.3138 43.9219
21587 2 19.9996 28.7361 45.2159
18830 2 21.8138 28.7016 42.6549
21619 2 13.6266 33.4831 42.6064
16006 1 12.7197 31.9088 43.9056
21608 2 11.8125 33.524 45.1664
21617 2 14.5416 31.9279 45.1837
21618 2 16.3557 31.8892 42.6233
15960 1 15.4468 33.5039 43.8887
21570 2 17.2687 33.524 45.1664
15976 1 18.176 31.9088 43.9056
21574 2 19.0829 33.4831 42.6064
15926 1 20.9031 33.5039 43.8887
21569 2 19.9978 31.9279 45.1837
18831 2 21.812 31.8892 42.6233
16007 1 12.7176 35.0992 43.871
21607 2 11.8103 36.7172 45.1296
21606 2 14.5395 35.1205 45.1484
15959 1 15.4445 36.6948 43.8526
21554 2 17.2666 36.7172 45.1296
15958 1 18.1738 35.0992 43.871
15911 1 20.9008 36.6948 43.8526
21572 2 19.9958 35.1205 45.1484
15967 1 11.8268 20.7962 49.1245
15985 1 13.6398 20.771 46.5646
21626 2 12.7342 19.1864 47.854
15930 1 17.2831 20.7962 49.1245
15983 1 14.5555 19.1982 49.1356
15984 1 16.3685 19.1748 46.5755
21582 2 15.4618 20.7835 47.843
15929 1 20.0117 19.1982 49.1356
15933 1 19.096 20.771 46.5646
21534 2 20.918 20.7835 47.843
21592 2 18.1905 19.1864 47.854
13204 1 21.8247 19.1748 46.5755
15966 1 11.8256 23.9925 49.0997
15971 1 13.6385 23.9637 46.5402
21627 2 12.7331 22.3807 47.8312
15922 1 17.2818 23.9925 49.0997
15965 1 14.5543 22.3943 49.1126
15986 1 16.3673 22.3673 46.5528
21581 2 15.4605 23.978 47.8184
15931 1 20.0106 22.3943 49.1126
15932 1 19.0947 23.9637 46.5402
21533 2 20.9168 23.978 47.8184
21580 2 18.1893 22.3807 47.8312
13192 1 21.8235 22.3673 46.5528
15952 1 11.8241 27.1892 49.0715
15970 1 13.637 27.1567 46.5126
21612 2 12.7317 25.5754 47.8049
15921 1 17.2804 27.1892 49.0715
15968 1 14.553 25.5908 49.0861
15969 1 16.3659 25.5602 46.5268
21567 2 15.4591 27.1728 47.7904
15920 1 20.0092 25.5908 49.0861
15925 1 19.0932 27.1567 46.5126
21532 2 20.9153 27.1728 47.7904
21583 2 18.1879 25.5754 47.8049
13193 1 21.8221 25.5602 46.5268
15951 1 11.8225 30.3868 49.0398
15956 1 13.6352 30.3504 46.4817
21613 2 12.7302 28.7705 47.7752
15907 1 17.2788 30.3868 49.0398
15950 1 14.5515 28.7879 49.0561
15972 1 16.3642 28.7535 46.4975
21566 2 15.4574 30.3683 47.7591
21565 2 18.1864 28.7705 47.7752
15923 1 20.0077 28.7879 49.0561
15924 1 19.0915 30.3504 46.4817
21525 2 20.9137 30.3683 47.7591
13184 1 21.8205 28.7535 46.4975
15944 1 11.8207 33.5855 49.0046
15955 1 13.6333 33.5449 46.4476
21604 2 12.7284 31.9664 47.7422
15953 1 14.5498 31.986 49.0226
15906 1 17.277 33.5855 49.0046
15954 1 16.3624 31.9475 46.465
21553 2 15.4556 33.5648 47.7244
21568 2 18.1847 31.9664 47.7422
15905 1 20.006 31.986 49.0226
15910 1 19.0895 33.5449 46.4476
21524 2 20.9119 33.5648 47.7244
13185 1 21.8186 31.9475 46.465
15943 1 11.8188 36.786 48.966
15945 1 13.6311 36.7407 46.4104
21605 2 12.7265 35.1635 47.7058
15942 1 14.5479 35.1855 48.9858
15892 1 17.275 36.786 48.966
15957 1 16.3603 35.1426 46.4294
21552 2 15.4537 36.7627 47.6864
21551 2 18.1828 35.1635 47.7058
15908 1 20.0041 35.1855 48.9858
15909 1 19.0873 36.7407 46.4104
21513 2 20.9099 36.7627 47.6864
13183 1 21.8165 35.1426 46.4294
15963 1 12.7432 19.2217 51.6946
21578 2 13.6492 20.8087 50.4024
21625 2 10.9216 19.2099 50.4135
15918 1 15.4708 20.8214 51.6833
21577 2 16.3778 19.2099 50.4135
15876 1 20.927 20.8214 51.6833
15928 1 18.1994 19.2217 51.6946
21531 2 19.1054 20.8087 50.4024
15964 1 12.7421 22.4213 51.6711
21563 2 13.648 24.0067 50.3773
21610 2 10.9205 22.4077 50.3903
15917 1 15.4696 24.0212 51.658
21579 2 16.3767 22.4077 50.3903
15875 1 20.9259 24.0212 51.658
15916 1 18.1983 22.4213 51.6711
21530 2 19.1042 24.0067 50.3773
15948 1 12.7409 25.6213 51.644
21562 2 13.6466 27.2053 50.3487
21611 2 10.9192 25.6059 50.3634
15903 1 15.4683 27.2216 51.629
21561 2 16.3754 25.6059 50.3634
15874 1 20.9246 27.2216 51.629
15919 1 18.1971 25.6213 51.644
21523 2 19.1029 27.2053 50.3487
15949 1 12.7395 28.8222 51.6132
21549 2 13.6452 30.4046 50.3165
21602 2 10.9178 28.8048 50.333
15902 1 15.4669 30.423 51.5964
21564 2 16.374 28.8048 50.333
15868 1 20.9232 30.423 51.5964
15901 1 18.1958 28.8222 51.6132
21522 2 19.1014 30.4046 50.3165
15940 1 12.738 32.0242 51.5787
21548 2 13.6435 33.6052 50.2806
21603 2 10.9162 32.0047 50.299
15891 1 15.4654 33.6257 51.56
21547 2 16.3725 32.0047 50.299
15867 1 20.9216 33.6257 51.56
15904 1 18.1943 32.0242 51.5787
21512 2 19.0998 33.6052 50.2806
15941 1 12.7365 35.2277 51.5404
21540 2 13.6418 36.8074 50.2411
21601 2 10.9146 35.206 50.2613
15890 1 15.4637 36.8303 51.5198
21550 2 16.3708 35.206 50.2613
15860 1 20.92 36.8303 51.5198
15889 1 18.1927 35.2277 51.5404
21511 2 19.098 36.8074 50.2411
15914 1 13.6592 20.8467 54.2409
15962 1 10.9315 19.2452 54.2524
21555 2 12.7545 19.2569 55.5293
21559 2 11.8372 20.8339 52.9606
15913 1 16.3878 19.2452 54.2524
21516 2 15.4821 20.8592 55.5177
21528 2 17.2934 20.8339 52.9606
21576 2 14.5658 19.2334 52.972
15873 1 19.1154 20.8467 54.2409
21498 2 20.9384 20.8592 55.5177
21526 2 18.2107 19.2569 55.5293
21527 2 20.0221 19.2334 52.972
15899 1 13.6581 24.05 54.2151
15946 1 10.9305 22.4482 54.2285
21556 2 12.7535 22.4616 55.5051
21558 2 11.8361 24.0355 52.935
15915 1 16.3868 22.4482 54.2285
21515 2 15.4811 24.0642 55.4915
21520 2 17.2924 24.0355 52.935
21557 2 14.5648 22.4346 52.9482
15872 1 19.1144 24.05 54.2151
21497 2 20.9374 24.0642 55.4915
21514 2 18.2098 22.4616 55.5051
21529 2 20.021 22.4346 52.9482
15898 1 13.657 27.2539 54.1854
15947 1 10.9294 25.6518 54.2007
21541 2 12.7525 25.6669 55.477
21545 2 11.8349 27.2376 52.9056
15897 1 16.3857 25.6518 54.2007
21505 2 15.4801 27.2698 55.4614
21519 2 17.2912 27.2376 52.9056
21560 2 14.5637 25.6364 52.9208
15866 1 19.1132 27.2539 54.1854
21496 2 20.9363 27.2698 55.4614
21517 2 18.2087 25.6669 55.477
21518 2 20.0199 25.6364 52.9208
15887 1 13.6558 30.4589 54.1517
15938 1 10.9283 28.8563 54.169
21542 2 12.7514 28.8729 55.4449
21544 2 11.8336 30.4407 52.8724
15900 1 16.3845 28.8563 54.169
21504 2 15.479 30.4764 55.4273
21509 2 17.2899 30.4407 52.8724
21543 2 14.5624 28.839 52.8895
15865 1 19.112 30.4589 54.1517
21495 2 20.9352 30.4764 55.4273
21503 2 18.2077 28.8729 55.4449
21521 2 20.0186 28.839 52.8895
15886 1 13.6545 33.6653 54.114
15939 1 10.927 32.0619 54.1334
21535 2 12.7503 32.0801 55.4086
21539 2 11.8323 33.645 52.8354
21546 2 14.5611 32.0426 52.8544
21508 2 17.2885 33.645 52.8354
15885 1 16.3833 32.0619 54.1334
21501 2 15.4778 33.6842 55.3889
21507 2 20.0173 32.0426 52.8544
21506 2 18.2065 32.0801 55.4086
21494 2 20.9341 33.6842 55.3889
15859 1 19.1107 33.6653 54.114
21538 2 11.8308 36.8511 52.7943
21536 2 12.7491 35.2888 55.3682
15937 1 10.9257 35.2691 54.0936
15880 1 13.6532 36.8736 54.0721
21537 2 14.5597 35.2478 52.8153
21502 2 17.287 36.8511 52.7943
21500 2 15.4767 36.8939 55.3463
15888 1 16.382 35.2691 54.0936
21510 2 20.0159 35.2478 52.8153
21499 2 18.2054 35.2888 55.3682
21493 2 20.9329 36.8939 55.3463
15858 1 19.1094 36.8736 54.0721
21845 2 13.6714 20.8844 58.0738
21852 2 10.9437 19.2804 58.0856
15895 1 11.8481 20.8719 56.7976
21844 2 16.3999 19.2804 58.0856
15870 1 17.3044 20.8719 56.7976
15912 1 14.5767 19.2688 56.8093
21810 2 19.1276 20.8844 58.0738
15869 1 20.0329 19.2688 56.8093
21841 2 13.6705 24.0928 58.0471
21850 2 10.9428 22.4885 58.061
15894 1 11.8472 24.0786 56.7711
21846 2 16.3991 22.4885 58.061
15863 1 17.3034 24.0786 56.7711
15893 1 14.5758 22.4752 56.7848
21809 2 19.1267 24.0928 58.0471
15871 1 20.032 22.4752 56.7848
21840 2 13.6696 27.3018 58.0163
21851 2 10.9419 25.6972 58.0322
15883 1 11.8462 27.2861 56.7407
21839 2 16.3982 25.6972 58.0322
15862 1 17.3025 27.2861 56.7407
15896 1 14.5748 25.6822 56.7564
21804 2 19.1258 27.3018 58.0163
15861 1 20.0311 25.6822 56.7564
21830 2 13.6686 30.5117 57.9812
21848 2 10.941 28.9066 57.9992
15882 1 11.8452 30.4944 56.706
16189 1 15.4914 30.5296 59.2595
21842 2 16.3972 28.9066 57.9992
15856 1 17.3015 30.4944 56.706
15881 1 14.5738 28.8901 56.7239
16143 1 20.9476 30.5296 59.2595
21803 2 19.1249 30.5117 57.9812
15864 1 20.0301 28.8901 56.7239
16204 1 12.7628 32.1358 59.24
21829 2 13.6677 33.7228 57.9416
21849 2 10.94 32.1171 57.962
15879 1 11.8442 33.7042 56.667
16176 1 15.4905 33.7424 59.2194
21828 2 16.3963 32.1171 57.962
15855 1 17.3004 33.7042 56.667
15884 1 14.5728 32.0991 56.6871
16142 1 20.9468 33.7424 59.2194
16191 1 18.2191 32.1358 59.24
21790 2 19.1239 33.7228 57.9416
15854 1 20.0291 32.0991 56.6871
16205 1 12.762 35.3493 59.1976
21819 2 13.6667 36.9355 57.8976
21847 2 10.9391 35.3289 57.9202
15878 1 11.8432 36.9157 56.6236
16175 1 15.4897 36.9567 59.1746
21831 2 16.3953 35.3289 57.9202
15853 1 17.2994 36.9157 56.6236
15877 1 14.5718 35.3097 56.6459
16127 1 20.9459 36.9567 59.1746
16174 1 18.2182 35.3493 59.1976
21789 2 19.1229 36.9355 57.8976
15857 1 20.028 35.3097 56.6459
16211 1 12.7662 19.2923 59.3652
16194 1 13.6839 20.9223 61.9081
16210 1 10.9562 19.3158 61.9203
21837 2 11.8612 20.9095 60.629
16198 1 15.4939 20.8972 59.3532
16193 1 16.4124 19.3158 61.9203
21807 2 17.3174 20.9095 60.629
21843 2 14.5897 19.3039 60.641
16152 1 20.9501 20.8972 59.3532
16200 1 18.2224 19.2923 59.3652
16149 1 19.1402 20.9223 61.9081
21806 2 20.0459 19.3039 60.641
16212 1 12.7654 22.5021 59.3403
16186 1 13.6831 24.1357 61.8807
16206 1 10.9554 22.5289 61.895
21836 2 11.8603 24.1212 60.6017
16197 1 15.4931 24.1072 59.3263
16195 1 16.4117 22.5289 61.895
21801 2 17.3166 24.1212 60.6017
21835 2 14.5889 22.5153 60.6159
16151 1 20.9493 24.1072 59.3263
16196 1 18.2216 22.5021 59.3403
16148 1 19.1394 24.1357 61.8807
21808 2 20.0451 22.5153 60.6159
16208 1 12.7645 25.7125 59.3112
16185 1 13.6824 27.3496 61.8489
16207 1 10.9546 25.7426 61.8653
21826 2 11.8595 27.3335 60.5702
16190 1 15.4922 27.318 59.2951
16184 1 16.4109 25.7426 61.8653
21800 2 17.3157 27.3335 60.5702
21838 2 14.588 25.7273 60.5865
16150 1 20.9484 27.318 59.2951
16199 1 18.2208 25.7125 59.3112
16141 1 19.1386 27.3496 61.8489
21799 2 20.0443 25.7273 60.5865
16209 1 12.7637 28.9236 59.2778
16172 1 13.6816 30.5643 61.8125
16202 1 10.9539 28.9569 61.8313
21825 2 11.8587 30.5466 60.5343
16187 1 16.4101 28.9569 61.8313
21787 2 17.3149 30.5466 60.5343
21824 2 14.5872 28.94 60.5528
16188 1 18.2199 28.9236 59.2778
16140 1 19.1378 30.5643 61.8125
21802 2 20.0434 28.94 60.5528
16171 1 13.6809 33.7799 61.7714
16203 1 10.9531 32.172 61.7926
21818 2 11.8578 33.7607 60.4938
16170 1 16.4093 32.172 61.7926
21786 2 17.3141 33.7607 60.4938
21827 2 14.5864 32.1535 60.5146
16126 1 19.1371 33.7799 61.7714
21785 2 20.0426 32.1535 60.5146
16161 1 13.6802 36.9967 61.7256
16201 1 10.9524 35.3882 61.7491
21817 2 11.857 36.9761 60.4486
16173 1 16.4086 35.3882 61.7491
21769 2 17.3132 36.9761 60.4486
21816 2 14.5855 35.3682 60.4718
16125 1 19.1364 36.9967 61.7256
21788 2 20.0418 35.3682 60.4718
16182 1 11.8744 20.9475 64.4626
21793 2 13.6984 20.9594 65.7362
21832 2 10.9707 19.3504 65.7486
21833 2 12.7799 19.3272 63.1954
16146 1 17.3306 20.9475 64.4626
16192 1 14.6029 19.3393 64.4749
21792 2 16.4269 19.3504 65.7486
21797 2 15.5077 20.9346 63.1831
16145 1 20.0591 19.3393 64.4749
21741 2 19.1546 20.9594 65.7362
21744 2 20.9639 20.9346 63.1831
21805 2 18.2362 19.3272 63.1954
16181 1 11.8736 24.1641 64.4347
21779 2 13.6975 24.1776 65.7082
21820 2 10.9698 22.5685 65.7228
21834 2 12.7791 22.542 63.1699
16138 1 17.3298 24.1641 64.4347
16180 1 14.6021 22.5557 64.4492
21794 2 16.4261 22.5685 65.7228
21796 2 15.5069 24.1496 63.1555
16147 1 20.0583 22.5557 64.4492
21740 2 19.1538 24.1776 65.7082
21743 2 20.9631 24.1496 63.1555
21795 2 18.2354 22.542 63.1699
16168 1 11.8728 27.3812 64.4024
21778 2 13.6967 27.3963 65.6757
21821 2 10.969 25.7869 65.6925
21822 2 12.7783 25.7572 63.14
16137 1 17.329 27.3812 64.4024
16183 1 14.6013 25.7726 64.4191
21777 2 16.4252 25.7869 65.6925
21783 2 15.5061 27.3651 63.1234
16136 1 20.0575 25.7726 64.4191
21733 2 19.1529 27.3963 65.6757
21742 2 20.9623 27.3651 63.1234
21798 2 18.2346 25.7572 63.14
16167 1 11.872 30.5988 64.3654
21764 2 13.6959 30.6155 65.6386
21812 2 10.9682 29.0058 65.6578
21823 2 12.7775 28.973 63.1057
16123 1 17.3283 30.5988 64.3654
16166 1 14.6005 28.9899 64.3845
21780 2 16.4244 29.0058 65.6578
21782 2 15.5053 30.5812 63.0868
16139 1 20.0568 28.9899 64.3845
21732 2 19.1521 30.6155 65.6386
21735 2 20.9615 30.5812 63.0868
21781 2 18.2338 28.973 63.1057
16160 1 11.8713 33.8171 64.3237
21763 2 13.6951 33.8351 65.5967
21813 2 10.9674 32.2252 65.6183
21814 2 12.7768 32.1895 63.0668
16122 1 17.3276 33.8171 64.3237
16169 1 14.5998 32.2079 64.3451
21762 2 16.4236 32.2252 65.6183
21768 2 15.5045 33.7981 63.0455
16121 1 20.056 32.2079 64.3451
21718 2 19.1513 33.8351 65.5967
21734 2 20.9607 33.7981 63.0455
21784 2 18.233 32.1895 63.0668
16159 1 11.8706 37.036 64.277
21753 2 13.6942 37.0552 65.55
21811 2 10.9665 35.4451 65.5739
21815 2 12.776 35.4069 63.023
16106 1 17.3269 37.036 64.277
16158 1 14.5991 35.4264 64.3009
21765 2 16.4228 35.4451 65.5739
21767 2 15.5037 37.0159 62.9994
16124 1 20.0553 35.4264 64.3009
21717 2 19.1505 37.0552 65.55
21719 2 20.9599 37.0159 62.9994
21766 2 18.2322 35.4069 63.023
16178 1 12.7936 19.3632 67.0299
21775 2 11.8894 20.9838 68.2873
16134 1 15.5213 20.973 67.0175
21738 2 17.3456 20.9838 68.2873
21791 2 14.618 19.3731 68.2998
16086 1 20.9775 20.973 67.0175
16144 1 18.2498 19.3632 67.0299
21737 2 20.0742 19.3731 68.2998
16179 1 12.7927 22.5829 67.004
21774 2 11.8885 24.2053 68.2591
16133 1 15.5204 24.1928 66.9893
21730 2 17.3447 24.2053 68.2591
21773 2 14.6171 22.5945 68.2737
16085 1 20.9767 24.1928 66.9893
16132 1 18.249 22.5829 67.004
21739 2 20.0733 22.5945 68.2737
16164 1 12.7919 25.8029 66.9736
21760 2 11.8876 27.4272 68.2263
16119 1 15.5196 27.413 66.9567
21729 2 17.3438 27.4272 68.2263
21776 2 14.6161 25.8162 68.2432
16084 1 20.9758 27.413 66.9567
16135 1 18.2481 25.8029 66.9736
21728 2 20.0724 25.8162 68.2432
16165 1 12.791 29.0232 66.9386
21759 2 11.8866 30.6493 68.1888
16118 1 15.5187 30.6335 66.9193
21715 2 17.3429 30.6493 68.1888
21758 2 14.6152 29.0382 68.2082
16077 1 20.975 30.6335 66.9193
16117 1 18.2473 29.0232 66.9386
21731 2 20.0714 29.0382 68.2082
16156 1 12.7902 32.2439 66.8988
21752 2 11.8857 33.8717 68.1466
16105 1 15.5179 33.8543 66.8771
21714 2 17.3419 33.8717 68.1466
21761 2 14.6143 32.2605 68.1683
16076 1 20.9742 33.8543 66.8771
16120 1 18.2464 32.2439 66.8988
21713 2 20.0705 32.2605 68.1683
16157 1 12.7894 35.4647 66.8542
21751 2 11.8847 37.0941 68.0996
16104 1 15.5171 37.075 66.83
21700 2 17.341 37.0941 68.0996
21750 2 14.6133 35.4829 68.1237
16065 1 20.9734 37.075 66.83
16103 1 18.2456 35.4647 66.8542
21716 2 20.0696 35.4829 68.1237
16111 1 11.8968 21.0227 72.1521
16130 1 13.7115 20.9976 69.5765
16177 1 10.9838 19.3862 69.589
21771 2 12.809 19.3948 70.8462
16080 1 17.3531 21.0227 72.1521
16128 1 14.6255 19.4096 72.1647
16129 1 16.44 19.3862 69.589
21726 2 15.5366 21.0071 70.8337
16079 1 20.0818 19.4096 72.1647
16083 1 19.1677 20.9976 69.5765
21684 2 20.9929 21.0071 70.8337
21736 2 18.2653 19.3948 70.8462
16110 1 11.8957 24.2489 72.1236
16115 1 13.7105 24.2207 69.5481
16162 1 10.9829 22.6091 69.5629
21772 2 12.808 22.6194 70.82
16072 1 17.3519 24.2489 72.1236
16109 1 14.6244 22.6358 72.1384
16131 1 16.4391 22.6091 69.5629
21725 2 15.5356 24.2319 70.8053
16081 1 20.0806 22.6358 72.1384
16082 1 19.1667 24.2207 69.5481
21683 2 20.9919 24.2319 70.8053
21724 2 18.2643 22.6194 70.82
16097 1 11.8945 27.4752 72.0906
16114 1 13.7095 27.444 69.5152
16163 1 10.9819 25.8323 69.5322
21756 2 12.807 25.8444 70.7894
16071 1 17.3507 27.4752 72.0906
16112 1 14.6232 25.8621 72.1077
16113 1 16.4381 25.8323 69.5322
21711 2 15.5345 27.457 70.7723
16070 1 20.0794 25.8621 72.1077
16075 1 19.1657 27.444 69.5152
21682 2 20.9908 27.457 70.7723
21727 2 18.2632 25.8444 70.7894
16096 1 11.8932 30.7014 72.0528
16101 1 13.7085 30.6673 69.4776
16154 1 10.9809 29.0556 69.497
21757 2 12.8059 29.0696 70.7541
16061 1 17.3495 30.7014 72.0528
16095 1 14.622 29.0884 72.0723
16116 1 16.4371 29.0556 69.497
21710 2 15.5335 30.6823 70.7347
16073 1 20.0782 29.0884 72.0723
16074 1 19.1647 30.6673 69.4776
21676 2 20.9897 30.6823 70.7347
21709 2 18.2621 29.0696 70.7541
16091 1 11.8921 33.9273 72.0103
16100 1 13.7075 33.8907 69.4351
16155 1 10.9799 32.279 69.457
21748 2 12.8048 32.2949 70.7141
16060 1 17.3483 33.9273 72.0103
16098 1 14.6208 32.3144 72.0322
16099 1 16.4361 32.279 69.457
21699 2 15.5324 33.9075 70.6924
16059 1 20.077 32.3144 72.0322
16064 1 19.1638 33.8907 69.4351
21675 2 20.9886 33.9075 70.6924
21712 2 18.261 32.2949 70.7141
16090 1 11.8909 37.1525 71.9631
16092 1 13.7065 37.1138 69.3879
16153 1 10.9789 35.5023 69.4121
21749 2 12.8037 35.5201 70.6694
16054 1 17.3472 37.1525 71.9631
16089 1 14.6196 35.54 71.9873
16102 1 16.4352 35.5023 69.4121
21698 2 15.5313 37.1325 70.6453
16062 1 20.0759 35.54 71.9873
16063 1 19.1628 37.1138 69.3879
21668 2 20.9875 37.1325 70.6453
21697 2 18.2599 35.5201 70.6694
16107 1 12.7519 19.4424 74.8159
21703 2 11.8878 21.0579 75.8398
21722 2 13.7259 21.0295 73.3655
21770 2 10.9984 19.4156 73.3781
16068 1 15.4793 21.057 74.8033
21678 2 17.344 21.0579 75.8398
21720 2 14.6166 19.4425 75.8524
21721 2 16.4546 19.4156 73.3781
16050 1 20.9356 21.057 74.8033
16078 1 18.2082 19.4424 74.8159
21677 2 20.0728 19.4425 75.8524
21681 2 19.1822 21.0295 73.3655
16108 1 12.7505 22.6715 74.7896
21702 2 11.8863 24.2887 75.8113
21707 2 13.7247 24.2576 73.337
21754 2 10.9972 22.6435 73.3518
16067 1 15.4778 24.2859 74.7748
21671 2 17.3425 24.2887 75.8113
21701 2 14.6152 22.6733 75.8261
21723 2 16.4535 22.6435 73.3518
16049 1 20.9341 24.2859 74.7748
16066 1 18.2067 22.6715 74.7896
21679 2 20.0714 22.6733 75.8261
21680 2 19.181 24.2576 73.337
16093 1 12.749 25.9002 74.7589
21691 2 11.8848 27.5195 75.7784
21706 2 13.7235 27.486 73.304
21755 2 10.996 25.8718 73.3211
16057 1 15.4763 27.5143 74.7418
21670 2 17.341 27.5195 75.7784
21704 2 14.6137 25.9041 75.7954
21705 2 16.4522 25.8718 73.3211
16048 1 20.9326 27.5143 74.7418
16069 1 18.2052 25.9002 74.7589
21669 2 20.0699 25.9041 75.7954
21674 2 19.1797 27.486 73.304
16094 1 12.7475 29.1282 74.7236
21690 2 11.8833 30.75 75.7409
21695 2 13.7222 30.7145 73.2663
21746 2 10.9947 29.1002 73.2857
16056 1 15.475 30.742 74.7042
21664 2 17.3395 30.75 75.7409
21689 2 14.6121 29.1348 75.7602
21708 2 16.451 29.1002 73.2857
16047 1 20.9312 30.742 74.7042
16055 1 18.2038 29.1282 74.7236
21672 2 20.0684 29.1348 75.7602
21673 2 19.1784 30.7145 73.2663
16087 1 12.7463 32.3554 74.6836
21687 2 11.8819 33.9798 75.6989
21694 2 13.7209 33.9428 73.224
21747 2 10.9934 32.3287 73.2458
16053 1 15.4739 33.9686 74.6619
21663 2 17.3382 33.9798 75.6989
21692 2 14.6107 32.365 75.7204
21693 2 16.4497 32.3287 73.2458
16046 1 20.9301 33.9686 74.6619
16058 1 18.2025 32.3554 74.6836
21662 2 20.0669 32.365 75.7204
21667 2 19.1772 33.9428 73.224
16088 1 12.7454 35.5814 74.639
21686 2 11.8807 37.2087 75.6524
21688 2 13.7196 37.1706 73.1771
21745 2 10.9922 35.5568 73.2011
16052 1 15.4732 37.194 74.615
21661 2 17.3369 37.2087 75.6524
21685 2 14.6094 35.5944 75.6761
21696 2 16.4484 35.5568 73.2011
16045 1 20.9294 37.194 74.615
16051 1 18.2016 35.5814 74.639
21665 2 20.0656 35.5944 75.6761
21666 2 19.1759 37.1706 73.1771
10401 2 11.8266 39.1707 -1.17868
10409 2 13.643 39.1378 -3.68226
4032 1 12.7331 40.7327 -2.64538
10414 2 10.9167 40.7106 -3.70564
4018 1 15.458 39.1593 -2.62156
10371 2 17.2828 39.1707 -1.17868
10399 2 14.5558 40.7435 -1.20255
10410 2 16.3729 40.7106 -3.70564
3972 1 20.9142 39.1593 -2.62156
10374 2 19.0992 39.1378 -3.68226
4016 1 18.1893 40.7327 -2.64538
10372 2 20.012 40.7435 -1.20255
10400 2 11.8288 42.317 -1.22678
10405 2 13.6466 42.2842 -3.72935
4028 1 12.7397 43.882 -2.694
10415 2 10.9204 43.8587 -3.75329
4017 1 15.4645 42.3069 -2.66957
10365 2 17.285 42.317 -1.22678
10402 2 14.558 43.8913 -1.25126
10403 2 16.3766 43.8587 -3.75329
3971 1 20.9207 42.3069 -2.66957
10373 2 19.1029 42.2842 -3.72935
4019 1 18.196 43.882 -2.694
10363 2 20.0142 43.8913 -1.25126
10390 2 11.831 45.4665 -1.27587
10404 2 13.6504 45.4343 -3.77732
4029 1 12.7467 47.0349 -2.7431
10412 2 10.9242 47.011 -3.80133
4010 1 15.4713 45.458 -2.71856
10364 2 17.2872 45.4665 -1.27587
10388 2 14.5602 47.0425 -1.30046
10406 2 16.3804 47.011 -3.80133
3970 1 20.9276 45.458 -2.71856
10368 2 19.1066 45.4343 -3.77732
4008 1 18.2029 47.0349 -2.7431
10366 2 20.0164 47.0425 -1.30046
10389 2 11.8331 48.6195 -1.32491
10394 2 13.6542 48.5887 -3.82517
4024 1 12.7538 50.1916 -2.79162
10413 2 10.928 50.1675 -3.84872
4009 1 15.4784 48.6127 -2.76751
10351 2 17.2894 48.6195 -1.32491
10391 2 14.5623 50.1974 -1.34907
10392 2 16.3843 50.1675 -3.84872
3963 1 20.9346 48.6127 -2.76751
10367 2 19.1105 48.5887 -3.82517
4011 1 18.21 50.1916 -2.79162
10349 2 20.0186 50.1974 -1.34907
10382 2 11.8353 51.7762 -1.37279
10393 2 13.6581 51.7475 -3.87182
4025 1 12.7608 53.3521 -2.83834
10411 2 10.9318 53.3286 -3.89433
3996 1 15.4854 51.7714 -2.81528
10350 2 17.2915 51.7762 -1.37279
10380 2 14.5645 53.3561 -1.39591
10395 2 16.3881 53.3286 -3.89433
3962 1 20.9417 51.7714 -2.81528
10354 2 19.1143 51.7475 -3.87182
3994 1 18.217 53.3521 -2.83834
10352 2 20.0207 53.3561 -1.39591
10381 2 11.8375 54.9369 -1.41827
10383 2 13.6619 54.9109 -3.91609
4415 1 12.7675 56.5163 -2.88205
10824 2 10.9356 56.4942 -3.93697
3995 1 15.4923 54.9338 -2.86065
10333 2 17.2937 54.9369 -1.41827
10815 2 14.5666 56.5188 -1.43974
10816 2 16.3918 56.4942 -3.93697
3947 1 20.9485 54.9338 -2.86065
10353 2 19.1181 54.9109 -3.91609
4404 1 18.2237 56.5163 -2.88205
10778 2 20.0229 56.5188 -1.43974
4014 1 13.6445 39.1899 0.0430212
4026 1 10.9178 40.7631 0.0189779
10398 2 12.7371 40.7789 1.34987
10361 2 15.4639 39.2058 1.37405
4015 1 16.3741 40.7631 0.0189779
3969 1 19.1007 39.1899 0.0430212
10308 2 20.9201 39.2058 1.37405
10359 2 18.1933 40.7789 1.34987
4006 1 13.6474 42.337 -0.00543419
4027 1 10.9208 43.9115 -0.0301001
10386 2 12.7397 43.9269 1.30048
10360 2 15.4665 42.3526 1.32531
4003 1 14.5587 43.9451 2.56498
4004 1 16.377 43.9115 -0.0301001
3968 1 19.1037 42.337 -0.00543419
10307 2 20.9227 42.3526 1.32531
3956 1 20.0149 43.9451 2.56498
10362 2 18.1959 43.9269 1.30048
3988 1 11.832 45.52 2.53975
4005 1 13.6504 45.4868 -0.054895
4022 1 10.9237 47.0629 -0.0796853
10387 2 12.7423 47.0774 1.25052
3957 1 17.2883 45.52 2.53975
10347 2 15.4691 45.5018 1.27551
3986 1 14.5616 47.0955 2.51449
4007 1 16.38 47.0629 -0.0796853
3961 1 19.1066 45.4868 -0.054895
10306 2 20.9253 45.5018 1.27551
3959 1 20.0179 47.0955 2.51449
10345 2 18.1985 47.0774 1.25052
3987 1 11.835 48.6717 2.48936
3992 1 13.6533 48.6398 -0.104329
4023 1 10.9267 50.2175 -0.128679
10378 2 12.7448 50.231 1.2011
3943 1 17.2912 48.6717 2.48936
10346 2 15.4717 48.6538 1.22567
3989 1 14.5645 50.2485 2.46451
3990 1 16.3829 50.2175 -0.128679
3960 1 19.1096 48.6398 -0.104329
10299 2 20.9279 48.6538 1.22567
3941 1 20.0208 50.2485 2.46451
10348 2 18.2011 50.231 1.2011
3980 1 11.8378 51.826 2.4401
3991 1 13.6562 51.796 -0.15258
4021 1 10.9295 53.3754 -0.175878
10379 2 12.7473 53.3876 1.15342
3942 1 17.2941 51.826 2.4401
10332 2 15.4742 51.8089 1.17697
3978 1 14.5673 53.4043 2.41627
3993 1 16.3858 53.3754 -0.175878
3946 1 19.1125 51.796 -0.15258
10298 2 20.9305 51.8089 1.17697
3944 1 20.0236 53.4043 2.41627
10330 2 18.2036 53.3876 1.15342
3979 1 11.8406 54.9832 2.39321
3981 1 13.6591 54.9556 -0.198414
4414 1 10.9323 56.5367 -0.220032
10805 2 12.7498 56.5475 1.10876
3925 1 17.2968 54.9832 2.39321
10331 2 15.4767 54.9672 1.13064
4396 1 14.5701 56.5628 2.37108
4397 1 16.3886 56.5367 -0.220032
3945 1 19.1153 54.9556 -0.198414
10283 2 20.9329 54.9672 1.13064
4349 1 20.0263 56.5628 2.37108
10777 2 18.206 56.5475 1.10876
4002 1 11.8261 39.2237 2.63925
10357 2 13.6448 39.2399 3.94033
3999 1 12.7369 40.8303 5.19544
10384 2 10.9181 40.8131 3.9159
3966 1 17.2824 39.2237 2.63925
4000 1 14.5557 40.797 2.61485
3954 1 15.4634 39.257 5.22014
10358 2 16.3744 40.8131 3.9159
3967 1 20.0119 40.797 2.61485
3900 1 20.9196 39.257 5.22014
10305 2 19.101 39.2399 3.94033
3952 1 18.1931 40.8303 5.19544
4001 1 11.8291 42.3708 2.59006
10343 2 13.6478 42.3868 3.89106
3984 1 12.7402 43.978 5.14484
10385 2 10.9212 43.9609 3.86592
3958 1 17.2853 42.3708 2.59006
3953 1 15.4666 42.404 5.17031
10341 2 16.3774 43.9609 3.86592
3899 1 20.9229 42.404 5.17031
10304 2 19.104 42.3868 3.89106
3955 1 18.1964 43.978 5.14484
10342 2 13.6508 45.5355 3.84061
3985 1 12.7434 47.1274 5.09347
10376 2 10.9242 47.1106 3.81526
3939 1 15.4699 45.5525 5.11919
10344 2 16.3805 47.1106 3.81526
3898 1 20.9262 45.5525 5.11919
10297 2 19.1071 45.5355 3.84061
3937 1 18.1997 47.1274 5.09347
10328 2 13.6538 48.6864 3.79002
3976 1 12.7466 50.2787 5.04246
10377 2 10.9272 50.2627 3.76504
3938 1 15.4732 48.7028 5.06784
10326 2 16.3834 50.2627 3.76504
3891 1 20.9294 48.7028 5.06784
10296 2 19.1101 48.6864 3.79002
3940 1 18.2029 50.2787 5.04246
10327 2 13.6568 51.8397 3.74048
3977 1 12.7498 53.432 4.99352
10375 2 10.9301 53.4173 3.7165
3924 1 15.4763 51.8552 5.01748
10329 2 16.3863 53.4173 3.7165
3890 1 20.9326 51.8552 5.01748
10282 2 19.113 51.8397 3.74048
3922 1 18.206 53.432 4.99352
10317 2 13.6596 54.9955 3.69327
4382 1 12.7527 56.5878 4.94722
10804 2 10.9329 56.5745 3.67095
3923 1 15.4794 55.0096 4.9699
10764 2 16.3891 56.5745 3.67095
3876 1 20.9356 55.0096 4.9699
10281 2 19.1159 54.9955 3.69327
4348 1 18.209 56.5878 4.94722
3950 1 13.644 39.2893 7.79664
10339 2 11.8255 39.273 6.51156
3982 1 10.9177 40.8626 7.77172
10336 2 12.736 40.8786 9.0602
10290 2 15.4622 39.3053 9.08504
10302 2 17.2818 39.273 6.51156
3951 1 16.3739 40.8626 7.77172
10337 2 14.5554 40.8463 6.48689
3897 1 19.1003 39.2893 7.79664
10248 2 20.9185 39.3053 9.08504
10288 2 18.1922 40.8786 9.0602
10303 2 20.0116 40.8463 6.48689
3935 1 13.6476 42.4361 7.74631
10338 2 11.8289 42.4198 6.46177
3983 1 10.9214 44.0097 7.72052
10320 2 12.7398 44.0254 9.0091
10289 2 15.466 42.4519 9.03485
10294 2 17.2852 42.4198 6.46177
3933 1 16.3776 44.0097 7.72052
10340 2 14.5588 43.9937 6.4363
3896 1 19.1039 42.4361 7.74631
10247 2 20.9222 42.4519 9.03485
10291 2 18.196 44.0254 9.0091
10292 2 20.015 43.9937 6.4363
3934 1 13.6513 45.5837 7.69447
10324 2 11.8324 45.5678 6.41062
3974 1 10.925 47.158 7.66832
10321 2 12.7436 47.173 8.95689
10275 2 15.4698 45.5991 8.98307
10293 2 17.2886 45.5678 6.41062
3936 1 16.3812 47.158 7.66832
10322 2 14.5622 47.1424 6.38486
3889 1 19.1075 45.5837 7.69447
10246 2 20.926 45.5991 8.98307
10273 2 18.1998 47.173 8.95689
10295 2 20.0184 47.1424 6.38486
3920 1 13.6549 48.7326 7.6422
10323 2 11.8358 48.7174 6.35917
3975 1 10.9286 50.3075 7.6163
10312 2 12.7473 50.3218 8.90473
10274 2 15.4736 48.7472 8.93072
10279 2 17.292 48.7174 6.35917
3918 1 16.3848 50.3075 7.6163
10325 2 14.5656 50.2928 6.33371
3888 1 19.1112 48.7326 7.6422
10240 2 20.9298 48.7472 8.93072
10276 2 18.2036 50.3218 8.90473
10277 2 20.0218 50.2928 6.33371
3919 1 13.6584 51.883 7.59082
10316 2 11.8391 51.8687 6.30866
3973 1 10.932 53.4589 7.56588
10313 2 12.751 53.4719 8.85393
10263 2 15.4773 51.8966 8.87908
10278 2 17.2953 51.8687 6.30866
3921 1 16.3883 53.4589 7.56588
10314 2 14.5688 53.4452 6.28417
3875 1 19.1147 51.883 7.59082
10239 2 20.9335 51.8966 8.87908
10261 2 18.2072 53.4719 8.85393
10280 2 20.0251 53.4452 6.28417
3909 1 13.6618 55.0353 7.54163
10315 2 11.8423 55.0222 6.26038
4381 1 10.9353 56.6122 7.51827
10743 2 12.7545 56.6239 8.80594
10262 2 15.4809 55.0477 8.82949
10264 2 17.2985 55.0222 6.26038
4333 1 16.3916 56.6122 7.51827
10763 2 14.5719 56.5998 6.23749
3874 1 19.118 55.0353 7.54163
10232 2 20.9371 55.0477 8.82949
10708 2 18.2107 56.6239 8.80594
10709 2 20.0282 56.5998 6.23749
3931 1 11.8243 39.3213 10.3722
10286 2 13.6423 39.3375 11.6598
10318 2 10.9162 40.9107 11.6349
3894 1 17.2805 39.3213 10.3722
3929 1 14.5544 40.8945 10.3471
10287 2 16.3724 40.9107 11.6349
10245 2 19.0986 39.3375 11.6598
3895 1 20.0106 40.8945 10.3471
3930 1 11.8282 42.4677 10.3215
10271 2 13.6463 42.4839 11.6093
10319 2 10.9203 44.0571 11.5834
3886 1 17.2845 42.4677 10.3215
3932 1 14.5584 44.041 10.2955
10269 2 16.3765 44.0571 11.5834
10244 2 19.1026 42.4839 11.6093
3884 1 20.0146 44.041 10.2955
3916 1 11.8323 45.6144 10.2691
10270 2 13.6505 45.6302 11.557
10310 2 10.9245 47.2035 11.5304
3885 1 17.2885 45.6144 10.2691
3914 1 14.5624 47.188 10.2425
10272 2 16.3807 47.2035 11.5304
10238 2 19.1067 45.6302 11.557
3887 1 20.0186 47.188 10.2425
3915 1 11.8363 48.7617 10.2159
10259 2 13.6547 48.7768 11.5037
10311 2 10.9287 50.3504 11.4772
3872 1 17.2925 48.7617 10.2159
3917 1 14.5664 50.3358 10.1894
10257 2 16.385 50.3504 11.4772
10237 2 19.111 48.7768 11.5037
3870 1 20.0226 50.3358 10.1894
3908 1 11.8402 51.9101 10.1632
10258 2 13.6589 51.9242 11.4508
10309 2 10.9329 53.4983 11.425
3871 1 17.2965 51.9101 10.1632
3906 1 14.5703 53.4848 10.1375
10260 2 16.3891 53.4983 11.425
10231 2 19.1152 51.9242 11.4508
3873 1 20.0265 53.4848 10.1375
3907 1 11.844 55.06 10.1125
10252 2 13.663 55.0727 11.3997
10742 2 10.9369 56.6475 11.3754
3861 1 17.3003 55.06 10.1125
4332 1 14.574 56.6355 10.0884
10693 2 16.3931 56.6475 11.3754
10230 2 19.1192 55.0727 11.3997
4277 1 20.0302 56.6355 10.0884
3878 1 13.6397 39.3867 15.5243
10267 2 11.8219 39.3702 14.2354
3928 1 12.7343 40.9267 12.9229
3877 1 16.3658 37.8131 15.5485
3882 1 15.4604 39.3535 12.948
10242 2 17.2782 39.3702 14.2354
10265 2 14.5521 40.9435 14.2105
854 1 21.822 37.8131 15.5485
3849 1 19.0959 39.3867 15.5243
3852 1 20.9166 39.3535 12.948
3880 1 18.1906 40.9267 12.9229
10243 2 20.0084 40.9435 14.2105
3864 1 13.6441 42.5328 15.4736
3910 1 10.9137 40.9599 15.4993
10266 2 11.8262 42.5165 14.1849
3912 1 12.7386 44.0726 12.8709
3879 1 16.37 40.9599 15.4993
3881 1 15.4646 42.4997 12.8972
10235 2 17.2824 42.5165 14.1849
10268 2 14.5565 44.0894 14.1588
3848 1 19.1003 42.5328 15.4736
3851 1 20.9208 42.4997 12.8972
3883 1 18.1949 44.0726 12.8709
10233 2 20.0127 44.0894 14.1588
3863 1 13.6488 45.6778 15.4203
3911 1 10.9183 44.1054 15.4472
10255 2 11.8307 45.6621 14.1322
3913 1 12.7431 47.2183 12.8172
3902 1 10.9231 47.25 15.393
3862 1 16.3745 44.1054 15.4472
3868 1 15.4689 45.6455 12.8442
10234 2 17.2869 45.6621 14.1322
10253 2 14.5611 47.2346 14.1052
3865 1 16.3794 47.25 15.393
3845 1 19.105 45.6778 15.4203
3850 1 20.9252 45.6455 12.8442
10236 2 20.0174 47.2346 14.1052
3866 1 18.1993 47.2183 12.8172
3904 1 12.7475 50.3642 12.7629
3856 1 13.6537 48.822 15.3653
10254 2 11.8354 48.8072 14.078
3903 1 10.9281 50.3939 15.3375
3867 1 15.4734 48.7912 12.7901
10228 2 17.2916 48.8072 14.078
10256 2 14.5658 50.3797 14.0508
3854 1 16.3844 50.3939 15.3375
3869 1 18.2038 50.3642 12.7629
3844 1 19.11 48.822 15.3653
3847 1 20.9297 48.7912 12.7901
10226 2 20.0221 50.3797 14.0508
3905 1 12.7519 53.5109 12.7095
10251 2 11.8401 51.9523 14.0237
3855 1 13.6588 51.9659 15.3098
3901 1 10.9331 53.538 15.2823
10227 2 17.2963 51.9523 14.0237
3860 1 15.4779 51.9374 12.736
10249 2 14.5706 53.5251 13.997
3857 1 16.3894 53.538 15.2823
10229 2 20.0268 53.5251 13.997
3846 1 20.9341 51.9374 12.736
3842 1 19.115 51.9659 15.3098
3858 1 18.2082 53.5109 12.7095
10250 2 11.8448 55.0982 13.9709
3853 1 13.6637 55.1103 15.2554
4311 1 12.7562 56.6587 12.6586
4310 1 10.9381 56.6829 15.2293
10225 2 17.301 55.0982 13.9709
3859 1 15.4822 55.0846 12.6836
4261 1 16.3943 56.6829 15.2293
10692 2 14.5752 56.6715 13.9456
4276 1 18.2124 56.6587 12.6586
3843 1 20.9384 55.0846 12.6836
3841 1 19.12 55.1103 15.2554
10649 2 20.0314 56.6715 13.9456
10607 2 12.7272 37.8303 16.8358
4222 1 11.8185 39.4213 18.1012
4224 1 14.5446 37.8473 18.1251
10594 2 15.4573 39.4041 16.8118
4199 1 17.2747 39.4213 18.1012
10596 2 18.1834 37.8303 16.8358
4198 1 20.0009 37.8473 18.1251
10548 2 20.9135 39.4041 16.8118
10608 2 12.7313 40.9776 16.787
4221 1 11.8229 42.5678 18.0509
4220 1 14.5488 40.9948 18.0765
10593 2 15.4616 42.5506 16.7615
4195 1 17.2792 42.5678 18.0509
10592 2 18.1875 40.9776 16.787
4200 1 20.005 40.9948 18.0765
10547 2 20.9179 42.5506 16.7615
10604 2 12.7358 44.1233 16.7353
4215 1 11.8279 45.7123 17.9976
10586 2 15.4664 45.6956 16.7086
4194 1 17.2841 45.7123 17.9976
4223 1 14.5535 44.1403 18.0246
10595 2 18.1921 44.1233 16.7353
4193 1 20.0097 44.1403 18.0246
10546 2 20.9227 45.6956 16.7086
10605 2 12.7408 47.2675 16.6813
4214 1 11.8333 48.8551 17.9419
10568 2 13.6507 48.8742 19.2306
10585 2 15.4716 48.8393 16.6536
4183 1 17.2895 48.8551 17.9419
4213 1 14.5587 47.2839 17.97
4196 1 20.0149 47.2839 17.97
10536 2 19.107 48.8742 19.2306
10539 2 20.9278 48.8393 16.6536
10584 2 18.1971 47.2675 16.6813
10600 2 12.7461 50.4108 16.6258
10599 2 10.9256 50.4448 19.2021
4208 1 11.839 51.9967 17.8849
10567 2 13.6567 52.0151 19.1734
4182 1 17.2952 51.9967 17.8849
4216 1 14.5642 50.426 17.9134
10566 2 16.3818 50.4448 19.2021
10572 2 15.4769 51.9822 16.5979
10587 2 18.2023 50.4108 16.6258
4181 1 20.0205 50.426 17.9134
10522 2 19.113 52.0151 19.1734
10538 2 20.9331 51.9822 16.5979
10601 2 12.7515 53.5537 16.5702
10597 2 10.9317 53.5851 19.1447
4207 1 11.8447 55.1381 17.8282
10557 2 13.6629 55.1551 19.1163
11015 2 12.7568 56.697 16.5165
4165 1 17.301 55.1381 17.8282
4206 1 14.57 53.5674 17.8564
10569 2 16.3879 53.5851 19.1447
10571 2 15.4823 55.1252 16.543
4184 1 20.0262 53.5674 17.8564
10521 2 19.1192 55.1551 19.1163
10523 2 20.9385 55.1252 16.543
10570 2 18.2077 53.5537 16.5702
11004 2 18.2131 56.697 16.5165
10590 2 13.6359 39.4398 19.3887
4218 1 12.7231 37.8834 20.702
10578 2 11.814 39.4777 21.9659
10588 2 14.5404 37.9024 21.989
10589 2 16.3621 37.8654 19.4123
4191 1 15.453 39.4581 20.6785
10542 2 17.2703 39.4777 21.9659
4197 1 18.1793 37.8834 20.702
10545 2 19.0921 39.4398 19.3887
4140 1 20.9093 39.4581 20.6785
10541 2 19.9966 37.9024 21.989
7342 2 21.8183 37.8654 19.4123
10582 2 13.6402 42.5869 19.339
4219 1 12.727 41.0321 20.6542
10577 2 11.8181 42.6261 21.9171
10576 2 14.5441 41.0523 21.9419
10591 2 16.3661 41.0137 19.3643
4190 1 15.4573 42.6055 20.629
10534 2 17.2743 42.6261 21.9171
4189 1 18.1832 41.0321 20.6542
10544 2 19.0964 42.5869 19.339
4139 1 20.9136 42.6055 20.629
10543 2 20.0003 41.0523 21.9419
7338 2 21.8223 41.0137 19.3643
10603 2 10.9145 44.1596 19.3129
10581 2 13.6452 45.7317 19.2861
4211 1 12.7316 44.1781 20.6029
10564 2 11.823 45.7713 21.8647
10579 2 14.5486 44.1991 21.8913
10580 2 16.3707 44.1596 19.3129
4179 1 15.4624 45.75 20.576
10533 2 17.2793 45.7713 21.8647
10537 2 19.1014 45.7317 19.2861
4138 1 20.9186 45.75 20.576
4192 1 18.1879 44.1781 20.6029
10532 2 20.0048 44.1991 21.8913
10598 2 10.9198 47.3032 19.2586
4212 1 12.7371 47.3211 20.5483
10563 2 11.8289 48.9132 21.809
10583 2 16.376 47.3032 19.2586
4178 1 15.4682 48.8917 20.5199
10519 2 17.2851 48.9132 21.809
10562 2 14.554 47.3426 21.8372
4131 1 20.9244 48.8917 20.5199
4177 1 18.1933 47.3211 20.5483
10535 2 20.0102 47.3426 21.8372
4204 1 12.7432 50.4616 20.491
10556 2 11.8355 52.0522 21.7507
4164 1 15.4745 52.0311 20.4616
10518 2 17.2918 52.0522 21.7507
10565 2 14.5602 50.483 21.7801
4130 1 20.9308 52.0311 20.4616
4180 1 18.1994 50.4616 20.491
10517 2 20.0165 50.483 21.7801
4205 1 12.7497 53.6003 20.432
10555 2 11.8427 55.1892 21.6911
4163 1 15.4812 55.1693 20.4025
10501 2 17.2989 55.1892 21.6911
10554 2 14.5672 53.6209 21.7209
4115 1 20.9374 55.1693 20.4025
4162 1 18.2059 53.6003 20.432
10520 2 20.0234 53.6209 21.7209
4171 1 11.8085 39.5392 25.833
4187 1 13.6309 39.4973 23.256
10574 2 12.7185 37.9417 24.5654
4185 1 14.5354 37.962 25.855
4134 1 17.2648 39.5392 25.833
4186 1 16.3574 37.9216 23.2787
10530 2 15.4481 39.5182 24.543
10540 2 18.1748 37.9417 24.5654
4133 1 19.9916 37.962 25.855
4137 1 19.0871 39.4973 23.256
10476 2 20.9043 39.5182 24.543
1145 1 21.8136 37.9216 23.2787
4170 1 11.8118 42.6908 25.7862
4175 1 13.6348 42.6463 23.2076
10575 2 12.7216 41.0939 24.5196
4169 1 14.5382 41.1155 25.8101
4126 1 17.268 42.6908 25.7862
4188 1 16.3609 41.0722 23.2322
10529 2 15.4517 42.6686 24.4954
10528 2 18.1779 41.0939 24.5196
4135 1 19.9944 41.1155 25.8101
4136 1 19.0911 42.6463 23.2076
10475 2 20.9079 42.6686 24.4954
1137 1 21.8171 41.0722 23.2322
4156 1 11.8162 45.8382 25.7355
4174 1 13.6397 45.7917 23.1555
10560 2 12.7257 44.2425 24.4702
4172 1 14.542 44.2651 25.7613
4125 1 17.2724 45.8382 25.7355
4173 1 16.3653 44.2195 23.182
10515 2 15.4563 45.8152 24.444
10531 2 18.182 44.2425 24.4702
4124 1 19.9982 44.2651 25.7613
4129 1 19.096 45.7917 23.1555
10474 2 20.9125 45.8152 24.444
1138 1 21.8215 44.2195 23.182
4155 1 11.822 48.9805 25.6805
4160 1 13.6457 48.9331 23.0995
4202 1 10.9145 47.3629 23.128
10561 2 12.7309 47.3869 24.4169
4154 1 14.547 47.41 25.7085
4111 1 17.2782 48.9805 25.6805
4176 1 16.3707 47.3629 23.128
10514 2 15.4621 48.9575 24.3887
10513 2 18.1872 47.3869 24.4169
4127 1 20.0033 47.41 25.7085
4128 1 19.1019 48.9331 23.0995
10467 2 20.9184 48.9575 24.3887
4148 1 11.8293 52.1175 25.621
4159 1 13.6527 52.0707 23.0402
4203 1 10.921 50.5023 23.0702
10552 2 12.7374 50.527 24.3596
4110 1 17.2856 52.1175 25.621
4157 1 14.5536 50.5497 25.6513
4158 1 16.3772 50.5023 23.0702
10500 2 15.4692 52.0954 24.3297
4109 1 20.0098 50.5497 25.6513
4114 1 19.1089 52.0707 23.0402
10466 2 20.9255 52.0954 24.3297
10516 2 18.1937 50.527 24.3596
4147 1 11.838 55.2493 25.5573
4149 1 13.6603 55.2056 22.9786
4201 1 10.9283 53.6384 23.0095
10553 2 12.7451 53.6628 24.299
4094 1 17.2942 55.2493 25.5573
4146 1 14.5616 53.6839 25.5896
4161 1 16.3846 53.6384 23.0095
10499 2 15.4774 55.2294 24.2679
10498 2 18.2013 53.6628 24.299
10452 2 20.9336 55.2294 24.2679
4112 1 20.0179 53.6839 25.5896
4113 1 19.1166 55.2056 22.9786
4167 1 12.7135 38.0047 28.4303
10526 2 13.6258 39.5613 27.1194
4122 1 15.4424 39.5838 28.4091
10525 2 16.3529 37.9832 27.141
4132 1 18.1697 38.0047 28.4303
4074 1 20.8987 39.5838 28.4091
10473 2 19.0821 39.5613 27.1194
7309 2 21.8091 37.9832 27.141
4168 1 12.7154 41.162 28.3871
10511 2 13.6286 42.7149 27.0734
4121 1 15.4448 42.7392 28.3641
10527 2 16.3552 41.1386 27.0968
4120 1 18.1716 41.162 28.3871
4073 1 20.901 42.7392 28.3641
10472 2 19.0849 42.7149 27.0734
7294 2 21.8115 41.1386 27.0968
4152 1 12.7182 44.3152 28.3402
10510 2 13.6326 45.8641 27.0235
4107 1 15.4482 45.89 28.3153
10509 2 16.3585 44.2901 27.049
4123 1 18.1745 44.3152 28.3402
4072 1 20.9045 45.89 28.3153
10465 2 19.0888 45.8641 27.0235
7295 2 21.8148 44.2901 27.049
4153 1 12.7224 47.4633 28.2893
10496 2 13.638 49.0082 26.9694
4106 1 15.4533 49.0351 28.2621
10512 2 16.3632 47.4368 26.997
4105 1 18.1787 47.4633 28.2893
4065 1 20.9096 49.0351 28.2621
10464 2 19.0942 49.0082 26.9694
7286 2 21.8194 47.4368 26.997
4144 1 12.7285 50.6051 28.2336
10495 2 13.6451 52.1462 26.9105
10551 2 10.9132 50.578 26.9406
4093 1 15.4604 52.1732 28.2037
10494 2 16.3694 50.578 26.9406
4108 1 18.1847 50.6051 28.2336
4064 1 20.9167 52.1732 28.2037
10451 2 19.1014 52.1462 26.9105
4145 1 12.7367 53.7393 28.1723
10485 2 13.6541 55.2783 26.847
10549 2 10.9213 53.713 26.8793
4092 1 15.4698 55.3035 28.1393
10497 2 16.3775 53.713 26.8793
4053 1 20.926 55.3035 28.1393
4091 1 18.193 53.7393 28.1723
10450 2 19.1104 55.2783 26.847
4118 1 13.6205 39.6309 30.9836
10503 2 12.7104 38.0724 32.2879
10507 2 11.8038 39.607 29.6945
10524 2 14.5313 38.0268 29.7154
4117 1 16.3483 38.0495 31.004
10458 2 15.4386 39.6551 32.2678
10470 2 17.26 39.607 29.6945
10468 2 18.1667 38.0724 32.2879
4071 1 19.0768 39.6309 30.9836
10428 2 20.8949 39.6551 32.2678
10469 2 19.9876 38.0268 29.7154
1094 1 21.8046 38.0495 31.004
4103 1 13.6217 42.7911 30.9405
10504 2 12.7107 41.237 32.2469
10506 2 11.8056 42.7648 29.6503
10505 2 14.5327 41.1864 29.6728
4119 1 16.3491 41.2114 30.9625
10457 2 15.4392 42.8182 32.2252
10462 2 17.2618 42.7648 29.6503
10456 2 18.1669 41.237 32.2469
4070 1 19.0779 42.7911 30.9405
10427 2 20.8954 42.8182 32.2252
10471 2 19.9889 41.1864 29.6728
1078 1 21.8053 41.2114 30.9625
4102 1 13.6238 45.9471 30.8939
10488 2 12.7117 44.3983 32.2028
10492 2 11.8084 45.9182 29.6024
10508 2 14.5349 44.3421 29.6268
4101 1 16.3507 44.3697 30.9177
10444 2 15.4406 45.9773 32.1794
10461 2 17.2646 45.9182 29.6024
10459 2 18.1679 44.3983 32.2028
4063 1 19.08 45.9471 30.8939
10426 2 20.8969 45.9773 32.1794
10460 2 19.9912 44.3421 29.6268
1079 1 21.8069 44.3697 30.9177
4089 1 13.6275 49.0972 30.8433
10489 2 12.7137 47.555 32.155
10491 2 11.8128 49.0659 29.5501
10490 2 14.5385 47.4929 29.5768
4104 1 16.3535 47.523 30.8692
10443 2 15.4434 49.131 32.1295
10448 2 17.269 49.0659 29.5501
10442 2 18.1699 47.555 32.155
4062 1 19.0838 49.0972 30.8433
10423 2 20.8996 49.131 32.1295
10463 2 19.9947 47.4929 29.5768
1070 1 21.8098 47.523 30.8692
4088 1 13.6335 52.2396 30.7874
10480 2 12.7174 50.7052 32.1027
10484 2 11.8193 52.2065 29.4926
10493 2 14.5438 50.6372 29.5221
4087 1 16.3583 50.6695 30.8161
10436 2 15.4483 52.2772 32.0743
10447 2 17.2755 52.2065 29.4926
10445 2 18.1736 50.7052 32.1027
4052 1 19.0898 52.2396 30.7874
10422 2 20.9045 52.2772 32.0743
10446 2 20.0001 50.6372 29.5221
1071 1 21.8145 50.6695 30.8161
4080 1 13.6426 55.3716 30.7246
10481 2 12.7237 53.8466 32.0442
10483 2 11.8284 55.3385 29.4287
4090 1 16.3658 53.8071 30.757
10435 2 15.4563 55.413 32.012
10437 2 17.2847 55.3385 29.4287
10482 2 14.5516 53.7736 29.4615
10434 2 18.1799 53.8466 32.0442
4051 1 19.0989 55.3716 30.7246
10419 2 20.9125 55.413 32.012
10449 2 20.0079 53.7736 29.4615
1069 1 21.822 53.8071 30.757
4099 1 11.7994 39.6801 33.5559
10454 2 13.6182 39.705 34.8386
4116 1 14.5277 38.096 33.5756
4068 1 17.2556 39.6801 33.5559
10453 2 16.3467 38.1196 34.8581
4067 1 19.984 38.096 33.5756
10425 2 19.0744 39.705 34.8386
7238 2 21.803 38.1196 34.8581
4098 1 11.7993 42.8462 33.5144
10440 2 13.6176 42.8743 34.7974
4097 1 14.5274 41.2635 33.5355
4060 1 17.2555 42.8462 33.5144
10455 2 16.346 41.29 34.8183
4069 1 19.9836 41.2635 33.5355
10424 2 19.0738 42.8743 34.7974
7222 2 21.8022 41.29 34.8183
4085 1 11.7998 46.0089 33.4701
10439 2 13.6175 46.0406 34.7533
4100 1 14.5275 44.428 33.4927
4059 1 17.256 46.0089 33.4701
10438 2 16.3456 44.4579 34.7757
4058 1 19.9838 44.428 33.4927
10421 2 19.0737 46.0406 34.7533
7223 2 21.8018 44.4579 34.7757
4083 1 14.5286 47.5885 33.4467
4084 1 11.8016 49.1667 33.4223
10432 2 13.6183 49.2027 34.7057
10441 2 16.3459 47.6223 34.73
4049 1 17.2578 49.1667 33.4223
10420 2 19.0746 49.2027 34.7057
4061 1 19.9848 47.5885 33.4467
7214 2 21.8021 47.6223 34.73
4086 1 14.5313 50.7431 33.3969
10431 2 13.6208 52.3582 34.6534
4079 1 11.8054 52.3173 33.3701
10430 2 16.3474 50.7815 34.6802
4048 1 17.2616 52.3173 33.3701
10418 2 19.077 52.3582 34.6534
4047 1 19.9875 50.7431 33.3969
7215 2 21.8036 50.7815 34.6802
4077 1 14.5366 53.8889 33.3419
10429 2 13.626 55.5034 34.594
4078 1 11.8126 55.4572 33.3118
4076 1 12.7066 53.985 35.9232
10433 2 16.3511 53.9325 34.6248
4042 1 17.2688 55.4572 33.3118
4040 1 15.4366 55.5619 35.8966
4039 1 18.1628 53.985 35.9232
10417 2 19.0823 55.5034 34.594
4050 1 19.9928 53.8889 33.3419
7213 2 21.8073 53.9325 34.6248
4033 1 20.8928 55.5619 35.8966
10630 2 11.7991 39.7563 37.4063
16397 1 13.6173 39.7827 38.6916
4095 1 12.7083 38.1439 36.1445
10632 2 14.5281 38.1678 37.4256
10619 2 17.2554 39.7563 37.4063
16396 1 16.3465 38.1926 38.7106
4056 1 15.4357 39.7309 36.1253
4066 1 18.1645 38.1439 36.1445
10618 2 19.9843 38.1678 37.4256
16362 1 19.0736 39.7827 38.6916
4038 1 20.8919 39.7309 36.1253
13584 1 21.8027 38.1926 38.7106
10629 2 11.7975 42.9324 37.3659
16393 1 13.6151 42.9627 38.6518
4096 1 12.7069 41.3175 36.1055
10628 2 14.5264 41.3445 37.3864
10616 2 17.2538 42.9324 37.3659
16398 1 16.3443 41.3728 38.6719
4055 1 15.4344 42.9037 36.0851
4054 1 18.1631 41.3175 36.1055
10620 2 19.9827 41.3445 37.3864
16361 1 19.0713 42.9627 38.6518
4037 1 20.8906 42.9037 36.0851
13582 1 21.8006 41.3728 38.6719
10626 2 11.7961 46.1069 37.3228
16392 1 13.6127 46.1424 38.6097
4081 1 12.7057 44.4894 36.0641
10631 2 14.5249 44.5199 37.3447
10615 2 17.2523 46.1069 37.3228
16391 1 16.342 44.5526 38.631
4045 1 15.4333 46.0745 36.0424
4057 1 18.1619 44.4894 36.0641
10614 2 19.9811 44.5199 37.3447
16356 1 19.069 46.1424 38.6097
4036 1 20.8896 46.0745 36.0424
13583 1 21.7983 44.5526 38.631
10625 2 11.795 49.2793 37.2767
16382 1 13.6103 49.3221 38.5655
4082 1 12.7049 47.6588 36.0201
10624 2 14.5236 47.6935 37.3002
10612 2 17.2513 49.2793 37.2767
16394 1 16.3397 47.7322 38.5879
4044 1 15.4329 49.2423 35.9971
4043 1 18.1611 47.6588 36.0201
10617 2 19.9799 47.6935 37.3002
16355 1 19.0665 49.3221 38.5655
4035 1 20.8891 49.2423 35.9971
13580 1 21.7959 47.7322 38.5879
10623 2 11.7948 52.4477 37.2265
16381 1 13.6076 52.5023 38.5192
4075 1 12.7049 50.8247 35.9733
10627 2 14.5229 50.8641 37.2522
10611 2 17.2511 52.4477 37.2265
16380 1 16.3372 50.912 38.5426
4041 1 15.4336 52.4058 35.9487
4046 1 18.1611 50.8247 35.9733
10610 2 19.9792 50.8641 37.2522
16342 1 19.0639 52.5023 38.5192
4034 1 20.8898 52.4058 35.9487
13581 1 21.7934 50.912 38.5426
10622 2 11.7964 55.6091 37.1697
16371 1 13.6037 55.6851 38.4712
10621 2 14.5234 54.0296 37.1992
10609 2 17.2527 55.6091 37.1697
16383 1 16.3341 54.093 38.4953
10613 2 19.9797 54.0296 37.1992
16341 1 19.0599 55.6851 38.4712
13579 1 21.7903 54.093 38.4953
22019 2 12.7109 38.2167 39.9901
22002 2 13.6221 39.8603 42.5319
16389 1 11.8006 39.835 41.2544
16395 1 14.53 38.2417 41.2736
22006 2 15.4379 39.8082 39.9708
22001 2 16.3514 38.2656 42.5515
16359 1 17.2569 39.835 41.2544
22008 2 18.1671 38.2167 39.9901
16358 1 19.9863 38.2417 41.2736
21957 2 19.0784 39.8603 42.5319
21960 2 20.8941 39.8082 39.9708
19198 2 21.8077 38.2656 42.5515
22020 2 12.7087 41.3998 39.9509
16388 1 11.7979 43.0223 41.2141
21994 2 13.6196 43.0504 42.4906
16387 1 14.5274 41.4285 41.2345
22005 2 15.4356 42.9914 39.9303
22003 2 16.349 41.4552 42.5116
16353 1 17.2541 43.0223 41.2141
22004 2 18.1649 41.3998 39.9509
16360 1 19.9837 41.4285 41.2345
21956 2 19.0758 43.0504 42.4906
21959 2 20.8919 42.9914 39.9303
19194 2 21.8052 41.4552 42.5116
22016 2 12.7063 44.583 39.9091
16378 1 11.7948 46.2112 41.1715
21993 2 13.6168 46.2423 42.4462
16390 1 14.5245 44.6165 41.1931
21998 2 15.4333 46.1747 39.8872
16352 1 17.251 46.2112 41.1715
21992 2 16.3463 44.6461 42.4688
22007 2 18.1626 44.583 39.9091
16351 1 19.9808 44.6165 41.1931
21949 2 19.0731 46.2423 42.4462
21958 2 20.8895 46.1747 39.8872
19195 2 21.8026 44.6461 42.4688
22017 2 12.704 47.7664 39.8646
16377 1 11.7912 49.403 41.1264
21980 2 13.6139 49.4368 42.3983
16376 1 14.5212 47.8066 41.1493
21997 2 15.431 49.3582 39.841
16339 1 17.2474 49.403 41.1264
21995 2 16.3435 47.8392 42.4228
21996 2 18.1602 47.7664 39.8646
16354 1 19.9774 47.8066 41.1493
21948 2 19.0702 49.4368 42.3983
21951 2 20.8872 49.3582 39.841
19190 2 21.7998 47.8392 42.4228
22012 2 12.7017 50.95 39.8165
16370 1 11.7865 52.6003 41.0787
21979 2 13.611 52.6351 42.3453
16379 1 14.5172 51.0007 41.1029
16338 1 17.2428 52.6003 41.0787
21978 2 16.3406 51.0354 42.3726
21984 2 15.4289 52.5418 39.7906
21999 2 18.158 50.95 39.8165
16337 1 19.9734 51.0007 41.1029
21934 2 19.0672 52.6351 42.3453
21950 2 20.8851 52.5418 39.7906
19191 2 21.7968 51.0354 42.3726
22013 2 12.6999 54.1337 39.7632
16369 1 11.7791 55.8088 41.0278
21969 2 13.6076 55.84 42.2845
16368 1 14.5114 54.2025 41.0537
16321 1 17.2353 55.8088 41.0278
21981 2 16.3375 54.2365 42.3161
21983 2 15.4273 55.7255 39.7336
21982 2 18.1562 54.1337 39.7632
16340 1 19.9677 54.2025 41.0537
21933 2 19.0639 55.84 42.2845
21935 2 20.8836 55.7255 39.7336
19189 2 21.7938 54.2365 42.3161
16385 1 12.7152 38.2908 43.8335
21990 2 11.808 39.9118 45.0898
22000 2 14.5373 38.3143 45.1101
16349 1 15.442 39.8871 43.8138
21954 2 17.2642 39.9118 45.0898
16357 1 18.1714 38.2908 43.8335
16296 1 20.8982 39.8871 43.8138
21953 2 19.9935 38.3143 45.1101
16386 1 12.7124 41.484 43.7934
21989 2 11.8054 43.1086 45.0469
21988 2 14.5349 41.5099 45.0688
16348 1 15.4391 43.0814 43.7722
21946 2 17.2617 43.1086 45.0469
16347 1 18.1687 41.484 43.7934
16295 1 20.8953 43.0814 43.7722
21955 2 19.9911 41.5099 45.0688
16374 1 12.7094 44.6797 43.7504
21976 2 11.8027 46.3084 45.0004
21991 2 14.5322 44.708 45.0241
16335 1 15.4358 46.279 43.7278
21945 2 17.259 46.3084 45.0004
16350 1 18.1656 44.6797 43.7504
16294 1 20.8921 46.279 43.7278
21944 2 19.9885 44.708 45.0241
16375 1 12.7059 47.8795 43.7043
21975 2 11.7998 49.5126 44.9494
21974 2 14.5294 47.9098 44.9755
16334 1 15.432 49.4817 43.68
21931 2 17.2561 49.5126 44.9494
16333 1 18.1621 47.8795 43.7043
16287 1 20.8882 49.4817 43.68
21947 2 19.9857 47.9098 44.9755
16366 1 12.7016 51.086 43.6545
21968 2 11.7966 52.7232 44.8925
21977 2 14.5264 51.1169 44.9219
16320 1 15.4271 52.693 43.6278
21930 2 17.2528 52.7232 44.8925
16336 1 18.1578 51.086 43.6545
16286 1 20.8833 52.693 43.6278
21929 2 19.9826 51.1169 44.9219
16367 1 12.6957 54.3035 43.5996
21967 2 11.7924 55.944 44.8265
21966 2 14.5228 54.332 44.8609
16319 1 15.4199 55.9185 43.5692
21914 2 17.2486 55.944 44.8265
16318 1 18.152 54.3035 43.5996
16271 1 20.8761 55.9185 43.5692
21932 2 19.9791 54.332 44.8609
16327 1 11.8167 39.9888 48.9239
16345 1 13.6286 39.9386 46.3701
21986 2 12.7245 38.3623 47.6661
16343 1 14.5459 38.387 48.9454
16290 1 17.2729 39.9888 48.9239
16344 1 16.358 38.3393 46.3907
21942 2 15.4515 39.9625 47.6449
21952 2 18.1807 38.3623 47.6661
16289 1 20.0021 38.387 48.9454
16293 1 19.0849 39.9386 46.3701
21894 2 20.9077 39.9625 47.6449
13564 1 21.8142 38.3393 46.3907
16326 1 11.8144 43.1951 48.8779
16331 1 13.626 43.1393 46.3266
21987 2 12.7223 41.5635 47.6229
16325 1 14.5437 41.5915 48.9014
16282 1 17.2706 43.1951 48.8779
16346 1 16.3554 41.5385 46.3488
21941 2 15.4492 43.1652 47.5999
21940 2 18.1785 41.5635 47.6229
16291 1 19.9999 41.5915 48.9014
16292 1 19.0822 43.1393 46.3266
21893 2 20.9054 43.1652 47.5999
13552 1 21.8117 41.5385 46.3488
16312 1 11.8119 46.4063 48.8275
16330 1 13.623 46.3444 46.2794
21972 2 12.7199 44.7679 47.5758
16328 1 14.5413 44.8 48.8533
16281 1 17.2681 46.4063 48.8275
16329 1 16.3526 44.7412 46.3035
21927 2 15.4468 46.3718 47.5506
21943 2 18.1761 44.7679 47.5758
16280 1 19.9975 44.8 48.8533
16285 1 19.0792 46.3444 46.2794
21892 2 20.903 46.3718 47.5506
13553 1 21.8089 44.7412 46.3035
16311 1 11.8091 49.6241 48.7719
16316 1 13.6196 49.5558 46.2277
21973 2 12.7173 47.977 47.5242
16310 1 14.5387 48.0142 48.8004
16267 1 17.2654 49.6241 48.7719
16332 1 16.3495 47.9491 46.2542
21926 2 15.4441 49.5838 47.4963
21925 2 18.1736 47.977 47.5242
16283 1 19.9949 48.0142 48.8004
16284 1 19.0758 49.5558 46.2277
21885 2 20.9003 49.5838 47.4963
13544 1 21.8057 47.9491 46.2542
16304 1 11.8058 52.8507 48.7094
16315 1 13.6154 52.7768 46.1701
21964 2 12.7145 51.1924 47.4667
16313 1 14.5357 51.2361 48.7416
16266 1 17.2621 52.8507 48.7094
16314 1 16.3457 51.1649 46.1998
21913 2 15.4409 52.8033 47.4353
21928 2 18.1707 51.1924 47.4667
16265 1 19.9919 51.2361 48.7416
16270 1 19.0716 52.7768 46.1701
21884 2 20.8971 52.8033 47.4353
13545 1 21.802 51.1649 46.1998
16303 1 11.8014 56.0881 48.6377
16305 1 13.6098 56.0112 46.1035
21965 2 12.7108 54.4169 47.4015
16302 1 14.5319 54.468 48.6749
16252 1 17.2577 56.0881 48.6377
16317 1 16.341 54.3921 46.1382
21912 2 15.4363 56.0336 47.3653
21911 2 18.167 54.4169 47.4015
16268 1 19.9882 54.468 48.6749
16269 1 19.0661 56.0112 46.1035
21873 2 20.8925 56.0336 47.3653
13543 1 21.7972 54.3921 46.1382
16323 1 12.7348 38.4335 51.4982
21938 2 13.64 40.0119 50.1978
21985 2 10.9128 38.4093 50.2199
16278 1 15.462 40.0376 51.4756
21937 2 16.369 38.4093 50.2199
16236 1 20.9182 40.0376 51.4756
16288 1 18.191 38.4335 51.4982
21891 2 19.0962 40.0119 50.1978
16324 1 12.733 41.6425 51.4518
21923 2 13.638 43.2196 50.1503
16277 1 15.4602 43.2484 51.427
21939 2 16.3671 41.6153 50.1746
16235 1 20.9164 43.2484 51.427
16276 1 18.1892 41.6425 51.4518
21890 2 19.0942 43.2196 50.1503
19150 2 21.8233 41.6153 50.1746
16308 1 12.7311 44.8555 51.401
21922 2 13.6359 46.4316 50.0983
16263 1 15.4582 46.464 51.3736
21921 2 16.3651 44.825 50.1249
16279 1 18.1873 44.8555 51.401
19151 2 21.8213 44.825 50.1249
16234 1 20.9144 46.464 51.3736
21883 2 19.0921 46.4316 50.0983
16309 1 12.729 48.0741 51.3449
21909 2 13.6335 49.6493 50.0407
21904 2 11.8236 49.7087 52.5845
16262 1 15.456 49.6858 51.3146
21924 2 16.3629 48.0396 50.0702
16261 1 18.1853 48.0741 51.3449
21869 2 17.2799 49.7087 52.5845
19142 2 21.8191 48.0396 50.0702
16228 1 20.9122 49.6858 51.3146
21882 2 19.0897 49.6493 50.0407
21899 2 11.8205 52.9361 52.5184
16300 1 12.7265 51.2994 51.2826
21908 2 13.6304 52.8743 49.9765
21906 2 14.5503 51.3216 52.5522
21868 2 17.2767 52.9361 52.5184
16251 1 15.4531 52.9149 51.2488
21907 2 16.3602 51.2608 50.0095
16264 1 18.1828 51.2994 51.2826
19143 2 21.8164 51.2608 50.0095
21867 2 20.0066 51.3216 52.5522
16227 1 20.9094 52.9149 51.2488
21872 2 19.0866 52.8743 49.9765
21897 2 14.5465 54.5523 52.4832
21898 2 11.8156 56.17 52.4467
16301 1 12.7231 54.5324 51.2131
21900 2 13.6255 56.1083 49.9046
21862 2 17.2718 56.17 52.4467
16250 1 15.4489 56.1516 51.1755
21910 2 16.3564 54.4901 49.9416
16249 1 18.1794 54.5324 51.2131
21870 2 20.0027 54.5523 52.4832
19141 2 21.8126 54.4901 49.9416
16220 1 20.9051 56.1516 51.1755
21871 2 19.0818 56.1083 49.9046
16274 1 13.6518 40.0845 54.0259
16322 1 10.9244 38.4787 54.0496
21915 2 12.7479 38.4995 55.3233
21919 2 11.8293 40.0597 52.749
16273 1 16.3806 38.4787 54.0496
21876 2 15.4754 40.1058 55.2992
21888 2 17.2855 40.0597 52.749
21936 2 14.5582 38.4551 52.7722
16233 1 19.1081 40.0845 54.0259
21858 2 20.9316 40.1058 55.2992
21886 2 18.2042 38.4995 55.3233
21887 2 20.0144 38.4551 52.7722
16259 1 13.6504 43.2989 53.975
16306 1 10.923 41.6912 54.001
21916 2 12.7466 41.7129 55.2739
21918 2 11.8276 43.2715 52.6992
16275 1 16.3793 41.6912 54.001
21875 2 15.4741 43.3208 55.2474
21880 2 17.2839 43.2715 52.6992
21917 2 14.5566 41.6652 52.7247
16232 1 19.1066 43.2989 53.975
21857 2 20.9303 43.3208 55.2474
21874 2 18.2029 41.7129 55.2739
21889 2 20.0128 41.6652 52.7247
16258 1 13.6488 46.5175 53.919
16307 1 10.9215 44.9076 53.9477
21901 2 12.7452 44.9296 55.2196
21905 2 11.8258 46.4875 52.6446
16257 1 16.3778 44.9076 53.9477
21865 2 15.4725 46.5394 55.1906
21879 2 17.2821 46.4875 52.6446
21920 2 14.5549 44.8789 52.6726
16226 1 19.1051 46.5175 53.919
21856 2 20.9287 46.5394 55.1906
21877 2 18.2014 44.9296 55.2196
21878 2 20.0111 44.8789 52.6726
16247 1 13.6469 49.7413 53.8575
16298 1 10.9198 48.1287 53.889
21902 2 12.7434 48.1503 55.1603
16260 1 16.3761 48.1287 53.889
21864 2 15.4703 49.7624 55.1288
21903 2 14.5529 48.0974 52.6152
16225 1 19.1031 49.7413 53.8575
21855 2 20.9266 49.7624 55.1288
21863 2 18.1996 48.1503 55.1603
21881 2 20.0092 48.0974 52.6152
21895 2 12.7408 51.3756 55.096
16299 1 10.9176 51.3552 53.8245
16246 1 13.6441 52.9705 53.7902
21861 2 15.4672 52.9899 55.0621
16245 1 16.3738 51.3552 53.8245
21866 2 18.1971 51.3756 55.096
21854 2 20.9234 52.9899 55.0621
16219 1 19.1004 52.9705 53.7902
21896 2 12.7369 54.6053 55.0273
16297 1 10.9141 54.5871 53.7545
16240 1 13.6397 56.2046 53.7178
21860 2 15.4624 56.2216 54.9918
16248 1 16.3703 54.5871 53.7545
21859 2 18.1932 54.6053 55.0273
21853 2 20.9186 56.2216 54.9918
16218 1 19.0959 56.2046 53.7178
16571 1 12.7612 38.5646 59.1504
22205 2 13.6657 40.1502 57.8489
22212 2 10.9381 38.5426 57.8738
16255 1 11.8421 40.1296 56.5755
16558 1 15.4888 40.173 59.125
22204 2 16.3943 38.5426 57.8738
16230 1 17.2984 40.1296 56.5755
16272 1 14.5708 38.5223 56.6002
16512 1 20.9451 40.173 59.125
16560 1 18.2174 38.5646 59.1504
22170 2 19.1219 40.1502 57.8489
16229 1 20.027 38.5223 56.6002
16572 1 12.7603 41.782 59.0984
22201 2 13.6645 43.3675 57.7954
22210 2 10.937 41.7585 57.8228
16254 1 11.841 43.3465 56.5226
16557 1 15.4879 43.3916 59.0706
22206 2 16.3932 41.7585 57.8228
16223 1 17.2972 43.3465 56.5226
16253 1 14.5697 41.7376 56.5497
16511 1 20.9441 43.3916 59.0706
16556 1 18.2165 41.782 59.0984
22169 2 19.1207 43.3675 57.7954
16231 1 20.0259 41.7376 56.5497
16568 1 12.7592 45.0019 59.0415
22200 2 13.663 46.5877 57.7372
22211 2 10.9357 44.9772 57.7669
16243 1 11.8396 46.5669 56.4647
16550 1 15.4866 46.6128 59.0113
22199 2 16.3919 44.9772 57.7669
16222 1 17.2959 46.5669 56.4647
16256 1 14.5685 44.9562 56.4943
16510 1 20.9428 46.6128 59.0113
16559 1 18.2154 45.0019 59.0415
22164 2 19.1192 46.5877 57.7372
16221 1 20.0247 44.9562 56.4943
16569 1 12.7576 48.2244 58.98
22190 2 13.6609 49.811 57.6744
22208 2 10.9339 48.199 57.7063
16242 1 11.8378 49.7912 56.4017
16549 1 15.4847 49.8366 58.9478
22202 2 16.3902 48.199 57.7063
16216 1 17.294 49.7912 56.4017
16241 1 14.5669 48.1786 56.4338
16503 1 20.941 49.8366 58.9478
16548 1 18.2139 48.2244 58.98
22163 2 19.1171 49.811 57.6744
16224 1 20.0231 48.1786 56.4338
16564 1 12.7553 51.4493 58.9146
22189 2 13.6578 53.0374 57.608
22209 2 10.9314 51.4239 57.6416
16239 1 11.835 53.0191 56.3342
16536 1 15.4818 53.0625 58.8809
22188 2 16.3876 51.4239 57.6416
16215 1 17.2912 53.0191 56.3342
16244 1 14.5647 51.4047 56.3684
16502 1 20.9381 53.0625 58.8809
16551 1 18.2115 51.4493 58.9146
22150 2 19.114 53.0374 57.608
16214 1 20.0209 51.4047 56.3684
16565 1 12.7517 54.676 58.8468
22179 2 13.6532 56.266 57.5397
22207 2 10.9275 54.6515 57.5739
16238 1 11.8305 56.2498 56.2638
16535 1 15.4775 56.2897 58.8127
22191 2 16.3838 54.6515 57.5739
16213 1 17.2867 56.2498 56.2638
16237 1 14.5611 54.6342 56.2992
16487 1 20.9337 56.2897 58.8127
16534 1 18.208 54.676 58.8468
22149 2 19.1094 56.266 57.5397
16217 1 20.0173 54.6342 56.2992
16554 1 13.6794 40.2149 61.6749
16570 1 10.9517 38.6056 61.7008
22197 2 11.8561 40.1931 60.3986
16553 1 16.4079 38.6056 61.7008
22167 2 17.3123 40.1931 60.3986
22203 2 14.5847 38.5844 60.4242
16509 1 19.1356 40.2149 61.6749
22166 2 20.0409 38.5844 60.4242
16546 1 13.6785 43.4347 61.6194
16566 1 10.9508 41.8246 61.6477
22196 2 11.855 43.412 60.3439
16555 1 16.4071 41.8246 61.6477
22161 2 17.3112 43.412 60.3439
22195 2 14.5837 41.8023 60.3718
16508 1 19.1347 43.4347 61.6194
22168 2 20.0399 41.8023 60.3718
16545 1 13.6771 46.656 61.5594
16567 1 10.9497 45.0451 61.5899
22186 2 11.8535 46.6329 60.2847
16544 1 16.406 45.0451 61.5899
22160 2 17.3098 46.6329 60.2847
22198 2 14.5824 45.0222 60.3148
16501 1 19.1334 46.656 61.5594
22159 2 20.0387 45.0222 60.3148
16532 1 13.6752 49.8787 61.4959
16562 1 10.9481 48.2672 61.528
22185 2 11.8514 49.8558 60.2217
16547 1 16.4044 48.2672 61.528
22147 2 17.3076 49.8558 60.2217
22184 2 14.5807 48.2441 60.2536
16500 1 19.1314 49.8787 61.4959
22162 2 20.0369 48.2441 60.2536
16531 1 13.6723 53.1023 61.43
16563 1 10.9457 51.4904 61.4631
22178 2 11.8483 53.0802 60.156
16530 1 16.402 51.4904 61.4631
22146 2 17.3045 53.0802 60.156
22187 2 14.5781 51.4678 60.1891
16486 1 19.1285 53.1023 61.43
22145 2 20.0343 51.4678 60.1891
16521 1 13.6681 56.326 61.3639
16561 1 10.9422 54.7142 61.3968
22177 2 11.844 56.3055 60.0897
16533 1 16.3985 54.7142 61.3968
22129 2 17.3002 56.3055 60.0897
22176 2 14.5744 54.6928 60.1228
16485 1 19.1244 56.326 61.3639
22148 2 20.0307 54.6928 60.1228
16542 1 11.8699 40.2558 64.2256
22153 2 13.6933 40.2758 65.4986
22192 2 10.9657 38.6654 65.5249
22193 2 12.7752 38.6252 62.9745
16506 1 17.3261 40.2558 64.2256
16552 1 14.5984 38.6458 64.2519
22152 2 16.4219 38.6654 65.5249
22157 2 15.5028 40.2348 62.9485
16505 1 20.0546 38.6458 64.2519
22101 2 19.1495 40.2758 65.4986
22104 2 20.9591 40.2348 62.9485
22165 2 18.2314 38.6252 62.9745
16541 1 11.8689 43.4763 64.1695
22139 2 13.6921 43.4967 65.4428
22180 2 10.9646 41.8862 65.4712
22194 2 12.7742 41.8447 62.9213
16498 1 17.3251 43.4763 64.1695
16540 1 14.5975 41.8659 64.1981
22154 2 16.4209 41.8862 65.4712
22156 2 15.5017 43.4548 62.893
16507 1 20.0538 41.8659 64.1981
22100 2 19.1483 43.4967 65.4428
22103 2 20.958 43.4548 62.893
22155 2 18.2304 41.8447 62.9213
16528 1 11.8674 46.6974 64.1093
22138 2 13.6905 46.7178 65.3831
22181 2 10.9632 45.1072 65.4134
22182 2 12.7729 45.0653 62.8637
16497 1 17.3237 46.6974 64.1093
16543 1 14.5963 45.0868 64.1399
22137 2 16.4195 45.1072 65.4134
22143 2 15.5002 46.6759 62.8334
16496 1 20.0526 45.0868 64.1399
22093 2 19.1467 46.7178 65.3831
22102 2 20.9564 46.6759 62.8334
22158 2 18.2291 45.0653 62.8637
16527 1 11.8654 49.9188 64.0461
22124 2 13.6882 49.9386 65.3207
22172 2 10.9613 48.3282 65.3522
22183 2 12.7711 48.2868 62.8023
16483 1 17.3216 49.9188 64.0461
16526 1 14.5946 48.3081 64.078
22140 2 16.4175 48.3282 65.3522
22142 2 15.498 49.8978 62.7706
16499 1 20.0509 48.3081 64.078
22092 2 19.1444 49.9386 65.3207
22095 2 20.9542 49.8978 62.7706
22141 2 18.2273 48.2868 62.8023
16520 1 11.8625 53.14 63.9814
22123 2 13.6852 53.1586 65.2571
22173 2 10.9587 51.5487 65.289
22174 2 12.7685 51.509 62.7383
16482 1 17.3187 53.14 63.9814
16529 1 14.5922 51.5295 64.0138
22122 2 16.4149 51.5487 65.289
22128 2 15.495 53.1201 62.7059
16481 1 20.0484 51.5295 64.0138
22078 2 19.1414 53.1586 65.2571
22094 2 20.9512 53.1201 62.7059
22144 2 18.2247 51.509 62.7383
16519 1 11.8586 56.3603 63.9172
22113 2 13.6814 56.3773 65.1943
22171 2 10.9553 54.7681 65.2255
22175 2 12.7649 54.7311 62.6735
16466 1 17.3148 56.3603 63.9172
16518 1 14.5888 54.7503 63.9491
22125 2 16.4115 54.7681 65.2255
22127 2 15.4909 56.342 62.6414
16484 1 20.045 54.7503 63.9491
22077 2 19.1376 56.3773 65.1943
22079 2 20.9472 56.342 62.6414
22126 2 18.2212 54.7311 62.6735
16538 1 12.7886 38.6855 66.8047
22135 2 11.8836 40.3165 68.048
16494 1 15.5163 40.2961 66.7782
22098 2 17.3399 40.3165 68.048
22151 2 14.6123 38.7053 68.0744
16446 1 20.9725 40.2961 66.7782
16504 1 18.2448 38.6855 66.8047
22097 2 20.0686 38.7053 68.0744
16539 1 12.7876 41.9067 66.7506
22134 2 11.8823 43.5384 67.9922
16493 1 15.5151 43.5172 66.7219
22090 2 17.3385 43.5384 67.9922
22133 2 14.6111 41.9275 68.0206
16445 1 20.9714 43.5172 66.7219
16492 1 18.2439 41.9067 66.7506
22099 2 20.0674 41.9275 68.0206
16524 1 12.7863 45.1277 66.6923
22120 2 11.8805 46.7594 67.9328
16474 1 13.7025 46.7788 69.2203
16523 1 10.9753 45.1687 69.2505
16479 1 15.5136 46.738 66.6619
22089 2 17.3368 46.7594 67.9328
22136 2 14.6096 45.149 67.9629
16473 1 16.4315 45.1687 69.2505
16444 1 20.9698 46.738 66.6619
16495 1 18.2425 45.1277 66.6923
22088 2 20.0658 45.149 67.9629
16435 1 19.1587 46.7788 69.2203
16525 1 12.7845 48.3481 66.6308
22119 2 11.8781 49.9792 67.8711
16461 1 13.7002 49.9976 69.1583
16514 1 10.9733 48.3884 69.1895
16478 1 15.5114 49.9581 66.5993
22075 2 17.3344 49.9792 67.8711
22118 2 14.6075 48.3695 67.9021
16476 1 16.4295 48.3884 69.1895
16437 1 20.9676 49.9581 66.5993
16477 1 18.2407 48.3481 66.6308
22091 2 20.0638 48.3695 67.9021
16434 1 19.1565 49.9976 69.1583
16516 1 12.7819 51.5677 66.5675
22112 2 11.8751 53.1971 67.8086
16460 1 13.6974 53.2143 69.0959
16515 1 10.9707 51.6063 69.127
16465 1 15.5085 53.1769 66.5357
22074 2 17.3314 53.1971 67.8086
22121 2 14.6048 51.5884 67.8398
16459 1 16.427 51.6063 69.127
16436 1 20.9647 53.1769 66.5357
16480 1 18.2382 51.5677 66.5675
22073 2 20.0611 51.5884 67.8398
16424 1 19.1536 53.2143 69.0959
16517 1 12.7786 54.7857 66.5042
22111 2 11.8715 56.4127 67.7474
16452 1 13.6939 56.4283 69.0349
16513 1 10.9676 54.8217 69.0652
16464 1 15.5048 56.394 66.4732
22060 2 17.3277 56.4127 67.7474
22110 2 14.6015 54.8052 67.7777
16462 1 16.4239 54.8217 69.0652
16425 1 20.9611 56.394 66.4732
16463 1 18.2349 54.7857 66.5042
22076 2 20.0577 54.8052 67.7777
16423 1 19.1502 56.4283 69.0349
16471 1 11.8898 40.3767 71.9113
16490 1 13.7055 40.3365 69.3361
16537 1 10.9779 38.7252 69.3625
22131 2 12.8025 38.7448 70.62
16440 1 17.346 40.3767 71.9113
16488 1 14.6185 38.7648 71.9378
16489 1 16.4342 38.7252 69.3625
22086 2 15.53 40.3569 70.5937
16439 1 20.0747 38.7648 71.9378
16443 1 19.1617 40.3365 69.3361
22044 2 20.9863 40.3569 70.5937
22096 2 18.2588 38.7448 70.62
16470 1 11.8884 43.5993 71.8555
16475 1 13.7042 43.5583 69.28
16522 1 10.9768 41.9475 69.3085
22132 2 12.8012 41.9686 70.5663
16432 1 17.3447 43.5993 71.8555
16469 1 14.6172 41.9882 71.8839
16491 1 16.433 41.9475 69.3085
22085 2 15.5285 43.58 70.538
16441 1 20.0735 41.9882 71.8839
16442 1 19.1604 43.5583 69.28
22043 2 20.9848 43.58 70.538
22084 2 18.2574 41.9686 70.5663
16457 1 11.8868 46.8199 71.7962
22116 2 12.7995 45.191 70.5088
16431 1 17.343 46.8199 71.7962
16472 1 14.6158 45.2099 71.8262
22071 2 15.5266 46.8015 70.479
16430 1 20.072 45.2099 71.8262
22042 2 20.9829 46.8015 70.479
22087 2 18.2558 45.191 70.5088
16456 1 11.8848 50.0376 71.7339
22117 2 12.7974 48.4113 70.4486
16421 1 17.341 50.0376 71.7339
16455 1 14.614 48.4291 71.7654
22070 2 15.5241 50.0205 70.4179
16433 1 20.0702 48.4291 71.7654
22036 2 20.9804 50.0205 70.4179
22069 2 18.2536 48.4113 70.4486
16451 1 11.8821 53.252 71.673
22108 2 12.7946 51.629 70.387
16420 1 17.3384 53.252 71.673
16458 1 14.6116 51.6452 71.7035
22059 2 15.5212 53.2366 70.3564
16419 1 20.0679 51.6452 71.7035
22035 2 20.9774 53.2366 70.3564
22072 2 18.2508 51.629 70.387
16450 1 11.879 56.463 71.6133
22109 2 12.7914 54.8434 70.326
16414 1 17.3352 56.463 71.6133
16449 1 14.6087 54.858 71.6429
22058 2 15.5176 56.4493 70.2962
16422 1 20.065 54.858 71.6429
22028 2 20.9739 56.4493 70.2962
22057 2 18.2476 54.8434 70.326
16467 1 12.7449 38.8061 74.5898
22063 2 11.8797 40.4359 75.6017
22082 2 13.7183 40.3972 73.1257
22130 2 10.9909 38.7841 73.1519
16428 1 15.473 40.4178 74.5637
22038 2 17.3359 40.4359 75.6017
22080 2 14.6083 38.8225 75.6275
22081 2 16.4471 38.7841 73.1519
16410 1 20.9292 40.4178 74.5637
16438 1 18.2011 38.8061 74.5898
22037 2 20.0645 38.8225 75.6275
22041 2 19.1745 40.3972 73.1257
16468 1 12.7449 42.029 74.5365
22062 2 11.8786 43.6609 75.5475
22067 2 13.7167 43.6221 73.0706
22114 2 10.9894 42.0099 73.0986
16427 1 15.4731 43.6397 74.5085
22031 2 17.3349 43.6609 75.5475
22061 2 14.6073 42.0487 75.575
22083 2 16.4457 42.0099 73.0986
16409 1 20.9293 43.6397 74.5085
16426 1 18.2011 42.029 74.5365
22039 2 20.0635 42.0487 75.575
22040 2 19.173 43.6221 73.0706
16453 1 12.7452 45.2498 74.4797
22051 2 11.8774 46.8826 75.4909
22066 2 13.7148 46.8443 73.0124
22115 2 10.9877 45.2336 73.0418
16417 1 15.4735 46.8591 74.4504
22030 2 17.3337 46.8826 75.4909
22064 2 14.6062 45.2722 75.5195
22065 2 16.4439 45.2336 73.0418
16408 1 20.9297 46.8591 74.4504
16429 1 18.2014 45.2498 74.4797
22029 2 20.0624 45.2722 75.5195
22034 2 19.171 46.8443 73.0124
16454 1 12.7457 48.4677 74.4206
22050 2 11.876 50.1004 75.4335
22055 2 13.7121 50.063 72.9524
22106 2 10.9855 48.4542 72.9825
16416 1 15.4743 50.0749 74.3904
22024 2 17.3322 50.1004 75.4335
22049 2 14.6049 48.492 75.4622
22068 2 16.4417 48.4542 72.9825
16407 1 20.9306 50.0749 74.3904
16415 1 18.202 48.4677 74.4206
22032 2 20.0611 48.492 75.4622
22033 2 19.1684 50.063 72.9524
16447 1 12.7463 51.6812 74.3602
22047 2 11.8743 53.3134 75.3741
22054 2 13.7093 53.2775 72.8918
22107 2 10.9827 51.6707 72.9221
16413 1 15.4747 53.2868 74.3298
22023 2 17.3305 53.3134 75.3741
22052 2 14.6033 51.7075 75.4037
22053 2 16.4389 51.6707 72.9221
16406 1 20.9309 53.2868 74.3298
16418 1 18.2026 51.6812 74.3602
22022 2 20.0595 51.7075 75.4037
22027 2 19.1656 53.2775 72.8918
16448 1 12.7468 54.8914 74.2997
22046 2 11.8723 56.5212 75.3163
22048 2 13.7059 56.4876 72.8326
22105 2 10.9795 54.8831 72.8619
16412 1 15.4751 56.4952 74.2703
22021 2 17.3285 56.5212 75.3163
22045 2 14.6014 54.918 75.3449
22056 2 16.4358 54.8831 72.8619
16405 1 20.9313 56.4952 74.2703
16411 1 18.203 54.8914 74.2997
22025 2 20.0577 54.918 75.3449
22026 2 19.1621 56.4876 72.8326
10809 2 11.8396 58.1016 -1.46014
10817 2 13.6655 58.0786 -3.95682
4416 1 12.7736 59.684 -2.92152
10822 2 10.9391 59.664 -3.97549
4402 1 15.4987 58.0998 -2.90239
10779 2 17.2958 58.1016 -1.46014
10807 2 14.5687 59.6853 -1.47934
10818 2 16.3954 59.664 -3.97549
4356 1 20.955 58.0998 -2.90239
10782 2 19.1217 58.0786 -3.95682
4400 1 18.2299 59.684 -2.92152
10780 2 20.025 59.6853 -1.47934
10808 2 11.8416 61.27 -1.49718
10813 2 13.6689 61.2504 -3.99285
4412 1 12.7791 62.8547 -2.95558
10823 2 10.9424 62.8377 -4.00876
4401 1 15.5046 61.269 -2.93929
10773 2 17.2979 61.27 -1.49718
10810 2 14.5707 62.8554 -1.51355
10811 2 16.3986 62.8377 -4.00876
4355 1 20.9608 61.269 -2.93929
10781 2 19.1252 61.2504 -3.99285
4403 1 18.2354 62.8547 -2.95558
10771 2 20.027 62.8554 -1.51355
10798 2 11.8435 64.4417 -1.5283
10812 2 13.672 64.4259 -4.02312
4413 1 12.7837 66.0278 -2.98322
10820 2 10.9452 66.0147 -4.0358
4394 1 15.5097 64.441 -2.97026
10772 2 17.2998 64.4417 -1.5283
10796 2 14.5725 66.0287 -1.54134
10814 2 16.4014 66.0147 -4.0358
4354 1 20.9659 64.441 -2.97026
10776 2 19.1282 64.4259 -4.02312
4392 1 18.24 66.0278 -2.98322
10774 2 20.0287 66.0287 -1.54134
10797 2 11.8451 67.6164 -1.55254
10802 2 13.6745 67.6043 -4.0467
4408 1 12.7872 69.2029 -3.0036
10821 2 10.9473 69.1943 -4.05575
4393 1 15.5137 67.6152 -2.99436
10759 2 17.3014 67.6164 -1.55254
10799 2 14.5739 69.2046 -1.56184
10800 2 16.4036 69.1943 -4.05575
4347 1 20.97 67.6152 -2.99436
10775 2 19.1307 67.6043 -4.0467
4395 1 18.2434 69.2029 -3.0036
10757 2 20.0301 69.2046 -1.56184
10790 2 11.8463 70.7932 -1.56915
10801 2 13.6762 70.7849 -4.06287
4409 1 12.7894 72.3792 -3.01609
10819 2 10.9487 72.3757 -4.06799
4380 1 15.5166 70.7909 -3.01086
10758 2 17.3025 70.7932 -1.56915
10788 2 14.5748 72.3822 -1.57441
10803 2 16.4049 72.3757 -4.06799
4346 1 20.9728 70.7909 -3.01086
10762 2 19.1325 70.7849 -4.06287
4378 1 18.2456 72.3792 -3.01609
10760 2 20.031 72.3822 -1.57441
10789 2 11.8469 73.9714 -1.57758
10791 2 13.6772 73.9668 -4.07108
4799 1 12.7901 75.5561 -3.02029
11232 2 10.9492 75.558 -4.07212
4379 1 15.518 73.9676 -3.01924
10741 2 17.3031 73.9714 -1.57758
11223 2 14.5751 75.5607 -1.57864
11224 2 16.4054 75.558 -4.07212
4331 1 20.9743 73.9676 -3.01924
10761 2 19.1334 73.9668 -4.07108
4788 1 18.2463 75.5561 -3.02029
11186 2 20.0313 75.5607 -1.57864
4386 1 11.8433 58.1431 2.35003
4398 1 13.6618 58.1186 -0.240577
4410 1 10.935 59.7013 -0.259899
10806 2 12.7521 59.7107 1.06838
4350 1 17.2995 58.1431 2.35003
10769 2 15.4791 58.1287 1.08796
4384 1 14.5726 59.7242 2.33022
4399 1 16.3912 59.7013 -0.259899
4353 1 19.118 58.1186 -0.240577
10716 2 20.9353 58.1287 1.08796
4351 1 20.0289 59.7242 2.33022
10767 2 18.2083 59.7107 1.06838
4385 1 11.8457 61.3059 2.3118
4390 1 13.6644 61.2848 -0.277857
4411 1 10.9374 62.869 -0.294315
10794 2 12.7543 62.8768 1.03347
4342 1 17.302 61.3059 2.3118
10768 2 15.4813 61.2934 1.05017
4387 1 14.575 62.8882 2.29491
4388 1 16.3937 62.869 -0.294315
4352 1 19.1206 61.2848 -0.277857
10715 2 20.9376 61.2934 1.05017
4340 1 20.0312 62.8882 2.29491
10770 2 18.2105 62.8768 1.03347
4372 1 11.8479 64.4711 2.27968
4389 1 13.6666 64.4538 -0.309148
4406 1 10.9395 66.0393 -0.322244
10795 2 12.7561 66.0456 1.0051
4341 1 17.3042 64.4711 2.27968
10755 2 15.4834 64.4609 1.01841
4370 1 14.577 66.0545 2.26623
4391 1 16.3958 66.0393 -0.322244
4345 1 19.1229 64.4538 -0.309148
10714 2 20.9396 64.4609 1.01841
4343 1 20.0333 66.0545 2.26623
10753 2 18.2124 66.0456 1.0051
4371 1 11.8498 67.6384 2.25467
4376 1 13.6685 67.6252 -0.333501
4407 1 10.9412 69.2116 -0.342833
10786 2 12.7576 69.2166 0.984173
4327 1 17.306 67.6384 2.25467
10754 2 15.4851 67.6309 0.993662
4373 1 14.5786 69.2227 2.24508
4374 1 16.3974 69.2116 -0.342833
4344 1 19.1248 67.6252 -0.333501
10707 2 20.9413 67.6309 0.993662
4325 1 20.0349 69.2227 2.24508
10756 2 18.2139 69.2166 0.984173
4364 1 11.8511 70.8073 2.23755
4375 1 13.6699 70.7984 -0.350168
4405 1 10.9422 72.3854 -0.355448
10787 2 12.7586 72.389 0.971339
4326 1 17.3074 70.8073 2.23755
10740 2 15.4863 70.8027 0.976712
4362 1 14.5797 72.3922 2.23212
4377 1 16.3985 72.3854 -0.355448
4330 1 19.1261 70.7984 -0.350168
10706 2 20.9425 70.8027 0.976712
4328 1 20.0359 72.3922 2.23212
10738 2 18.2148 72.389 0.971339
4363 1 11.8518 73.9772 2.22885
4365 1 13.6706 73.9726 -0.358632
4798 1 10.9426 75.56 -0.359697
11213 2 12.7589 75.5622 0.967015
4309 1 17.3081 73.9772 2.22885
10739 2 15.4869 73.9756 0.968099
4780 1 14.58 75.5623 2.22775
4781 1 16.3988 75.56 -0.359697
4329 1 19.1268 73.9726 -0.358632
10691 2 20.9432 73.9756 0.968099
4733 1 20.0363 75.5623 2.22775
11185 2 18.2151 75.5622 0.967015
10765 2 13.6623 58.1541 3.64971
4383 1 12.7556 59.7462 4.90528
10792 2 10.9355 59.7344 3.62971
4338 1 15.4823 58.1667 4.92562
10766 2 16.3918 59.7344 3.62971
4284 1 20.9385 58.1667 4.92562
10713 2 19.1186 58.1541 3.64971
4336 1 18.2118 59.7462 4.90528
10751 2 13.6649 61.3153 3.6111
4368 1 12.7582 62.9068 4.86898
10793 2 10.938 62.8968 3.59402
4337 1 15.485 61.3262 4.88635
10749 2 16.3942 62.8968 3.59402
4283 1 20.9413 61.3262 4.88635
10712 2 19.1211 61.3153 3.6111
4339 1 18.2144 62.9068 4.86898
10750 2 13.6672 64.479 3.57862
4369 1 12.7605 66.0695 4.83948
10784 2 10.9401 66.0616 3.56501
4323 1 15.4875 64.4879 4.85332
10752 2 16.3963 66.0616 3.56501
4282 1 20.9437 64.4879 4.85332
10705 2 19.1234 64.479 3.57862
4321 1 18.2167 66.0695 4.83948
10736 2 13.6691 67.6447 3.5533
4360 1 12.7622 69.2338 4.81771
10785 2 10.9418 69.2281 3.54359
4322 1 15.4895 67.6515 4.82758
10734 2 16.398 69.2281 3.54359
4275 1 20.9458 67.6515 4.82758
10704 2 19.1253 67.6447 3.5533
4324 1 18.2185 69.2338 4.81771
10735 2 13.6705 70.8119 3.53596
4361 1 12.7634 72.3992 4.80436
10783 2 10.9428 72.396 3.53046
4308 1 15.491 70.8164 4.80995
10737 2 16.3991 72.396 3.53046
4274 1 20.9473 70.8164 4.80995
10690 2 19.1267 70.8119 3.53596
4306 1 18.2196 72.3992 4.80436
10725 2 13.6712 73.9801 3.52714
4766 1 12.7638 75.5652 4.79986
11212 2 10.9432 75.5644 3.52603
4307 1 15.4918 73.9822 4.80099
11172 2 16.3994 75.5644 3.52603
4260 1 20.9481 73.9822 4.80099
10689 2 19.1275 73.9801 3.52714
4732 1 18.2201 75.5652 4.79986
4334 1 13.665 58.1896 7.496
10747 2 11.8453 58.178 6.21569
4366 1 10.9384 59.7676 7.475
10744 2 12.7578 59.7778 8.76226
10698 2 15.4843 58.2006 8.78347
10710 2 17.3015 58.178 6.21569
4335 1 16.3946 59.7676 7.475
10745 2 14.5749 59.7567 6.19514
4281 1 19.1212 58.1896 7.496
10656 2 20.9405 58.2006 8.78347
10696 2 18.2141 59.7778 8.76226
10711 2 20.0311 59.7567 6.19514
4319 1 13.668 61.3461 7.45545
10746 2 11.8481 61.336 6.17602
4367 1 10.9412 62.925 7.43751
10728 2 12.7609 62.9336 8.72437
10697 2 15.4875 61.3555 8.74251
10702 2 17.3044 61.336 6.17602
4317 1 16.3975 62.925 7.43751
10748 2 14.5776 62.9158 6.15847
4280 1 19.1242 61.3461 7.45545
10655 2 20.9437 61.3555 8.74251
10699 2 18.2171 62.9336 8.72437
10700 2 20.0338 62.9158 6.15847
4318 1 13.6707 64.5044 7.42133
10732 2 11.8507 64.4961 6.14264
4358 1 10.9437 66.0843 7.40704
10729 2 12.7635 66.0911 8.69356
10683 2 15.4904 64.5121 8.70801
10701 2 17.3069 64.4961 6.14264
4320 1 16.4 66.0843 7.40704
10730 2 14.5799 66.0768 6.12865
4273 1 19.1269 64.5044 7.42133
10654 2 20.9466 64.5121 8.70801
10681 2 18.2198 66.0911 8.69356
10703 2 20.0361 66.0768 6.12865
4304 1 13.6729 67.6644 7.39477
10731 2 11.8528 67.6579 6.11664
4359 1 10.9456 69.2449 7.38461
10720 2 12.7656 69.25 8.67089
10682 2 15.4928 67.6704 8.68115
10687 2 17.309 67.6579 6.11664
4302 1 16.4019 69.2449 7.38461
10733 2 14.5817 69.2394 6.10668
4272 1 19.1291 67.6644 7.39477
10648 2 20.949 67.6704 8.68115
10684 2 18.2219 69.25 8.67089
10685 2 20.038 69.2394 6.10668
4303 1 13.6745 70.8257 7.37665
10724 2 11.8543 70.8212 6.09887
4357 1 10.9469 72.4066 7.37096
10721 2 12.7669 72.4099 8.65715
10671 2 15.4945 70.8299 8.66287
10686 2 17.3105 70.8212 6.09887
4305 1 16.4031 72.4066 7.37096
10722 2 14.5829 72.4031 6.09328
4259 1 19.1307 70.8257 7.37665
10647 2 20.9508 70.8299 8.66287
10669 2 18.2232 72.4099 8.65715
10688 2 20.0391 72.4031 6.09328
4293 1 13.6753 73.9877 7.36758
10723 2 11.855 73.9852 6.08994
4765 1 10.9472 75.5687 7.36653
11151 2 12.7673 75.5702 8.65279
10670 2 15.4954 73.99 8.65378
10672 2 17.3113 73.9852 6.08994
4717 1 16.4034 75.5687 7.36653
11171 2 14.5832 75.5673 6.08889
4258 1 19.1315 73.9877 7.36758
10640 2 20.9516 73.99 8.65378
11116 2 18.2235 75.5702 8.65279
11117 2 20.0395 75.5673 6.08889
4315 1 11.8476 58.2115 10.0653
10694 2 13.6669 58.2227 11.3521
10726 2 10.9407 59.7983 11.3301
4278 1 17.3039 58.2115 10.0653
4313 1 14.5775 59.7879 10.0436
10695 2 16.3969 59.7983 11.3301
10653 2 19.1231 58.2227 11.3521
4279 1 20.0337 59.7879 10.0436
4314 1 11.851 61.3648 10.0233
10679 2 13.6706 61.3744 11.3096
10727 2 10.9443 62.9509 11.2907
4296 1 12.7641 62.9591 12.5713
4270 1 17.3073 61.3648 10.0233
4316 1 14.5807 62.9422 10.0047
10677 2 16.4005 62.9509 11.2907
10652 2 19.1269 61.3744 11.3096
4268 1 20.037 62.9422 10.0047
4267 1 18.2204 62.9591 12.5713
4300 1 11.8541 64.5199 9.98787
10678 2 13.674 64.5277 11.2737
10718 2 10.9475 66.1049 11.2587
4297 1 12.7676 66.1116 12.5383
4269 1 17.3104 64.5199 9.98787
4298 1 14.5836 66.098 9.97305
10680 2 16.4037 66.1049 11.2587
4252 1 15.4941 64.5352 12.5538
4250 1 18.2239 66.1116 12.5383
10646 2 19.1303 64.5277 11.2737
4271 1 20.0399 66.098 9.97305
4234 1 20.9503 64.5352 12.5538
4288 1 12.7705 69.2652 12.5141
4299 1 11.8567 67.6765 9.96032
10667 2 13.6769 67.6825 11.2458
10719 2 10.95 69.2602 11.2351
4256 1 17.313 67.6765 9.96032
4301 1 14.5859 69.2552 9.94981
10665 2 16.4062 69.2602 11.2351
4251 1 15.4973 67.6882 12.525
4253 1 18.2267 69.2652 12.5141
10645 2 19.1332 67.6825 11.2458
4254 1 20.0421 69.2552 9.94981
4231 1 20.9535 67.6882 12.525
4292 1 11.8586 70.8341 9.9416
10666 2 13.6791 70.8382 11.2268
4289 1 12.7723 72.4195 12.4995
10717 2 10.9516 72.4164 11.221
4244 1 15.4997 70.8423 12.5055
4255 1 17.3148 70.8341 9.9416
4290 1 14.5873 72.4132 9.93576
10668 2 16.4078 72.4164 11.221
4230 1 20.9559 70.8423 12.5055
10639 2 19.1353 70.8382 11.2268
4257 1 20.0436 72.4132 9.93576
4242 1 18.2285 72.4195 12.4995
4291 1 11.8595 73.9924 9.93234
10660 2 13.68 73.9946 11.2175
11150 2 10.9519 75.5729 11.2166
4695 1 12.7726 75.5742 12.4951
4243 1 15.5008 73.9969 12.496
4245 1 17.3157 73.9924 9.93234
4716 1 14.5877 75.5716 9.93138
11101 2 16.4082 75.5729 11.2166
4227 1 20.957 73.9969 12.496
10638 2 19.1363 73.9946 11.2175
4661 1 20.0439 75.5716 9.93138
4660 1 18.2289 75.5742 12.4951
4262 1 13.6686 58.2558 15.2041
10675 2 11.8493 58.2452 13.9213
4312 1 12.7603 59.8081 12.6119
4294 1 10.9429 59.829 15.1803
4266 1 15.4864 58.2332 12.6346
10650 2 17.3055 58.2452 13.9213
4263 1 16.3991 59.829 15.1803
10673 2 14.5796 59.8192 13.8983
4233 1 19.1248 58.2558 15.2041
4236 1 20.9426 58.2332 12.6346
4264 1 18.2165 59.8081 12.6119
10651 2 20.0359 59.8192 13.8983
4248 1 13.6734 61.4027 15.1581
10674 2 11.8537 61.3936 13.8768
4295 1 10.9476 62.9766 15.1376
4265 1 15.4903 61.3834 12.5907
10643 2 17.3099 61.3936 13.8768
4246 1 16.4038 62.9766 15.1376
10676 2 14.584 62.9684 13.8571
4232 1 19.1296 61.4027 15.1581
4235 1 20.9466 61.3834 12.5907
10641 2 20.0402 62.9684 13.8571
4247 1 13.678 64.5509 15.1192
10663 2 11.8579 64.5435 13.8393
4286 1 10.952 66.1255 15.1029
10642 2 17.3141 64.5435 13.8393
4249 1 16.4083 66.1255 15.1029
10661 2 14.5879 66.1189 13.8236
4229 1 19.1342 64.5509 15.1192
10644 2 20.0442 66.1189 13.8236
4240 1 13.6822 67.7004 15.089
10662 2 11.8616 67.6946 13.8101
4287 1 10.9558 69.2754 15.0775
10636 2 17.3178 67.6946 13.8101
10664 2 14.5912 69.2705 13.799
4238 1 16.412 69.2754 15.0775
4228 1 19.1384 67.7004 15.089
10634 2 20.0474 69.2705 13.799
10659 2 11.8643 70.8466 13.7904
4239 1 13.6853 70.8506 15.0687
4285 1 10.9581 72.4259 15.0624
4241 1 16.4144 72.4259 15.0624
10657 2 14.5932 72.4228 13.7843
10635 2 17.3205 70.8466 13.7904
10637 2 20.0495 72.4228 13.7843
4226 1 19.1415 70.8506 15.0687
10658 2 11.8655 73.999 13.7808
4237 1 13.6868 74.0012 15.0589
4694 1 10.9586 75.5765 15.058
10633 2 17.3218 73.999 13.7808
4645 1 16.4149 75.5765 15.058
11100 2 14.5936 75.5753 13.78
4225 1 19.143 74.0012 15.0589
11057 2 20.0499 75.5753 13.78
11014 2 10.938 56.7251 19.0884
10998 2 13.6693 58.2952 19.0615
4606 1 11.8505 58.2801 17.7743
11016 2 12.7622 59.8413 16.4668
11002 2 15.4876 58.269 16.491
10997 2 16.3942 56.7251 19.0884
4583 1 17.3067 58.2801 17.7743
4608 1 14.5757 56.709 17.8008
4604 1 14.5815 59.8516 17.749
4582 1 20.032 56.709 17.8008
10953 2 19.1255 58.2952 19.0615
10956 2 20.9439 58.269 16.491
11000 2 18.2184 59.8413 16.4668
4584 1 20.0377 59.8516 17.749
11010 2 10.9444 59.8657 19.0358
4605 1 11.8563 61.4234 17.7255
10990 2 13.6758 61.4364 19.0118
11012 2 12.7675 62.9869 16.4234
11001 2 15.493 61.4139 16.4442
10999 2 16.4006 59.8657 19.0358
4579 1 17.3125 61.4234 17.7255
4607 1 14.5873 62.9956 17.7038
10952 2 19.132 61.4364 19.0118
10955 2 20.9492 61.4139 16.4442
11003 2 18.2237 62.9869 16.4234
4577 1 20.0436 62.9956 17.7038
11011 2 10.951 63.0074 18.9897
4599 1 11.8621 64.568 17.6842
10989 2 13.6824 64.5786 18.9698
11013 2 12.7726 66.1337 16.3881
11006 2 10.9576 66.1501 18.9523
10994 2 15.4982 64.5601 16.4047
4578 1 17.3183 64.568 17.6842
10988 2 16.4072 63.0074 18.9897
4597 1 14.5931 66.1407 17.6671
10991 2 16.4138 66.1501 18.9523
10945 2 19.1387 64.5786 18.9698
10954 2 20.9544 64.5601 16.4047
4580 1 20.0493 66.1407 17.6671
10992 2 18.2288 66.1337 16.3881
4598 1 11.8676 67.7135 17.6524
10976 2 13.6888 67.7216 18.9375
11008 2 12.7769 69.2813 16.3624
11007 2 10.9634 69.2932 18.9254
10993 2 15.503 67.7074 16.374
4567 1 17.3239 67.7135 17.6524
4600 1 14.5981 69.2865 17.6404
10974 2 16.4197 69.2932 18.9254
10944 2 19.145 67.7216 18.9375
10947 2 20.9592 67.7074 16.374
10995 2 18.2331 69.2813 16.3624
4565 1 20.0544 69.2865 17.6404
4592 1 11.8719 70.8594 17.6311
10975 2 13.6938 70.8648 18.916
11009 2 12.7796 72.4293 16.3471
11005 2 10.9673 72.4363 18.9096
4566 1 17.3282 70.8594 17.6311
10980 2 15.5066 70.8553 16.3534
4590 1 14.6014 72.4325 17.6247
10977 2 16.4236 72.4363 18.9096
10930 2 19.1501 70.8648 18.916
10946 2 20.9629 70.8553 16.3534
4568 1 20.0577 72.4325 17.6247
10978 2 18.2359 72.4293 16.3471
4591 1 11.874 74.0055 17.621
10965 2 13.6962 74.0077 18.906
11423 2 12.7802 75.5775 16.3428
11422 2 10.9681 75.5792 18.9052
4549 1 17.3302 74.0055 17.621
10979 2 15.5083 74.0034 16.3436
11405 2 16.4243 75.5792 18.9052
4992 1 14.6021 75.5785 17.6203
10929 2 19.1525 74.0077 18.906
10931 2 20.9646 74.0034 16.3436
11412 2 18.2364 75.5775 16.3428
4966 1 20.0583 75.5785 17.6203
4602 1 12.7565 56.7383 20.3734
10986 2 11.8502 58.3254 21.6329
10996 2 14.5745 56.7573 21.6616
4575 1 15.488 58.3075 20.3452
10950 2 17.3065 58.3254 21.6329
4524 1 20.9443 58.3075 20.3452
4581 1 18.2127 56.7383 20.3734
10949 2 20.0308 56.7573 21.6616
4603 1 12.7634 59.877 20.3182
10985 2 11.8582 61.4622 21.5796
4574 1 15.4951 61.4468 20.293
10942 2 17.3144 61.4622 21.5796
10984 2 14.5822 59.8937 21.6054
4523 1 20.9513 61.4468 20.293
4573 1 18.2196 59.877 20.3182
10951 2 20.0385 59.8937 21.6054
4595 1 12.7707 63.017 20.2697
10972 2 11.8666 64.6 21.5346
4563 1 15.5025 64.5874 20.2489
10941 2 17.3229 64.6 21.5346
10987 2 14.5905 63.031 21.5559
4522 1 20.9588 64.5874 20.2489
4576 1 18.2269 63.017 20.2697
10940 2 20.0467 63.031 21.5559
4596 1 12.7782 66.1579 20.2307
10971 2 11.8752 67.7382 21.5006
4588 1 12.7852 69.299 20.2028
4562 1 15.51 67.7285 20.2153
10927 2 17.3315 67.7382 21.5006
10970 2 14.5991 66.1691 21.5162
4515 1 20.9662 67.7285 20.2153
4561 1 18.2344 66.1579 20.2307
10943 2 20.0554 66.1691 21.5162
4564 1 18.2414 69.299 20.2028
10964 2 11.8823 70.8757 21.4786
4589 1 12.7899 72.4397 20.1866
4548 1 15.5161 70.8694 20.1932
10926 2 17.3386 70.8757 21.4786
10973 2 14.6072 69.3071 21.4881
10962 2 14.6128 72.4441 21.4721
4514 1 20.9723 70.8694 20.1932
10925 2 20.0634 69.3071 21.4881
4546 1 18.2462 72.4397 20.1866
10928 2 20.069 72.4441 21.4721
10963 2 11.8858 74.0123 21.4685
4986 1 12.7908 75.58 20.1823
4547 1 15.519 74.0099 20.183
10909 2 17.342 74.0123 21.4685
11404 2 14.6138 75.5804 21.4678
4499 1 20.9753 74.0099 20.183
4965 1 18.2471 75.58 20.1823
11357 2 20.0701 75.5804 21.4678
4555 1 11.8476 58.3782 25.4917
4571 1 13.6685 58.3395 22.9174
4601 1 10.9362 56.7726 22.9477
10982 2 12.7537 56.7955 24.2366
4518 1 17.3038 58.3782 25.4917
4569 1 14.5708 56.8139 25.5245
4570 1 16.3925 56.7726 22.9477
10938 2 15.4863 58.3613 24.2057
4517 1 20.027 56.8139 25.5245
4521 1 19.1247 58.3395 22.9174
10884 2 20.9426 58.3613 24.2057
10948 2 18.2099 56.7955 24.2366
4554 1 11.8581 61.5071 25.4292
4559 1 13.6771 61.4741 22.8607
4593 1 10.9446 59.9066 22.8882
10983 2 12.7629 59.927 24.1759
4510 1 17.3143 61.5071 25.4292
4553 1 14.5808 59.9424 25.4596
4572 1 16.4008 59.9066 22.8882
10937 2 15.496 61.493 24.1478
4519 1 20.037 59.9424 25.4596
4520 1 19.1333 61.4741 22.8607
10883 2 20.9523 61.493 24.1478
10936 2 18.2192 59.927 24.1759
4540 1 11.8702 64.6376 25.377
4558 1 13.6866 64.6101 22.8132
4594 1 10.9536 63.042 22.8356
10968 2 12.7731 63.0592 24.122
4509 1 17.3264 64.6376 25.377
4556 1 14.592 63.0721 25.4014
4557 1 16.4099 63.042 22.8356
10923 2 15.5068 64.6256 24.0991
4508 1 20.0483 63.0721 25.4014
4513 1 19.1428 64.6101 22.8132
10882 2 20.9631 64.6256 24.0991
10939 2 18.2294 63.0592 24.122
4539 1 11.8839 67.7683 25.3401
4544 1 13.6967 67.7464 22.7778
4586 1 10.9635 66.1783 22.7939
10969 2 12.7845 66.192 24.0796
4495 1 17.3402 67.7683 25.3401
4538 1 14.6051 66.2031 25.3565
4560 1 16.4198 66.1783 22.7939
10922 2 15.5184 67.7582 24.0635
4511 1 20.0613 66.2031 25.3565
4512 1 19.1529 67.7464 22.7778
10875 2 20.9747 67.7582 24.0635
10921 2 18.2407 66.192 24.0796
4532 1 11.8966 70.8961 25.319
4543 1 13.7054 70.8813 22.7556
4587 1 10.9733 69.3141 22.7651
10960 2 12.7958 69.3239 24.0509
10961 2 12.8039 72.4533 24.0356
4585 1 10.9802 72.4481 22.7491
4494 1 17.3528 70.8961 25.319
4541 1 14.6188 69.3328 25.3277
4542 1 16.4295 69.3141 22.7651
10908 2 15.5286 70.8889 24.0417
4545 1 16.4364 72.4481 22.7491
4493 1 20.075 69.3328 25.3277
4498 1 19.1616 70.8813 22.7556
10874 2 20.9848 70.8889 24.0417
10924 2 18.252 69.3239 24.0509
10906 2 18.2601 72.4533 24.0356
4533 1 13.7098 74.0146 22.7456
4531 1 11.9032 74.0198 25.3106
4985 1 10.9816 75.5809 22.7449
11390 2 12.8055 75.5809 24.0317
4478 1 17.3594 74.0198 25.3106
4530 1 14.629 72.4584 25.3135
10907 2 15.5337 74.0172 24.0323
4953 1 14.6311 75.5808 25.31
4954 1 16.4378 75.5809 22.7449
4496 1 20.0852 72.4584 25.3135
4497 1 19.1661 74.0146 22.7456
10860 2 20.99 74.0172 24.0323
4901 1 20.0874 75.5808 25.31
11356 2 18.2617 75.5809 24.0317
4551 1 12.747 56.8659 28.1049
10934 2 13.6646 58.4055 26.7806
10981 2 10.9311 56.8423 26.814
4506 1 15.4809 58.4269 28.0696
10933 2 16.3873 56.8423 26.814
4458 1 20.9372 58.4269 28.0696
4516 1 18.2033 56.8659 28.1049
10881 2 19.1208 58.4055 26.7806
4552 1 12.7589 59.9874 28.0339
10919 2 13.6763 61.5308 26.7166
10966 2 10.9421 59.9682 26.7478
4505 1 15.4936 61.5481 27.9995
10935 2 16.3984 59.9682 26.7478
4457 1 20.9498 61.5481 27.9995
4504 1 18.2151 59.9874 28.0339
10880 2 19.1326 61.5308 26.7166
4536 1 12.7727 63.1095 27.9679
10918 2 13.69 64.6569 26.663
10967 2 10.9548 63.0937 26.688
10900 2 11.8716 64.6961 29.2254
4491 1 15.509 64.6715 27.9404
10917 2 16.411 63.0937 26.688
10869 2 17.3279 64.6961 29.2254
10916 2 14.5906 63.1376 29.2537
4456 1 20.9652 64.6715 27.9404
4507 1 18.2289 63.1095 27.9679
10873 2 19.1463 64.6569 26.663
10868 2 20.0469 63.1376 29.2537
4537 1 12.79 66.234 27.9186
10904 2 13.7058 67.7827 26.6259
10958 2 10.9697 66.22 26.6422
10899 2 11.8932 67.8129 29.1872
4490 1 15.528 67.7958 27.9022
10920 2 16.4259 66.22 26.6422
10856 2 17.3494 67.8129 29.1872
10898 2 14.6102 66.2548 29.203
4449 1 20.9842 67.7958 27.9022
4489 1 18.2462 66.234 27.9186
10872 2 19.162 67.7827 26.6259
10871 2 20.0664 66.2548 29.203
4528 1 12.8095 69.3562 27.8917
10903 2 13.7203 70.905 26.6061
10959 2 10.9855 69.3445 26.614
10892 2 11.9142 70.9241 29.173
4477 1 15.5462 70.9149 27.8853
10902 2 16.4417 69.3445 26.614
10855 2 17.3705 70.9241 29.173
10901 2 14.6326 69.3695 29.1775
4448 1 21.0025 70.9149 27.8853
4492 1 18.2657 69.3562 27.8917
10859 2 19.1766 70.905 26.6061
10854 2 20.0888 69.3695 29.1775
4529 1 12.8247 72.4711 27.8825
10893 2 13.728 74.0226 26.5991
10957 2 10.9972 72.4643 26.6014
10891 2 11.9254 74.0282 29.1716
4935 1 12.8279 75.5798 27.8808
11389 2 10.9997 75.5806 26.5985
4476 1 15.5562 74.0257 27.8814
10905 2 16.4535 72.4643 26.6014
10845 2 17.3816 74.0282 29.1716
10890 2 14.6498 72.4766 29.1719
11341 2 16.4559 75.5806 26.5985
11340 2 14.6532 75.5796 29.1709
4437 1 21.0125 74.0257 27.8814
4475 1 18.2809 72.4711 27.8825
10858 2 19.1842 74.0226 26.5991
10857 2 20.106 72.4766 29.1719
4900 1 18.2841 75.5798 27.8808
11285 2 20.1095 75.5796 29.1709
4502 1 13.655 58.4915 30.6532
4550 1 10.9203 56.9331 30.6901
10911 2 12.7337 56.9761 31.9773
10915 2 11.8403 58.4619 29.3585
4501 1 16.3765 56.9331 30.6901
10866 2 15.4684 58.5356 31.94
10878 2 17.2965 58.4619 29.3585
10932 2 14.5622 56.9012 29.3943
4455 1 19.1112 58.4915 30.6532
10836 2 20.9247 58.5356 31.94
10876 2 18.1899 56.9761 31.9773
10877 2 20.0184 56.9012 29.3943
4487 1 13.6698 61.6021 30.5748
4534 1 10.934 60.0475 30.6145
10912 2 12.748 60.0916 31.9001
10914 2 11.8544 61.5793 29.2865
4503 1 16.3903 60.0475 30.6145
10865 2 15.4848 61.6446 31.8588
10870 2 17.3106 61.5793 29.2865
10913 2 14.5752 60.021 29.3221
4454 1 19.1261 61.6021 30.5748
10835 2 20.9411 61.6446 31.8588
10864 2 18.2042 60.0916 31.9001
10879 2 20.0314 60.021 29.3221
4486 1 13.6893 64.7146 30.5053
4535 1 10.9503 63.1576 30.5373
10896 2 12.7665 63.1957 31.8186
4485 1 16.4066 63.1576 30.5373
10852 2 15.5065 64.7471 31.7849
4447 1 19.1455 64.7146 30.5053
10834 2 20.9627 64.7471 31.7849
10867 2 18.2227 63.1957 31.8186
4473 1 13.7164 67.83 30.4654
4526 1 10.9734 66.2726 30.4806
10897 2 12.7919 66.2982 31.7593
4488 1 16.4296 66.2726 30.4806
10851 2 15.5363 67.8489 31.7457
4446 1 19.1727 67.83 30.4654
10831 2 20.9925 67.8489 31.7457
10850 2 18.2482 66.2982 31.7593
4472 1 13.7434 70.9369 30.4579
4527 1 11.0015 69.3856 30.4585
10888 2 12.8248 69.3975 31.7406
4471 1 16.4578 69.3856 30.4585
10844 2 15.5677 70.9427 31.7455
4436 1 19.1996 70.9369 30.4579
10830 2 21.024 70.9427 31.7455
10853 2 18.281 69.3975 31.7406
4464 1 13.7576 74.0315 30.4612
4525 1 11.025 72.4844 30.4605
10889 2 12.85 72.4879 31.75
4934 1 11.0292 75.5785 30.4605
11319 2 12.8551 75.5789 31.7514
4474 1 16.4812 72.4844 30.4605
10843 2 15.5835 74.0334 31.7521
4885 1 16.4854 75.5785 30.4605
4435 1 19.2138 74.0315 30.4612
10827 2 21.0398 74.0334 31.7521
10842 2 18.3063 72.4879 31.75
11284 2 18.3113 75.5789 31.7514
4483 1 11.8246 58.5806 33.2443
10862 2 13.636 58.6324 34.5231
4500 1 14.5461 57.0213 33.2794
4479 1 12.7114 57.1357 35.8688
4452 1 17.2808 58.5806 33.2443
10861 2 16.3584 57.0704 34.5603
4440 1 15.4438 58.7044 35.8392
4450 1 18.1676 57.1357 35.8688
4451 1 20.0023 57.0213 33.2794
10833 2 19.0923 58.6324 34.5231
7646 2 21.8147 57.0704 34.5603
4422 1 20.9 58.7044 35.8392
4482 1 11.8415 61.682 33.1633
10848 2 13.6524 61.7374 34.4345
10894 2 10.9152 60.1885 34.4814
4480 1 12.7212 60.2669 35.8071
4444 1 17.2977 61.682 33.1633
4481 1 14.5605 60.1338 33.2053
10863 2 16.3714 60.1885 34.4814
4439 1 15.4558 61.8173 35.7697
4438 1 18.1774 60.2669 35.8071
4453 1 20.0168 60.1338 33.2053
10832 2 19.1087 61.7374 34.4345
4421 1 20.912 61.8173 35.7697
4469 1 11.8627 64.773 33.0769
10847 2 13.6764 64.8167 34.3359
10895 2 10.9361 63.2796 34.3841
4465 1 12.7383 63.36 35.7307
4443 1 17.3189 64.773 33.0769
4484 1 14.5787 63.2263 33.1181
10846 2 16.3924 63.2796 34.3841
4429 1 15.4746 64.8778 35.6805
4442 1 20.0349 63.2263 33.1181
10829 2 19.1326 64.8167 34.3359
4441 1 18.1945 63.36 35.7307
4420 1 20.9308 64.8778 35.6805
4468 1 11.902 67.8747 33.031
10840 2 13.7184 67.8882 34.2951
10886 2 10.9701 66.3535 34.307
4466 1 12.7588 66.4182 35.6397
4433 1 17.3582 67.8747 33.031
4467 1 14.6079 66.3229 33.0492
10849 2 16.4264 66.3535 34.307
4428 1 15.553 67.9122 35.6341
4445 1 20.0642 66.3229 33.0492
10828 2 19.1747 67.8882 34.2951
4427 1 18.215 66.4182 35.6397
4419 1 21.0092 67.9122 35.6341
4463 1 11.948 70.9523 33.047
10839 2 13.7703 70.953 34.327
10887 2 11.0196 69.4165 34.3107
4459 1 12.8562 69.4135 35.6652
4432 1 17.4042 70.9523 33.047
4470 1 14.6535 69.4173 33.0386
10838 2 16.4759 69.4165 34.3107
4425 1 15.6064 70.9553 35.6465
4431 1 20.1098 69.4173 33.0386
10826 2 19.2266 70.953 34.327
4430 1 18.3124 69.4135 35.6652
4418 1 21.0626 70.9553 35.6465
10837 2 13.7963 74.0365 34.3404
4462 1 11.9637 74.0359 33.0503
4460 1 12.8905 72.4956 35.6428
10885 2 11.06 72.4937 34.336
11318 2 11.0678 75.5803 34.3395
4863 1 12.8934 75.5829 35.6431
4426 1 17.4199 74.0359 33.0503
4461 1 14.6866 72.4929 33.0489
10841 2 16.5163 72.4937 34.336
4424 1 15.6219 74.036 35.6434
4884 1 14.6914 75.5786 33.0496
11269 2 16.5241 75.5803 34.3395
10825 2 19.2526 74.0365 34.3404
4434 1 20.1429 72.4929 33.0489
4423 1 18.3467 72.4956 35.6428
4417 1 21.0782 74.036 35.6434
4835 1 20.1477 75.5786 33.0496
4834 1 18.3497 75.5829 35.6431
11038 2 11.8018 58.7562 37.1011
16757 1 13.5944 58.8762 38.423
11040 2 14.5266 57.1851 37.1374
11027 2 17.258 58.7562 37.1011
16756 1 16.3285 57.2785 38.4469
11026 2 19.9828 57.1851 37.1374
16722 1 19.0506 58.8762 38.423
13944 1 21.7847 57.2785 38.4469
11037 2 11.813 61.875 37.01
16753 1 13.5701 62.0905 38.3729
11036 2 14.5353 60.3199 37.0591
11024 2 17.2692 61.875 37.01
16758 1 16.314 60.4759 38.4007
11028 2 19.9915 60.3199 37.0591
16721 1 19.0264 62.0905 38.3729
13942 1 21.7702 60.4759 38.4007
11034 2 11.8405 64.936 36.8834
16752 1 13.3311 65.5218 38.4405
11023 2 17.2967 64.936 36.8834
11039 2 14.5543 63.4099 36.9452
16751 1 16.2697 63.6978 38.342
11022 2 20.0106 63.4099 36.9452
16716 1 18.7873 65.5218 38.4405
13943 1 21.7259 63.6978 38.342
11033 2 11.8762 67.9048 36.8755
16742 1 13.0988 69.0952 38.3113
11020 2 17.3324 67.9048 36.8755
11032 2 14.5586 66.4256 36.8232
16754 1 15.8021 67.2425 38.3856
11025 2 20.0149 66.4256 36.8232
16715 1 18.5551 69.0952 38.3113
13940 1 21.2583 67.2425 38.3856
11031 2 12.0127 70.9406 36.9049
16741 1 13.0926 72.4261 38.2553
11019 2 17.4689 70.9406 36.9049
11035 2 14.6917 69.3975 36.8782
16740 1 15.8233 70.7838 38.2486
11018 2 20.1479 69.3975 36.8782
16702 1 18.5489 72.4261 38.2553
13941 1 21.2795 70.7838 38.2486
11030 2 12.035 74.0356 36.9216
11017 2 17.4912 74.0356 36.9216
11029 2 14.7547 72.4819 36.9206
16743 1 15.8246 74.0161 38.2495
11448 2 14.7624 75.5863 36.9204
11021 2 20.2109 72.4819 36.9206
13939 1 21.2809 74.0161 38.2495
11434 2 20.2186 75.5863 36.9204
22379 2 12.6987 57.3181 39.7011
22362 2 13.6021 59.0586 42.2107
16749 1 11.7652 59.0391 40.9718
16755 1 14.5014 57.4195 41.0011
22366 2 15.4259 58.9113 39.6654
22361 2 16.3336 57.4469 42.2495
16719 1 17.2215 59.0391 40.9718
22368 2 18.155 57.3181 39.7011
19558 2 21.7898 57.4469 42.2495
16718 1 19.9576 57.4195 41.0011
22317 2 19.0584 59.0586 42.2107
22320 2 20.8821 58.9113 39.6654
22380 2 12.6968 60.5099 39.6239
16748 1 11.7312 62.3131 40.9083
22354 2 13.5872 62.3088 42.1146
16747 1 14.4803 60.6652 40.9398
22365 2 15.4199 62.1131 39.5794
22363 2 16.3249 60.678 42.1666
16713 1 17.1875 62.3131 40.9083
22364 2 18.1531 60.5099 39.6239
19554 2 21.7812 60.678 42.1666
16720 1 19.9366 60.6652 40.9398
22316 2 19.0435 62.3088 42.1146
22319 2 20.8761 62.1131 39.5794
22376 2 12.6863 63.7371 39.5197
16738 1 11.737 65.6261 40.7011
22353 2 13.5423 65.6503 41.982
16750 1 14.4419 63.966 40.8638
22358 2 15.3783 65.3741 39.4423
16712 1 17.1932 65.6261 40.7011
22352 2 16.2976 63.9724 42.0544
22367 2 18.1425 63.7371 39.5197
19555 2 21.7538 63.9724 42.0544
16711 1 19.8981 63.966 40.8638
22309 2 18.9985 65.6503 41.982
22318 2 20.8346 65.3741 39.4423
22377 2 12.5332 67.2595 39.3908
16737 1 11.6586 68.9377 40.6462
22340 2 13.465 68.9887 41.9555
16736 1 14.4667 67.211 40.566
22357 2 15.207 69.044 39.426
16699 1 17.1148 68.9377 40.6462
22355 2 16.233 67.313 41.9511
22356 2 17.9895 67.2595 39.3908
19550 2 21.6893 67.313 41.9511
16714 1 19.9229 67.211 40.566
22308 2 18.9213 68.9887 41.9555
22311 2 20.6632 69.044 39.426
22372 2 12.4356 70.7355 39.4664
16730 1 11.5481 72.3188 40.774
22339 2 13.4149 72.3392 42.0099
16739 1 14.3155 70.6285 40.7326
16698 1 17.0044 72.3188 40.774
22338 2 16.1629 70.6687 41.9869
22344 2 15.142 72.3723 39.493
22359 2 17.8919 70.7355 39.4664
19551 2 21.6191 70.6687 41.9869
16697 1 19.7717 70.6285 40.7326
22294 2 18.8711 72.3392 42.0099
22310 2 20.5982 72.3723 39.493
22373 2 12.4033 74.011 39.5084
16728 1 14.2638 73.9864 40.7881
22341 2 16.1327 73.9971 42.0228
22342 2 17.8595 74.011 39.5084
19549 2 21.589 73.9971 42.0228
16700 1 19.7201 73.9864 40.7881
16745 1 12.6866 57.539 43.5361
22350 2 11.7849 59.1818 44.7471
22360 2 14.5174 57.5601 44.7888
16709 1 15.4082 59.1663 43.4993
22314 2 17.2412 59.1818 44.7471
16717 1 18.1428 57.539 43.5361
16656 1 20.8644 59.1663 43.4993
22313 2 19.9737 57.5601 44.7888
16746 1 12.6734 60.8012 43.457
22349 2 11.7684 62.4503 44.6489
22348 2 14.5065 60.8116 44.7006
16691 1 13.5895 62.5282 45.9201
16708 1 15.399 62.4433 43.3967
22306 2 17.2246 62.4503 44.6489
16707 1 18.1296 60.8012 43.457
16655 1 20.8553 62.4433 43.3967
22315 2 19.9628 60.8116 44.7006
16652 1 19.0457 62.5282 45.9201
16734 1 12.6632 64.089 43.3186
22336 2 11.7353 65.7361 44.5531
22351 2 14.4807 64.0936 44.5965
16690 1 13.5605 65.7885 45.8324
16695 1 15.3662 65.7266 43.2671
22305 2 17.1916 65.7361 44.5531
16710 1 18.1194 64.089 43.3186
16689 1 16.305 64.1595 45.8714
13913 1 21.7613 64.1595 45.8714
16654 1 20.8225 65.7266 43.2671
22304 2 19.9369 64.0936 44.5965
16645 1 19.0167 65.7885 45.8324
16735 1 12.6126 67.3578 43.23
22335 2 11.6905 69.026 44.5156
22334 2 14.441 67.3794 44.5264
16676 1 13.5294 69.0515 45.7862
16694 1 15.3182 68.9807 43.205
22291 2 17.1467 69.026 44.5156
16693 1 18.0689 67.3578 43.23
16692 1 16.2726 67.4183 45.8031
13904 1 21.7288 67.4183 45.8031
16647 1 20.7744 68.9807 43.205
22307 2 19.8973 67.3794 44.5264
16644 1 18.9856 69.0515 45.7862
16726 1 12.5742 70.6371 43.2227
22328 2 11.6617 72.3351 44.5281
22337 2 14.4006 70.6771 44.5195
16675 1 13.5118 72.3399 45.779
16680 1 15.2799 72.3079 43.257
22290 2 17.1179 72.3351 44.5281
16696 1 18.0304 70.6371 43.2227
16674 1 16.2464 70.69 45.7773
13905 1 21.7027 70.69 45.7773
16646 1 20.7361 72.3079 43.257
22289 2 19.8569 70.6771 44.5195
16630 1 18.9681 72.3399 45.779
16727 1 12.5375 73.9864 43.2771
22326 2 14.3844 73.9961 44.5337
16678 1 17.9937 73.9864 43.2771
16677 1 16.2369 73.9976 45.7824
13903 1 21.6931 73.9976 45.7824
22292 2 19.8407 73.9961 44.5337
16687 1 11.7944 59.3361 48.5545
16705 1 13.6026 59.2627 46.0225
22346 2 12.7048 57.654 47.3261
16703 1 14.5266 57.711 48.5975
16650 1 17.2506 59.3361 48.5545
16704 1 16.3345 57.6347 46.0654
22302 2 15.4281 59.2785 47.2839
22312 2 18.161 57.654 47.3261
13924 1 21.7907 57.6347 46.0654
16649 1 19.9828 57.711 48.5975
16653 1 19.0589 59.2627 46.0225
22254 2 20.8844 59.2785 47.2839
16686 1 11.7802 62.5885 48.4669
22347 2 12.6932 60.9071 47.2394
16685 1 14.5166 60.9624 48.51
16642 1 17.2364 62.5885 48.4669
16706 1 16.3259 60.8946 45.9731
22301 2 15.4121 62.538 47.1945
22300 2 18.1494 60.9071 47.2394
13912 1 21.7821 60.8946 45.9731
16651 1 19.9728 60.9624 48.51
22253 2 20.8683 62.538 47.1945
16672 1 11.7589 65.8399 48.3948
22332 2 12.6729 64.1694 47.1532
16688 1 14.4983 64.2142 48.428
16641 1 17.2152 65.8399 48.3948
22287 2 15.3883 65.8008 47.1179
22303 2 18.1291 64.1694 47.1532
16640 1 19.9545 64.2142 48.428
22252 2 20.8445 65.8008 47.1179
16671 1 11.7394 69.0965 48.348
22333 2 12.6466 67.4333 47.092
16670 1 14.4765 67.4668 48.368
16627 1 17.1956 69.0965 48.348
22286 2 15.3621 69.0688 47.0755
22285 2 18.1029 67.4333 47.092
16643 1 19.9328 67.4668 48.368
22245 2 20.8183 69.0688 47.0755
16664 1 11.7291 72.3676 48.3249
22324 2 12.6232 70.7089 47.067
16673 1 14.4611 70.7301 48.334
16626 1 17.1853 72.3676 48.3249
22273 2 15.3444 72.3541 47.0634
22288 2 18.0794 70.7089 47.067
16625 1 19.9173 70.7301 48.334
22244 2 20.8006 72.3541 47.0634
22325 2 12.613 74.0039 47.0622
16662 1 14.4558 74.0089 48.3204
22271 2 18.0693 74.0039 47.0622
16628 1 19.912 74.0089 48.3204
16683 1 12.7175 57.7723 51.1363
22298 2 13.6172 59.3519 49.8256
22279 2 11.8078 59.4091 52.3718
22296 2 14.5402 57.7891 52.4093
16638 1 15.4413 59.3939 51.0963
22297 2 16.3501 57.729 49.8658
16648 1 18.1738 57.7723 51.1363
22248 2 17.264 59.4091 52.3718
19525 2 21.8063 57.729 49.8658
16596 1 20.8976 59.3939 51.0963
22251 2 19.0734 59.3519 49.8256
22247 2 19.9964 57.7891 52.4093
16684 1 12.7076 61.0159 51.0568
22283 2 13.6038 62.6011 49.7462
22278 2 11.7968 62.6506 52.2998
22277 2 14.5308 61.0297 52.3349
16637 1 15.429 62.6378 51.0194
22299 2 16.3392 60.9762 49.7852
16636 1 18.1639 61.0159 51.0568
22240 2 17.2531 62.6506 52.2998
19510 2 21.7954 60.9762 49.7852
16595 1 20.8852 62.6378 51.0194
22250 2 19.06 62.6011 49.7462
22249 2 19.987 61.0297 52.3349
16668 1 12.6934 64.2599 50.985
22282 2 13.5866 65.8519 49.6792
22265 2 11.7842 65.8933 52.2387
22280 2 14.5187 64.2717 52.2675
16623 1 15.4138 65.8823 50.9548
22281 2 16.3235 64.2263 49.7104
16639 1 18.1496 64.2599 50.985
22239 2 17.2405 65.8933 52.2387
19511 2 21.7798 64.2263 49.7104
16594 1 20.87 65.8823 50.9548
22243 2 19.0428 65.8519 49.6792
22238 2 19.9749 64.2717 52.2675
22263 2 14.5063 67.5158 52.2142
16669 1 12.6786 67.5058 50.929
22269 2 13.5699 69.1077 49.6345
22264 2 11.7729 69.1396 52.1943
22229 2 17.2291 69.1396 52.1943
16622 1 15.4009 69.1309 50.9081
22284 2 16.3059 67.4787 49.6538
16621 1 18.1349 67.5058 50.929
19502 2 21.7622 67.4787 49.6538
22241 2 19.9626 67.5158 52.2142
16588 1 20.8571 69.1309 50.9081
22242 2 19.0261 69.1077 49.6345
22266 2 14.4967 70.765 52.1792
22259 2 11.7655 72.3921 52.1688
16660 1 12.6685 70.758 50.892
22268 2 13.5589 72.3751 49.6122
22228 2 17.2218 72.3921 52.1688
16611 1 15.3939 72.387 50.8808
22267 2 16.2915 70.7398 49.621
16624 1 18.1247 70.758 50.892
19503 2 21.7477 70.7398 49.621
22227 2 19.9529 70.765 52.1792
16587 1 20.8501 72.387 50.8808
22232 2 19.0151 72.3751 49.6122
22257 2 14.4921 74.0203 52.1632
16661 1 12.6644 74.0174 50.8746
22270 2 16.2847 74.0127 49.6076
16609 1 18.1206 74.0174 50.8746
22230 2 19.9483 74.0203 52.1632
19501 2 21.7409 74.0127 49.6076
16634 1 13.6324 59.4414 53.6436
22275 2 12.731 57.8385 54.9562
16633 1 16.3646 57.8228 53.6806
22236 2 15.4554 59.4559 54.921
22246 2 18.1873 57.8385 54.9562
13862 1 21.8208 57.8228 53.6806
16593 1 19.0887 59.4414 53.6436
22218 2 20.9116 59.4559 54.921
16619 1 13.6223 62.679 53.5736
22276 2 12.723 61.0734 54.8869
16635 1 16.3558 61.0602 53.6076
22235 2 15.4464 62.6911 54.8546
22234 2 18.1792 61.0734 54.8869
13846 1 21.812 61.0602 53.6076
16592 1 19.0785 62.679 53.5736
22217 2 20.9027 62.6911 54.8546
16618 1 13.6112 65.9172 53.514
22261 2 12.7135 64.3089 54.8247
16617 1 16.3448 64.2979 53.5422
22225 2 15.4369 65.9271 54.7978
22237 2 18.1697 64.3089 54.8247
13847 1 21.801 64.2979 53.5422
16586 1 19.0674 65.9172 53.514
22216 2 20.8931 65.9271 54.7978
22262 2 12.7044 67.5457 54.7745
16607 1 13.6019 69.1576 53.469
22223 2 18.1606 67.5457 54.7745
22224 2 15.4286 69.1649 54.7551
16620 1 16.3343 67.537 53.4894
13838 1 21.7905 67.537 53.4894
22215 2 20.8849 69.1649 54.7551
16585 1 19.0582 69.1576 53.469
22255 2 12.6974 70.7849 54.7401
16606 1 13.5966 72.4014 53.4417
22226 2 18.1537 70.7849 54.7401
22221 2 15.4234 72.4056 54.7295
16605 1 16.3269 70.7791 53.4529
13839 1 21.7831 70.7791 53.4529
22214 2 20.8796 72.4056 54.7295
16579 1 19.0528 72.4014 53.4417
22256 2 12.6941 74.0268 54.7237
16608 1 16.3236 74.0242 53.4355
22219 2 18.1503 74.0268 54.7237
13837 1 21.7798 74.0242 53.4355
16615 1 11.8239 59.4818 56.1939
16931 1 12.7466 57.9034 58.7791
22572 2 10.9221 57.8807 57.5057
22565 2 13.647 59.4956 57.4724
16632 1 14.5556 57.8657 56.2285
16590 1 17.2801 59.4818 56.1939
16918 1 15.4716 59.5171 58.7463
22564 2 16.3784 57.8807 57.5057
16872 1 20.9278 59.5171 58.7463
16589 1 20.0118 57.8657 56.2285
16920 1 18.2028 57.9034 58.7791
22530 2 19.1032 59.4956 57.4724
16614 1 11.8156 62.7138 56.1289
16932 1 12.7401 61.1307 58.7148
22570 2 10.9152 61.1105 57.4404
22561 2 13.6396 62.7254 57.4102
16613 1 14.548 61.0978 56.1605
16917 1 15.4647 62.7441 58.6851
16583 1 17.2718 62.7138 56.1289
22566 2 16.3715 61.1105 57.4404
16871 1 20.9209 62.7441 58.6851
16591 1 20.0042 61.0978 56.1605
16916 1 18.1963 61.1307 58.7148
22529 2 19.0958 62.7254 57.4102
16603 1 11.807 65.946 56.0733
16928 1 12.733 64.3573 58.6577
22560 2 13.632 65.9551 57.357
16616 1 14.5393 64.3299 56.0997
16910 1 15.4578 65.9704 58.6329
16582 1 17.2633 65.946 56.0733
22559 2 16.3639 64.3402 57.3822
16919 1 18.1893 64.3573 58.6577
16870 1 20.914 65.9704 58.6329
16581 1 19.9956 64.3299 56.0997
22524 2 19.0883 65.9551 57.357
19751 2 21.8201 64.3402 57.3822
16602 1 11.8 69.1788 56.0308
16929 1 12.7266 67.5835 58.6112
22550 2 13.6257 69.1855 57.3166
16601 1 14.5313 67.5623 56.0502
16909 1 15.4521 69.1965 58.593
16576 1 17.2562 69.1788 56.0308
22562 2 16.3567 67.5702 57.335
16908 1 18.1828 67.5835 58.6112
16863 1 20.9083 69.1965 58.593
16584 1 19.9876 67.5623 56.0502
22523 2 19.0819 69.1855 57.3166
19748 2 21.813 67.5702 57.335
16599 1 11.7957 72.4127 56.0048
16924 1 12.7219 70.8095 58.5787
22549 2 13.6216 72.4167 57.292
16604 1 14.5255 70.7957 56.0156
16896 1 15.4485 72.4224 58.5686
16575 1 17.2519 72.4127 56.0048
22548 2 16.3514 70.801 57.3022
16911 1 18.1781 70.8095 58.5787
16862 1 20.9048 72.4224 58.5686
16574 1 19.9818 70.7957 56.0156
22510 2 19.0779 72.4167 57.292
19749 2 21.8077 70.801 57.3022
16925 1 12.7196 74.0354 58.5628
16597 1 14.5228 74.03 55.9988
22551 2 16.3489 74.0326 57.2863
16894 1 18.1758 74.0354 58.5628
16577 1 19.9791 74.03 55.9988
19747 2 21.8051 74.0326 57.2863
16914 1 13.6629 59.5491 61.3003
16930 1 10.9375 57.9377 61.3316
22557 2 11.8385 59.5307 60.0254
16913 1 16.3938 57.9377 61.3316
22527 2 17.2947 59.5307 60.0254
22563 2 14.5695 57.9181 60.0571
22517 2 15.486 59.5631 62.5796
16869 1 19.1191 59.5491 61.3003
22526 2 20.0257 57.9181 60.0571
22464 2 20.9422 59.5631 62.5796
16906 1 13.657 62.7712 61.2422
16926 1 10.9319 61.1603 61.2704
22556 2 11.8322 62.7554 59.9665
22554 2 12.7552 61.1731 62.5507
16915 1 16.3881 61.1603 61.2704
22521 2 17.2885 62.7554 59.9665
22555 2 14.5635 61.1431 59.9951
22516 2 15.4806 62.7828 62.5235
16868 1 19.1132 62.7712 61.2422
22528 2 20.0198 61.1431 59.9951
22463 2 20.9368 62.7828 62.5235
22515 2 18.2114 61.1731 62.5507
16905 1 13.6512 65.9921 61.1929
16927 1 10.9259 64.3818 61.2163
22546 2 11.8261 65.9793 59.9164
22542 2 12.7498 64.3922 62.4985
16904 1 16.3822 64.3818 61.2163
22520 2 17.2823 65.9793 59.9164
22558 2 14.5572 64.3674 59.9402
22503 2 15.4753 66.0013 62.4759
16861 1 19.1075 65.9921 61.1929
22519 2 20.0134 64.3674 59.9402
22462 2 20.9316 66.0013 62.4759
22518 2 18.206 64.3922 62.4985
16892 1 13.6464 69.212 61.1553
16922 1 10.9205 67.6022 61.1725
22545 2 11.8209 69.2029 59.8783
22543 2 12.7449 67.6101 62.4563
22544 2 14.5514 67.5912 59.8957
16907 1 16.3768 67.6022 61.1725
22507 2 17.2771 69.2029 59.8783
22502 2 15.471 69.2187 62.4398
16860 1 19.1027 69.212 61.1553
22522 2 20.0076 67.5912 59.8957
22455 2 20.9272 69.2187 62.4398
22501 2 18.2011 67.6101 62.4563
16891 1 13.6434 72.4312 61.1322
16923 1 10.9166 70.8217 61.1418
22538 2 11.8176 72.4264 59.855
22547 2 14.5471 70.8146 59.8646
22534 2 12.7412 70.8271 62.4268
16890 1 16.3728 70.8217 61.1418
22506 2 17.2739 72.4264 59.855
22488 2 15.4682 72.4353 62.4175
16846 1 19.0996 72.4312 61.1322
22505 2 20.0033 70.8146 59.8646
22454 2 20.9244 72.4353 62.4175
22504 2 18.1974 70.8271 62.4268
22536 2 14.545 74.0381 59.8494
22535 2 12.7394 74.0435 62.4121
16921 1 10.9146 74.0407 61.1267
16893 1 16.3708 74.0407 61.1267
22508 2 20.0012 74.0381 59.8494
22486 2 18.1956 74.0435 62.4121
16902 1 11.8539 59.5793 63.8559
22513 2 13.6769 59.5942 65.1347
22552 2 10.9511 57.986 65.1639
22553 2 12.7604 57.9527 62.61
16866 1 17.3101 59.5793 63.8559
16912 1 14.5844 57.97 63.886
22512 2 16.4073 57.986 65.1639
16865 1 20.0407 57.97 63.886
22461 2 19.1331 59.5942 65.1347
22525 2 18.2167 57.9527 62.61
16901 1 11.8487 62.7967 63.8004
22499 2 13.6721 62.8092 65.0807
22540 2 10.9464 61.202 65.1068
16858 1 17.3049 62.7967 63.8004
16900 1 14.5794 61.1882 63.8273
22514 2 16.4026 61.202 65.1068
16867 1 20.0357 61.1882 63.8273
22460 2 19.1283 62.8092 65.0807
16888 1 11.8437 66.0124 63.7534
22498 2 13.6674 66.0223 65.0353
22541 2 10.9416 64.416 65.0568
16857 1 17.2999 66.0124 63.7534
16903 1 14.5743 64.4047 63.7757
22497 2 16.3978 64.416 65.0568
16856 1 20.0305 64.4047 63.7757
22453 2 19.1237 66.0223 65.0353
16887 1 11.8396 69.2266 63.7177
22484 2 13.6636 69.2338 65.0007
22532 2 10.9373 67.6282 65.0165
16843 1 17.2958 69.2266 63.7177
16886 1 14.5696 67.6196 63.734
22500 2 16.3935 67.6282 65.0165
16859 1 20.0259 67.6196 63.734
22452 2 19.1198 69.2338 65.0007
16880 1 11.8369 72.4397 63.6957
22483 2 13.6611 72.4442 64.9793
22533 2 10.9341 70.8391 64.9883
16842 1 17.2932 72.4397 63.6957
16889 1 14.5662 70.8333 63.7049
22482 2 16.3903 70.8391 64.9883
16841 1 20.0224 70.8333 63.7049
22438 2 19.1174 72.4442 64.9793
22531 2 10.9324 74.0492 64.974
16878 1 14.5644 74.0461 63.6902
22485 2 16.3886 74.0492 64.974
16844 1 20.0206 74.0461 63.6902
16898 1 12.7746 58.0018 66.443
22495 2 11.8673 59.6257 67.6895
16850 1 13.69 59.6395 68.9773
16897 1 10.9639 58.0342 69.0056
16854 1 15.5005 59.609 66.4139
22458 2 17.3235 59.6257 67.6895
22511 2 14.5975 58.0195 67.7179
16849 1 16.4201 58.0342 69.0056
16806 1 20.9568 59.609 66.4139
16864 1 18.2309 58.0018 66.443
22457 2 20.0538 58.0195 67.7179
16803 1 19.1462 59.6395 68.9773
16899 1 12.7701 61.2157 66.3863
22494 2 11.8628 62.836 67.6374
16835 1 13.6858 62.8477 68.9255
16882 1 10.9598 61.2439 68.9505
16853 1 15.4959 62.8218 66.3604
22450 2 17.3191 62.836 67.6374
22493 2 14.5932 61.2312 67.6626
16851 1 16.416 61.2439 68.9505
16805 1 20.9521 62.8218 66.3604
16852 1 18.2263 61.2157 66.3863
22459 2 20.0494 61.2312 67.6626
16802 1 19.142 62.8477 68.9255
16884 1 12.7655 64.4274 66.3367
22480 2 11.8586 66.0437 67.5936
16834 1 13.6819 66.0533 68.8819
16883 1 10.9557 64.4508 68.9026
16839 1 15.4915 66.0324 66.3153
22449 2 17.3148 66.0437 67.5936
22496 2 14.5888 64.4401 67.6143
16833 1 16.4119 64.4508 68.9026
16804 1 20.9477 66.0324 66.3153
16855 1 18.2218 64.4274 66.3367
22448 2 20.045 64.4401 67.6143
16795 1 19.1381 66.0533 68.8819
16885 1 12.7614 67.637 66.2967
22479 2 11.8551 69.2493 67.5603
16821 1 13.6786 69.2565 68.8489
16874 1 10.952 67.6551 68.864
16838 1 15.4878 69.2411 66.2811
22435 2 17.3113 69.2493 67.5603
22478 2 14.5849 67.6468 67.5755
16836 1 16.4082 67.6551 68.864
16797 1 20.9441 69.2411 66.2811
16837 1 18.2177 67.637 66.2967
22451 2 20.0411 67.6468 67.5755
16794 1 19.1348 69.2565 68.8489
16876 1 12.7583 70.8449 66.2688
22472 2 11.8528 72.4535 67.5394
16875 1 10.9492 70.8575 68.8369
16825 1 15.4854 72.4485 66.2598
22434 2 17.309 72.4535 67.5394
22481 2 14.5819 70.8515 67.5482
16819 1 16.4055 70.8575 68.8369
16796 1 20.9417 72.4485 66.2598
16840 1 18.2146 70.8449 66.2688
22433 2 20.0381 70.8515 67.5482
16820 1 13.6764 72.4582 68.8282
16877 1 12.7567 74.0519 66.2545
16873 1 10.9477 74.0586 68.8229
22470 2 14.5803 74.0552 67.5341
16822 1 16.404 74.0586 68.8229
16784 1 19.1327 72.4582 68.8282
16823 1 18.213 74.0519 66.2545
22436 2 20.0366 74.0552 67.5341
16831 1 11.8755 59.6705 71.5571
22491 2 12.7876 58.0544 70.2673
16800 1 17.3317 59.6705 71.5571
16848 1 14.6054 58.0672 71.5846
22446 2 15.5136 59.6585 70.2395
16799 1 20.0616 58.0672 71.5846
22404 2 20.9699 59.6585 70.2395
22456 2 18.2438 58.0544 70.2673
16830 1 11.8718 62.8743 71.5066
22492 2 12.7834 61.2616 70.2132
16792 1 17.3281 62.8743 71.5066
16829 1 14.6018 61.2728 71.531
22445 2 15.5095 62.8639 70.1887
16801 1 20.058 61.2728 71.531
22403 2 20.9657 62.8639 70.1887
22444 2 18.2397 61.2616 70.2132
16817 1 11.8684 66.0746 71.4643
22476 2 12.7793 64.4654 70.1662
16791 1 17.3246 66.0746 71.4643
16832 1 14.5982 64.4748 71.4843
22431 2 15.5055 66.0661 70.1461
16790 1 20.0544 64.4748 71.4843
22402 2 20.9618 66.0661 70.1461
22447 2 18.2356 64.4654 70.1662
16816 1 11.8655 69.272 71.4323
22477 2 12.7757 67.6661 70.1285
16781 1 17.3217 69.272 71.4323
16815 1 14.5949 67.6736 71.4469
22430 2 15.5023 69.2654 70.1138
16793 1 20.0512 67.6736 71.4469
22396 2 20.9585 69.2654 70.1138
22429 2 18.2319 67.6661 70.1285
22468 2 12.7729 70.8643 70.1021
16818 1 14.5925 70.8699 71.4207
16779 1 20.0488 70.8699 71.4207
22432 2 18.2291 70.8643 70.1021
16811 1 11.8636 72.4674 71.4122
22469 2 12.7714 74.0611 70.0884
16780 1 17.3198 72.4674 71.4122
22419 2 15.5001 72.4628 70.0936
16809 1 14.5912 74.0647 71.4071
22395 2 20.9564 72.4628 70.0936
16782 1 20.0475 74.0647 71.4071
22417 2 18.2277 74.0611 70.0884
16827 1 12.7471 58.0979 74.2418
22423 2 11.8699 59.7236 75.2623
22442 2 13.702 59.693 72.777
22490 2 10.9759 58.0909 72.8043
16788 1 15.4754 59.6995 74.2144
22398 2 17.3261 59.7236 75.2623
22440 2 14.5992 58.1231 75.2887
22441 2 16.4321 58.0909 72.8043
16770 1 20.9316 59.6995 74.2144
16798 1 18.2034 58.0979 74.2418
22397 2 20.0555 58.1231 75.2887
22401 2 19.1583 59.693 72.777
16828 1 12.7473 61.3001 74.1885
22422 2 11.8673 62.9203 75.2141
22427 2 13.698 62.8935 72.7273
22474 2 10.9719 61.2938 72.7513
16787 1 15.4755 62.8997 74.1644
22391 2 17.3236 62.9203 75.2141
22421 2 14.5967 61.3226 75.2373
22443 2 16.4281 61.2938 72.7513
16769 1 20.9317 62.8997 74.1644
16786 1 18.2036 61.3001 74.1885
22399 2 20.053 61.3226 75.2373
22400 2 19.1542 62.8935 72.7273
16813 1 12.7474 64.4982 74.1422
22411 2 11.8648 66.1117 75.1738
22426 2 13.6941 66.0898 72.6857
22475 2 10.9679 64.4922 72.7053
16777 1 15.4755 66.0957 74.1224
22390 2 17.3211 66.1117 75.1738
22424 2 14.5942 64.5166 75.1928
22425 2 16.4241 64.4922 72.7053
16768 1 20.9318 66.0957 74.1224
16789 1 18.2036 64.4982 74.1422
22389 2 20.0504 64.5166 75.1928
22394 2 19.1504 66.0898 72.6857
16814 1 12.7474 67.6923 74.1051
22410 2 11.8627 69.2986 75.1435
22415 2 13.691 69.2823 72.6542
22466 2 10.9643 67.6864 72.6685
16776 1 15.4755 69.2881 74.0906
22384 2 17.319 69.2986 75.1435
22409 2 14.5918 67.7056 75.1573
22428 2 16.4206 67.6864 72.6685
16767 1 20.9318 69.2881 74.0906
16775 1 18.2037 67.6923 74.1051
22392 2 20.0481 67.7056 75.1573
22393 2 19.1472 69.2823 72.6542
16807 1 12.7474 70.8833 74.0791
22467 2 10.9616 70.8776 72.6428
22412 2 14.59 70.8907 75.1325
22413 2 16.4179 70.8776 72.6428
16778 1 18.2037 70.8833 74.0791
22382 2 20.0463 70.8907 75.1325
22407 2 11.8613 72.4822 75.1246
22414 2 13.6889 72.4723 72.6345
22465 2 10.9602 74.0667 72.6295
16808 1 12.7474 74.0723 74.0657
16773 1 15.4756 72.478 74.0708
22383 2 17.3176 72.4822 75.1246
22416 2 16.4164 74.0667 72.6295
22405 2 14.5891 74.0732 75.1198
16766 1 20.9318 72.478 74.0708
22387 2 19.1451 72.4723 72.6345
22385 2 20.0453 74.0732 75.1198
16771 1 18.2037 74.0723 74.0657
11217 2 11.8469 77.1499 -1.57758
11225 2 13.6772 77.1492 -4.07108
4800 1 12.7894 78.7331 -3.01609
11230 2 10.9487 78.7403 -4.06799
4786 1 15.518 77.1446 -3.01924
11187 2 17.3031 77.1499 -1.57758
11215 2 14.5748 78.7391 -1.57441
11226 2 16.4049 78.7403 -4.06799
4740 1 20.9743 77.1446 -3.01924
11190 2 19.1334 77.1492 -4.07108
4784 1 18.2456 78.7331 -3.01609
11188 2 20.031 78.7391 -1.57441
11216 2 11.8463 80.3281 -1.56915
11221 2 13.6762 80.3312 -4.06287
4785 1 15.5166 80.3214 -3.01086
11181 2 17.3025 80.3281 -1.56915
4739 1 20.9728 80.3214 -3.01086
11189 2 19.1325 80.3312 -4.06287
4796 1 12.7872 81.9095 -3.0036
11206 2 11.8451 83.5048 -1.55254
11220 2 13.6745 83.5119 -4.0467
11231 2 10.9473 81.9218 -4.05575
4778 1 15.5137 83.4973 -2.99436
11180 2 17.3014 83.5048 -1.55254
11218 2 14.5739 81.9167 -1.56184
11219 2 16.4036 81.9218 -4.05575
4738 1 20.97 83.4973 -2.99436
4787 1 18.2434 81.9095 -3.0036
11179 2 20.0301 81.9167 -1.56184
11184 2 19.1307 83.5119 -4.0467
4797 1 12.7837 85.0848 -2.98322
11205 2 11.8435 86.6794 -1.5283
11210 2 13.672 86.6904 -4.02312
11228 2 10.9452 85.1015 -4.0358
4777 1 15.5097 86.6718 -2.97026
11167 2 17.2998 86.6794 -1.5283
11204 2 14.5725 85.0924 -1.54134
11222 2 16.4014 85.1015 -4.0358
4731 1 20.9659 86.6718 -2.97026
4776 1 18.24 85.0848 -2.98322
11182 2 20.0287 85.0924 -1.54134
11183 2 19.1282 86.6904 -4.02312
4792 1 12.7791 88.2583 -2.95558
11198 2 11.8416 89.8512 -1.49718
11209 2 13.6689 89.866 -3.99285
11229 2 10.9424 88.2786 -4.00876
4764 1 15.5046 89.8441 -2.93929
11166 2 17.2979 89.8512 -1.49718
11207 2 14.5707 88.2657 -1.51355
11208 2 16.3986 88.2786 -4.00876
4730 1 20.9608 89.8441 -2.93929
4779 1 18.2354 88.2583 -2.95558
11165 2 20.027 88.2657 -1.51355
11170 2 19.1252 89.866 -3.99285
4793 1 12.7736 91.4293 -2.92152
11197 2 11.8396 93.0196 -1.46014
11199 2 13.6655 93.0381 -3.95682
11227 2 10.9391 91.4525 -3.97549
4763 1 15.4987 93.0138 -2.90239
11149 2 17.2958 93.0196 -1.46014
11196 2 14.5687 91.4358 -1.47934
11211 2 16.3954 91.4525 -3.97549
4715 1 20.955 93.0138 -2.90239
4762 1 18.2299 91.4293 -2.92152
11168 2 20.025 91.4358 -1.47934
11169 2 19.1217 93.0381 -3.95682
4770 1 11.8518 77.1474 2.22885
4782 1 13.6706 77.1473 -0.358632
4794 1 10.9422 78.7345 -0.355448
11214 2 12.7586 78.7354 0.97134
4734 1 17.3081 77.1474 2.22885
11177 2 15.4869 77.1488 0.968099
4768 1 14.5797 78.7324 2.23212
4783 1 16.3985 78.7345 -0.355448
4737 1 19.1268 77.1473 -0.358632
11124 2 20.9432 77.1488 0.968099
4735 1 20.0359 78.7324 2.23212
11175 2 18.2148 78.7354 0.97134
4769 1 11.8511 80.3172 2.23755
4774 1 13.6699 80.3215 -0.350168
4726 1 17.3074 80.3172 2.23755
11176 2 15.4863 80.3217 0.976712
4771 1 14.5786 81.9018 2.24508
4736 1 19.1261 80.3215 -0.350168
11123 2 20.9425 80.3217 0.976712
4724 1 20.0349 81.9018 2.24508
4756 1 11.8498 83.486 2.25467
4773 1 13.6685 83.4947 -0.333501
4795 1 10.9412 81.9083 -0.342833
11202 2 12.7576 81.9077 0.984173
4725 1 17.306 83.486 2.25467
4772 1 16.3974 81.9083 -0.342833
11163 2 15.4851 83.4934 0.993662
4729 1 19.1248 83.4947 -0.333501
11122 2 20.9413 83.4934 0.993662
11178 2 18.2139 81.9077 0.984173
4755 1 11.8479 86.6533 2.27968
4760 1 13.6666 86.6661 -0.309148
4790 1 10.9395 85.0807 -0.322244
11203 2 12.7561 85.0786 1.0051
4711 1 17.3042 86.6533 2.27968
4754 1 14.577 85.0699 2.26623
4775 1 16.3958 85.0807 -0.322244
11162 2 15.4834 86.6632 1.01841
4727 1 20.0333 85.0699 2.26623
4728 1 19.1229 86.6661 -0.309148
11115 2 20.9396 86.6632 1.01841
11161 2 18.2124 85.0786 1.0051
4748 1 11.8457 89.8184 2.3118
4759 1 13.6644 89.8352 -0.277856
4791 1 10.9374 88.251 -0.294314
11194 2 12.7543 88.2473 1.03347
4710 1 17.302 89.8184 2.3118
4757 1 14.575 88.2361 2.29491
4758 1 16.3937 88.251 -0.294314
11148 2 15.4813 89.8307 1.05017
4709 1 20.0312 88.2361 2.29491
4714 1 19.1206 89.8352 -0.277856
11114 2 20.9376 89.8307 1.05017
11164 2 18.2105 88.2473 1.03347
4747 1 11.8433 92.9812 2.35003
4749 1 13.6618 93.0015 -0.240576
4789 1 10.935 91.4187 -0.259899
11195 2 12.7521 91.4134 1.06838
4693 1 17.2995 92.9812 2.35003
4746 1 14.5726 91.4001 2.33022
4761 1 16.3912 91.4187 -0.259899
11147 2 15.4791 92.9953 1.08796
4712 1 20.0289 91.4001 2.33022
4713 1 19.118 93.0015 -0.240576
11099 2 20.9353 92.9953 1.08796
11146 2 18.2083 91.4134 1.06838
11173 2 13.6712 77.1486 3.52714
4767 1 12.7634 78.7311 4.80436
11200 2 10.9428 78.7328 3.53046
4722 1 15.4918 77.1482 4.80099
11174 2 16.3991 78.7328 3.53046
4668 1 20.9481 77.1482 4.80099
11121 2 19.1275 77.1486 3.52714
4720 1 18.2196 78.7311 4.80436
11159 2 13.6705 80.3168 3.53596
4752 1 12.7622 81.8964 4.81771
11201 2 10.9418 81.9005 3.54359
4721 1 15.491 80.3139 4.80995
11157 2 16.398 81.9005 3.54359
4667 1 20.9473 80.3139 4.80995
11120 2 19.1267 80.3168 3.53596
4723 1 18.2185 81.8964 4.81771
11158 2 13.6691 83.4839 3.5533
4707 1 15.4895 83.4786 4.82758
4666 1 20.9458 83.4786 4.82758
11113 2 19.1253 83.4839 3.5533
4753 1 12.7605 85.0605 4.83948
11144 2 13.6672 86.6494 3.57862
11192 2 10.9401 85.0668 3.56501
4706 1 15.4875 86.6419 4.85332
11160 2 16.3963 85.0668 3.56501
4659 1 20.9437 86.6419 4.85332
4705 1 18.2167 85.0605 4.83948
11112 2 19.1234 86.6494 3.57862
11193 2 10.938 88.2314 3.59402
11143 2 13.6649 89.8128 3.6111
4744 1 12.7582 88.2229 4.86898
11142 2 16.3942 88.2314 3.59402
4692 1 15.485 89.8034 4.88635
11098 2 19.1211 89.8128 3.6111
4708 1 18.2144 88.2229 4.86898
4658 1 20.9413 89.8034 4.88635
11191 2 10.9355 91.3937 3.62971
11133 2 13.6623 92.9739 3.64971
4745 1 12.7556 91.3833 4.90528
11145 2 16.3918 91.3937 3.62971
4691 1 15.4823 92.9627 4.92562
11097 2 19.1186 92.9739 3.64971
4690 1 18.2118 91.3833 4.90528
4644 1 20.9385 92.9627 4.92562
4718 1 13.6752 77.1498 7.36784
11155 2 11.855 77.1495 6.09013
4750 1 10.9466 78.7308 7.37148
11152 2 12.7666 78.7305 8.65796
11106 2 15.4952 77.1504 8.65419
11118 2 17.3112 77.1495 6.09013
4719 1 16.4029 78.7308 7.37148
11153 2 14.5827 78.7315 6.09365
4665 1 19.1314 77.1498 7.36784
11064 2 20.9514 77.1504 8.65419
11104 2 18.2228 78.7305 8.65796
11119 2 20.039 78.7315 6.09365
4703 1 13.6742 80.3116 7.37742
11154 2 11.8541 80.3134 6.09942
4751 1 10.9452 81.8922 7.38562
11136 2 12.765 81.8901 8.67247
11105 2 15.494 80.3104 8.66407
11110 2 17.3103 80.3134 6.09942
4701 1 16.4015 81.8922 7.38562
11156 2 14.5814 81.895 6.1074
4664 1 19.1304 80.3116 7.37742
11063 2 20.9503 80.3104 8.66407
11107 2 18.2213 81.8901 8.67247
11108 2 20.0377 81.895 6.1074
4702 1 13.6724 83.4726 7.396
11140 2 11.8524 83.4763 6.11751
11137 2 12.7627 85.0486 8.69579
4742 1 10.9432 85.0526 7.40848
11091 2 15.4921 83.4695 8.68307
11109 2 17.3087 83.4763 6.11751
4704 1 16.3994 85.0526 7.40848
4657 1 19.1286 83.4726 7.396
11062 2 20.9483 83.4695 8.68307
11089 2 18.219 85.0486 8.69579
4688 1 13.6701 86.6322 7.42295
11139 2 11.8503 86.6379 6.14379
11090 2 15.4895 86.6274 8.71052
11095 2 17.3065 86.6379 6.14379
11138 2 14.5795 85.0573 6.12968
4656 1 19.1263 86.6322 7.42295
11056 2 20.9457 86.6274 8.71052
11111 2 20.0358 85.0573 6.12968
4687 1 13.6673 89.7901 7.45735
4743 1 10.9406 88.2114 7.43928
11128 2 12.7599 88.2057 8.72712
11132 2 11.8477 89.7976 6.17737
4686 1 16.3969 88.2114 7.43928
11079 2 15.4865 89.7836 8.74546
11094 2 17.3039 89.7976 6.17737
11141 2 14.5771 88.218 6.15973
4643 1 19.1236 89.7901 7.45735
11055 2 20.9428 89.7836 8.74546
11092 2 18.2162 88.2057 8.72712
11093 2 20.0334 88.218 6.15973
4677 1 13.6643 92.9462 7.49804
4741 1 10.9377 91.3684 7.47699
11129 2 12.7568 91.3611 8.76536
11131 2 11.8448 92.9553 6.21715
4689 1 16.394 91.3684 7.47699
11078 2 15.4833 92.938 8.78666
11080 2 17.3011 92.9553 6.21715
11130 2 14.5744 91.3768 6.19656
4642 1 19.1206 92.9462 7.49804
11048 2 20.9395 92.938 8.78666
11077 2 18.213 91.3611 8.76536
11096 2 20.0306 91.3768 6.19656
4699 1 11.8593 77.1509 9.93287
11102 2 13.6797 77.1512 11.2182
11134 2 10.951 78.7293 11.2223
4696 1 12.7716 78.7288 12.5011
4662 1 17.3155 77.1509 9.93287
4650 1 15.5004 77.1516 12.4968
4697 1 14.5869 78.73 9.9368
11103 2 16.4072 78.7293 11.2223
11061 2 19.136 77.1512 11.2182
4620 1 20.9566 77.1516 12.4968
4663 1 20.0431 78.73 9.9368
4648 1 18.2278 78.7288 12.5011
4698 1 11.858 80.309 9.94313
11087 2 13.6782 80.3074 11.2288
11135 2 10.949 81.8852 11.2377
4680 1 12.7692 81.8829 12.5171
4654 1 17.3142 80.309 9.94313
4649 1 15.4986 80.306 12.5079
4700 1 14.5851 81.8877 9.95182
11085 2 16.4052 81.8852 11.2377
11060 2 19.1345 80.3074 11.2288
4619 1 20.9549 80.306 12.5079
4652 1 20.0413 81.8877 9.95182
4651 1 18.2254 81.8829 12.5171
4684 1 11.8558 83.4663 9.96278
11086 2 13.6757 83.4628 11.2489
11126 2 10.9461 85.0401 11.2622
4681 1 12.766 85.0361 12.5426
4653 1 17.312 83.4663 9.96278
4636 1 15.4958 83.4596 12.5287
11088 2 16.4023 85.0401 11.2622
4682 1 14.5826 85.0445 9.97591
11054 2 19.132 83.4628 11.2489
4618 1 20.952 83.4596 12.5287
4634 1 18.2222 85.0361 12.5426
4655 1 20.0388 85.0445 9.97591
4683 1 11.853 86.6223 9.9911
11075 2 13.6726 86.6171 11.2777
11127 2 10.9427 88.1936 11.2951
4672 1 12.7622 88.188 12.5767
4640 1 17.3092 86.6223 9.9911
4635 1 15.4923 86.6122 12.5587
11073 2 16.3989 88.1936 11.2951
4685 1 14.5795 88.1998 10.0082
11053 2 19.1288 86.6171 11.2777
4615 1 20.9485 86.6122 12.5587
4637 1 18.2185 88.188 12.5767
4638 1 20.0358 88.1998 10.0082
4676 1 11.8498 89.7769 10.0271
11074 2 13.669 89.7698 11.3143
11125 2 10.939 91.3456 11.3351
4639 1 17.306 89.7769 10.0271
11076 2 16.3952 91.3456 11.3351
4674 1 14.5762 91.3535 10.0475
11047 2 19.1252 89.7698 11.3143
4641 1 20.0324 91.3535 10.0475
4675 1 11.8463 92.9297 10.0694
11068 2 13.6652 92.921 11.3572
11558 2 10.9351 94.496 11.3806
4629 1 17.3025 92.9297 10.0694
11509 2 16.3914 94.496 11.3806
11046 2 19.1214 92.921 11.3572
4646 1 13.6862 77.1519 15.0599
11083 2 11.8651 77.1516 13.7817
4678 1 10.9571 78.7271 15.0645
11058 2 17.3213 77.1516 13.7817
4647 1 16.4133 78.7271 15.0645
11081 2 14.5924 78.7278 13.7861
4617 1 19.1424 77.1519 15.0599
11059 2 20.0486 78.7278 13.7861
4632 1 13.6837 80.3023 15.0718
11082 2 11.863 80.3039 13.7931
4679 1 10.9538 81.8774 15.0817
11051 2 17.3193 80.3039 13.7931
4630 1 16.4101 81.8774 15.0817
11084 2 14.5896 81.8798 13.8026
4616 1 19.14 80.3023 15.0718
11049 2 20.0458 81.8798 13.8026
4631 1 13.6799 83.4522 15.0941
11071 2 11.8597 83.4556 13.8144
4670 1 10.9496 85.0268 15.1089
11050 2 17.316 83.4556 13.8144
4633 1 16.4059 85.0268 15.1089
11069 2 14.5859 85.031 13.8286
4613 1 19.1362 83.4522 15.0941
11052 2 20.0421 85.031 13.8286
4624 1 13.6754 86.6011 15.1259
11070 2 11.8557 86.6062 13.845
4671 1 10.9449 88.1751 15.145
11044 2 17.312 86.6062 13.845
4622 1 16.4012 88.1751 15.145
11072 2 14.5817 88.181 13.8633
4612 1 19.1317 86.6011 15.1259
11042 2 20.0379 88.181 13.8633
4673 1 12.7583 91.3383 12.618
4669 1 10.9401 91.3221 15.1886
4623 1 13.6707 89.7488 15.166
11067 2 11.8514 89.7555 13.8835
11065 2 14.5773 91.3296 13.9053
4625 1 16.3964 91.3221 15.1886
4628 1 15.4884 89.7633 12.5965
11043 2 17.3076 89.7555 13.8835
11045 2 20.0335 91.3296 13.9053
4626 1 18.2145 91.3383 12.618
4614 1 20.9446 89.7633 12.5965
4610 1 19.1269 89.7488 15.166
5078 1 10.9352 94.4678 15.2378
11066 2 11.8469 92.9034 13.9285
4621 1 13.6658 92.8951 15.2126
5079 1 12.7541 94.4872 12.6649
11041 2 17.3031 92.9034 13.9285
4627 1 15.4843 92.913 12.6408
5029 1 16.3915 94.4678 15.2378
11508 2 14.5727 94.4768 13.9528
4611 1 20.9406 92.913 12.6408
4609 1 19.122 92.8951 15.2126
5044 1 18.2103 94.4872 12.6649
11465 2 20.0289 94.4768 13.9528
11406 2 13.6952 77.1506 18.9074
4990 1 11.8732 77.1515 17.6224
11418 2 10.9654 78.7221 18.9124
11424 2 12.7783 78.7256 16.3495
11410 2 15.5077 77.1515 16.3448
4967 1 17.3294 77.1515 17.6224
11407 2 16.4217 78.7221 18.9124
4988 1 14.5998 78.7245 17.6273
11361 2 19.1515 77.1506 18.9074
11364 2 20.9639 77.1515 16.3448
11408 2 18.2346 78.7256 16.3495
4968 1 20.0561 78.7245 17.6273
4989 1 11.8697 80.2975 17.6351
11398 2 13.6912 80.2937 18.9203
11419 2 10.9602 81.8653 18.931
11420 2 12.7746 81.8734 16.367
11409 2 15.5048 80.2995 16.3569
4963 1 17.3259 80.2975 17.6351
4991 1 14.5953 81.8704 17.6457
11396 2 16.4164 81.8653 18.931
11360 2 19.1474 80.2937 18.9203
11363 2 20.961 80.2995 16.3569
4961 1 20.0516 81.8704 17.6457
11411 2 18.2308 81.8734 16.367
4983 1 11.8645 83.4433 17.6589
11397 2 13.6851 83.4368 18.9445
11421 2 12.7697 85.0207 16.3947
11414 2 10.9537 85.0083 18.9606
11402 2 15.5004 83.4472 16.3797
4962 1 17.3207 83.4433 17.6589
4981 1 14.5897 85.0159 17.6747
11399 2 16.4099 85.0083 18.9606
11353 2 19.1414 83.4368 18.9445
11362 2 20.9566 83.4472 16.3797
4964 1 20.0459 85.0159 17.6747
11400 2 18.2259 85.0207 16.3947
4982 1 11.8586 86.5884 17.6929
11384 2 13.6784 86.5795 18.9792
11416 2 12.7644 88.167 16.4316
11415 2 10.9469 88.1505 19.0001
11401 2 15.4952 86.594 16.4121
4951 1 17.3148 86.5884 17.6929
4984 1 14.5837 88.1605 17.7133
11382 2 16.4031 88.1505 19.0001
11352 2 19.1346 86.5795 18.9792
11355 2 20.9514 86.594 16.4121
11403 2 18.2206 88.167 16.4316
4949 1 20.04 88.1605 17.7133
4976 1 11.8527 89.7323 17.7357
11383 2 13.6717 89.7213 19.0229
11417 2 12.759 91.312 16.4761
11413 2 10.9403 91.2917 19.0475
4950 1 17.3089 89.7323 17.7357
11388 2 15.4898 89.7396 16.453
4974 1 14.5779 91.3039 17.7597
11385 2 16.3965 91.2917 19.0475
11338 2 19.1279 89.7213 19.0229
11354 2 20.946 89.7396 16.453
4952 1 20.0341 91.3039 17.7597
11386 2 18.2152 91.312 16.4761
4975 1 11.8468 92.8751 17.7852
11373 2 13.6652 92.862 19.0734
11831 2 12.7536 94.4559 16.526
11830 2 10.9339 94.432 19.1003
4933 1 17.3031 92.8751 17.7852
11387 2 15.4844 92.8841 16.5005
11813 2 16.3901 94.432 19.1003
5376 1 14.5721 94.446 17.8117
11337 2 19.1214 92.862 19.0734
11339 2 20.9407 92.8841 16.5005
11820 2 18.2098 94.4559 16.526
5350 1 20.0283 94.446 17.8117
11394 2 11.8844 77.1486 21.4701
4987 1 12.7876 78.7204 20.1898
4959 1 15.5178 77.1502 20.1845
11358 2 17.3406 77.1486 21.4701
11392 2 14.61 78.717 21.4753
4908 1 20.974 77.1502 20.1845
4957 1 18.2438 78.7204 20.1898
11359 2 20.0662 78.717 21.4753
11393 2 11.8785 80.2856 21.4834
4979 1 12.7812 81.8614 20.2091
4958 1 15.5128 80.2908 20.1979
11350 2 17.3347 80.2856 21.4834
11395 2 14.6026 81.8545 21.4947
4907 1 20.969 80.2908 20.1979
4960 1 18.2374 81.8614 20.2091
11348 2 20.0589 81.8545 21.4947
11380 2 11.8702 83.4236 21.5089
4980 1 12.7736 85.0025 20.2401
4947 1 15.5056 83.432 20.2232
11349 2 17.3264 83.4236 21.5089
11378 2 14.5938 84.9927 21.5261
4906 1 20.9618 83.432 20.2232
4945 1 18.2298 85.0025 20.2401
11351 2 20.0501 84.9927 21.5261
11379 2 11.8613 86.5617 21.5461
4972 1 12.766 88.143 20.2817
4946 1 15.4979 86.5729 20.2597
11335 2 17.3176 86.5617 21.5461
11381 2 14.5852 88.1305 21.5687
4899 1 20.9541 86.5729 20.2597
4948 1 18.2222 88.143 20.2817
11333 2 20.0414 88.1305 21.5687
11372 2 11.853 89.6991 21.5934
4973 1 12.7588 91.2824 20.3316
4932 1 15.4905 89.7128 20.3058
11334 2 17.3092 89.6991 21.5934
11370 2 14.5771 91.2674 21.6198
4898 1 20.9467 89.7128 20.3058
4930 1 18.2151 91.2824 20.3316
11336 2 20.0334 91.2674 21.6198
11371 2 11.8452 92.8356 21.6475
5370 1 12.7519 94.4207 20.3869
4931 1 15.4835 92.8516 20.3588
11317 2 17.3014 92.8356 21.6475
11812 2 14.5695 94.4038 21.676
4883 1 20.9397 92.8516 20.3588
5349 1 18.2082 94.4207 20.3869
11765 2 20.0258 94.4038 21.676
4939 1 11.9004 77.1423 25.3117
4955 1 13.708 77.1473 22.7472
4977 1 10.9767 78.7141 22.7523
11391 2 12.7998 78.7092 24.0386
4902 1 17.3567 77.1423 25.3117
11346 2 15.5316 77.1448 24.0337
4937 1 14.6239 78.7047 25.316
4956 1 16.433 78.7141 22.7523
4905 1 19.1642 77.1473 22.7472
11292 2 20.9878 77.1448 24.0337
4903 1 20.0802 78.7047 25.316
11344 2 18.2561 78.7092 24.0386
4938 1 11.8897 80.2681 25.3235
4943 1 13.7006 80.2814 22.7606
4978 1 10.9677 81.8492 22.7721
11376 2 12.7893 81.8401 24.058
4894 1 17.3459 80.2681 25.3235
11345 2 15.5231 80.2743 24.0466
4940 1 14.6109 81.8326 25.3347
4941 1 16.4239 81.8492 22.7721
4904 1 19.1569 80.2814 22.7606
11291 2 20.9793 80.2743 24.0466
4892 1 20.0671 81.8326 25.3347
11347 2 18.2456 81.8401 24.058
4924 1 11.8756 83.3978 25.35
4942 1 13.6906 83.4172 22.7869
4970 1 10.9574 84.9854 22.805
11377 2 12.7775 84.9727 24.0913
4893 1 17.3319 83.3978 25.35
11331 2 15.5115 83.4063 24.0728
4922 1 14.5969 84.9634 25.3695
4944 1 16.4136 84.9854 22.805
4897 1 19.1469 83.4172 22.7869
11290 2 20.9678 83.4063 24.0728
4895 1 20.0532 84.9634 25.3695
11329 2 18.2337 84.9727 24.0913
4923 1 11.8624 86.5289 25.3928
4928 1 13.6805 86.5535 22.8263
4971 1 10.9477 88.1214 22.8503
11368 2 12.7665 88.1054 24.1376
4879 1 17.3186 86.5289 25.3928
11330 2 15.5 86.5391 24.113
4925 1 14.5846 88.094 25.4195
4926 1 16.4039 88.1214 22.8503
4896 1 19.1368 86.5535 22.8263
11283 2 20.9562 86.5391 24.113
4877 1 20.0408 88.094 25.4195
11332 2 18.2227 88.1054 24.1376
4916 1 11.851 89.6587 25.4488
4927 1 13.6713 89.6889 22.8766
4969 1 10.9389 91.2561 22.9047
11369 2 12.7567 91.2372 24.1934
4878 1 17.3072 89.6587 25.4488
11316 2 15.4896 89.6713 24.1646
4914 1 14.5739 91.2231 25.4798
4929 1 16.3951 91.2561 22.9047
11314 2 18.2129 91.2372 24.1934
4880 1 20.0302 91.2231 25.4798
11282 2 20.9458 89.6713 24.1646
4882 1 19.1276 89.6889 22.8766
11798 2 12.7477 94.3693 24.2535
5369 1 10.9307 94.3902 22.9639
4917 1 13.6629 92.8232 22.934
4915 1 11.8409 92.7874 25.5115
5338 1 16.3869 94.3902 22.9639
5337 1 14.5642 94.3522 25.5433
11315 2 15.4802 92.803 24.2232
4862 1 17.2971 92.7874 25.5115
11764 2 18.2039 94.3693 24.2535
5285 1 20.0205 94.3522 25.5433
11268 2 20.9364 92.803 24.2232
4881 1 19.1191 92.8232 22.934
11342 2 13.7248 77.1389 26.5996
4936 1 12.8171 78.691 27.8823
11374 2 10.9914 78.6983 26.6032
11323 2 11.9209 77.1313 29.17
4890 1 15.5521 77.1345 27.8806
11343 2 16.4476 78.6983 26.6032
11286 2 17.3772 77.1313 29.17
11321 2 14.6413 78.6841 29.17
4842 1 21.0084 77.1345 27.8806
11289 2 19.1811 77.1389 26.5996
4888 1 18.2734 78.691 27.8823
11287 2 20.0975 78.6841 29.17
11327 2 13.7125 80.2589 26.61
4920 1 12.7984 81.8104 27.8972
11375 2 10.9764 81.8208 26.6208
11322 2 11.9031 80.2388 29.1735
4889 1 15.5363 80.2498 27.8876
11325 2 16.4327 81.8208 26.6208
11278 2 17.3593 80.2388 29.1735
11324 2 14.6197 81.7956 29.1823
4841 1 20.9926 80.2498 27.8876
11288 2 19.1687 80.2589 26.61
4891 1 18.2546 81.8104 27.8972
11276 2 20.0759 81.7956 29.1823
11326 2 13.6964 83.3836 26.6359
4921 1 12.7791 84.9347 27.9335
11366 2 10.9604 84.9468 26.6557
11308 2 11.8803 83.3539 29.1972
4875 1 15.5165 83.3723 27.9126
11328 2 16.4166 84.9468 26.6557
11277 2 17.3366 83.3539 29.1972
11306 2 14.5979 84.9126 29.2187
4840 1 20.9727 83.3723 27.9126
11281 2 19.1526 83.3836 26.6359
4873 1 18.2354 84.9347 27.9335
11279 2 20.0542 84.9126 29.2187
11312 2 13.6813 86.51 26.6796
4912 1 12.7635 88.0583 27.9906
11367 2 10.9465 88.0729 26.7072
11307 2 11.8606 86.4713 29.246
4874 1 15.499 86.4968 27.96
11310 2 16.4027 88.0729 26.7072
11264 2 17.3168 86.4713 29.246
4833 1 20.9552 86.4968 27.96
11280 2 19.1375 86.51 26.6796
4876 1 18.2197 88.0583 27.9906
11311 2 13.6685 89.6357 26.7373
4913 1 12.7507 91.1797 28.0583
11365 2 10.9346 91.1985 26.769
4861 1 15.485 89.6191 28.0239
11313 2 16.3908 91.1985 26.769
4832 1 20.9412 89.6191 28.0239
11267 2 19.1247 89.6357 26.7373
4859 1 18.2069 91.1797 28.0583
11301 2 13.6573 92.7618 26.8012
5319 1 12.7395 94.3038 28.1257
11797 2 10.924 94.3261 26.8332
4860 1 15.473 92.7411 28.0925
11749 2 16.3803 94.3261 26.8332
4821 1 20.9292 92.7411 28.0925
11266 2 19.1135 92.7618 26.8012
5284 1 18.1957 94.3038 28.1257
4886 1 13.7522 77.1258 30.4583
4918 1 11.0138 78.6735 30.4547
11320 2 12.8381 78.6698 31.7419
11274 2 15.5772 77.1245 31.7477
4887 1 16.4701 78.6735 30.4547
4839 1 19.2085 77.1258 30.4583
11244 2 21.0334 77.1245 31.7477
11272 2 18.2944 78.6698 31.7419
4871 1 13.728 80.2253 30.4544
4919 1 10.9864 81.7811 30.4605
11304 2 12.8061 81.7643 31.7409
11273 2 15.5511 80.2153 31.7364
4869 1 16.4426 81.7811 30.4605
4838 1 19.1842 80.2253 30.4544
11243 2 21.0073 80.2153 31.7364
11275 2 18.2623 81.7643 31.7409
4870 1 13.6995 83.3387 30.4751
4910 1 10.959 84.8968 30.499
11305 2 12.7763 84.8664 31.7789
11260 2 15.518 83.3152 31.7539
4872 1 16.4153 84.8968 30.499
4831 1 19.1557 83.3387 30.4751
11242 2 20.9742 83.3152 31.7539
11258 2 18.2325 84.8664 31.7789
4857 1 13.6763 86.4538 30.5302
4911 1 10.9395 88.0094 30.5666
11296 2 12.7544 87.9693 31.851
11259 2 15.4924 86.4179 31.8119
4855 1 16.3957 88.0094 30.5666
11309 2 14.5805 88.0297 29.2778
4830 1 19.1325 86.4538 30.5302
11239 2 20.9486 86.4179 31.8119
11261 2 18.2107 87.9693 31.851
11262 2 20.0367 88.0297 29.2778
4856 1 13.6598 89.5643 30.6049
11300 2 11.8449 89.5882 29.3123
4909 1 10.9244 91.1207 30.6423
11297 2 12.7379 91.0793 31.9293
11252 2 15.4737 89.5227 31.8909
11263 2 17.3012 89.5882 29.3123
4858 1 16.3807 91.1207 30.6423
11298 2 14.5662 91.1476 29.3475
4820 1 19.116 89.5643 30.6049
11238 2 20.9299 89.5227 31.8909
11250 2 18.1941 91.0793 31.9293
11265 2 20.0224 91.1476 29.3475
4848 1 13.646 92.6796 30.6778
11299 2 11.8318 92.7086 29.382
11727 2 12.7258 94.203 31.9987
11251 2 15.4594 92.6393 31.9653
11253 2 17.2881 92.7086 29.382
5269 1 16.3683 94.2415 30.7112
11748 2 14.5543 94.2716 29.4153
11692 2 18.182 94.203 31.9987
2246 1 21.8246 94.2415 30.7112
4819 1 19.1022 92.6796 30.6778
11235 2 20.9156 92.6393 31.9653
11693 2 20.0106 94.2716 29.4153
4867 1 11.9575 77.1216 33.0467
11270 2 13.7868 77.1229 34.3334
11302 2 11.0401 78.6634 34.3224
4864 1 12.8766 78.6631 35.6442
4836 1 17.4138 77.1216 33.0467
4865 1 14.674 78.6619 33.0432
11271 2 16.4963 78.6634 34.3224
4824 1 15.618 77.1229 35.6411
11241 2 19.243 77.1229 34.3334
4837 1 20.1303 78.6619 33.0432
4806 1 21.0742 77.1229 35.6411
4822 1 18.3328 78.6631 35.6442
4866 1 11.9228 80.1976 33.0337
11256 2 13.7451 80.1997 34.3046
11303 2 10.9878 81.7288 34.29
4849 1 12.819 81.7071 35.6255
4828 1 17.379 80.1976 33.0337
4868 1 14.6277 81.7414 33.026
11254 2 16.444 81.7288 34.29
4823 1 15.5805 80.2036 35.6592
11240 2 19.2013 80.1997 34.3046
4826 1 20.084 81.7414 33.026
4805 1 21.0368 80.2036 35.6592
4825 1 18.2752 81.7071 35.6255
4853 1 11.8771 83.2936 33.0438
11255 2 13.6956 83.264 34.3021
11294 2 10.9459 84.8006 34.3312
4850 1 12.7444 84.7422 35.6772
4827 1 17.3333 83.2936 33.0438
4851 1 14.5883 84.8432 33.0717
11257 2 16.4021 84.8006 34.3312
4813 1 15.4838 83.2025 35.6363
11237 2 19.1518 83.264 34.3021
4829 1 20.0446 84.8432 33.0717
4804 1 20.9401 83.2025 35.6363
4811 1 18.2006 84.7422 35.6772
4852 1 11.8483 86.3897 33.1119
11248 2 13.6618 86.3384 34.3787
11295 2 10.9216 87.8815 34.4274
4843 1 12.7255 87.8061 35.7603
4817 1 17.3046 86.3897 33.1119
4854 1 14.5672 87.9345 33.1554
11246 2 16.3779 87.8815 34.4274
4812 1 15.4645 86.2605 35.7243
4814 1 18.1818 87.8061 35.7603
11236 2 19.118 86.3384 34.3787
4815 1 20.0235 87.9345 33.1554
4803 1 20.9207 86.2605 35.7243
4847 1 11.8298 89.4836 33.1956
11247 2 13.6407 89.4313 34.4725
4844 1 12.7133 90.9209 35.827
11249 2 16.3615 90.9883 34.5126
4809 1 15.4471 89.3574 35.7964
4807 1 18.1696 90.9209 35.827
4816 1 17.2861 89.4836 33.1956
4845 1 14.5501 91.0376 33.233
8029 2 21.8178 90.9883 34.5126
4802 1 20.9033 89.3574 35.7964
4818 1 20.0064 91.0376 33.233
11234 2 19.0969 89.4313 34.4725
5247 1 12.7061 94.0645 35.8821
5268 1 14.5382 94.1622 33.298
11245 2 13.6277 92.551 34.5484
4846 1 11.8154 92.5975 33.2669
4808 1 15.4372 92.4902 35.8554
5218 1 18.1623 94.0645 35.8821
11677 2 16.3517 94.1187 34.5807
4810 1 17.2716 92.5975 33.2669
11233 2 19.084 92.551 34.5484
8462 2 21.8079 94.1187 34.5807
5219 1 19.9944 94.1622 33.298
4801 1 20.8934 92.4902 35.8554
11446 2 12.0244 77.1398 36.918
16731 1 13.0966 75.6164 38.2495
11435 2 17.4807 77.1398 36.918
17116 1 15.8193 77.2055 38.2553
11444 2 14.7384 78.6802 36.8993
16701 1 18.5529 75.6164 38.2495
11436 2 20.1947 78.6802 36.8993
14304 1 21.2755 77.2055 38.2553
11445 2 11.9582 80.2238 36.8697
17117 1 13.0955 78.855 38.2453
11432 2 17.4144 80.2238 36.8697
17118 1 15.8277 80.5539 38.3104
11447 2 14.5979 81.7117 36.8652
17082 1 18.5518 78.855 38.2453
11430 2 20.0541 81.7117 36.8652
14302 1 21.2839 80.5539 38.3104
11442 2 11.829 83.1934 36.8203
17113 1 13.0858 82.4037 38.385
11431 2 17.2852 83.1934 36.8203
17111 1 16.0775 84.1289 38.4322
11440 2 14.5668 84.6848 36.8814
17081 1 18.542 82.4037 38.385
11433 2 20.0231 84.6848 36.8814
14303 1 21.5337 84.1289 38.4322
11441 2 11.8235 86.2136 36.9404
17112 1 13.5454 85.9408 38.329
11443 2 14.5385 87.7497 37.0033
11428 2 17.2798 86.2136 36.9404
17114 1 16.2992 87.5452 38.3617
17076 1 19.0016 85.9408 38.329
11426 2 19.9947 87.7497 37.0033
14300 1 21.7554 87.5452 38.3617
11439 2 11.8045 89.3063 37.0504
17102 1 13.5856 89.1594 38.3881
11437 2 14.5272 90.8709 37.0906
11427 2 17.2607 89.3063 37.0504
17100 1 16.3216 90.7588 38.4094
17075 1 19.0418 89.1594 38.3881
11429 2 19.9835 90.8709 37.0906
14301 1 21.7778 90.7588 38.4094
11856 2 14.5221 94.0197 37.1561
11438 2 11.7959 92.443 37.1253
17101 1 13.5989 92.3561 38.4324
11425 2 17.2522 92.443 37.1253
17103 1 16.3301 93.9493 38.4559
11842 2 19.9783 94.0197 37.1561
17062 1 19.0552 92.3561 38.4324
14299 1 21.7863 93.9493 38.4559
22739 2 12.4152 77.2688 39.488
16729 1 11.5368 75.6589 40.7856
22329 2 13.4049 75.6504 42.0211
17115 1 14.2783 77.328 40.7688
22721 2 16.1444 77.3092 42.0052
16681 1 16.9931 75.6589 40.7856
22343 2 15.1314 75.627 39.5078
22728 2 17.8714 77.2688 39.488
17078 1 19.7345 77.328 40.7688
22293 2 18.8611 75.6504 42.0211
22295 2 20.5876 75.627 39.5078
19918 2 21.6006 77.3092 42.0052
22740 2 12.4833 80.6036 39.4169
22722 2 13.4369 78.981 41.9799
17109 1 11.5911 79.0182 40.7239
17107 1 14.393 80.7095 40.633
22726 2 15.1669 78.9076 39.4583
22723 2 16.196 80.6613 41.9477
17079 1 17.0473 79.0182 40.7239
22724 2 17.9395 80.6036 39.4169
17080 1 19.8492 80.7095 40.633
22677 2 18.8932 78.981 41.9799
22680 2 20.6231 78.9076 39.4583
19914 2 21.6523 80.6613 41.9477
22736 2 12.6534 84.2715 39.4393
17108 1 11.7399 82.4298 40.5637
22714 2 13.5076 82.3351 41.9445
17110 1 14.4627 84.0168 40.7032
22725 2 15.2682 82.3975 39.3837
17073 1 17.1961 82.4298 40.5637
22712 2 16.2718 83.9988 41.9766
22727 2 18.1096 84.2715 39.4393
19915 2 21.728 83.9988 41.9766
17071 1 19.9189 84.0168 40.7032
22676 2 18.9638 82.3351 41.9445
22679 2 20.7244 82.3975 39.3837
22737 2 12.6905 87.5234 39.5717
17098 1 11.714 85.681 40.8587
22713 2 13.5701 85.6764 42.0487
17096 1 14.4601 87.3328 40.8977
22718 2 15.414 85.9029 39.5142
17072 1 17.1703 85.681 40.8587
22715 2 16.3147 87.3378 42.107
22716 2 18.1468 87.5234 39.5717
19910 2 21.771 87.3378 42.107
17074 1 19.9164 87.3328 40.8977
22669 2 19.0264 85.6764 42.0487
22678 2 20.8702 85.9029 39.5142
22732 2 12.6957 90.7245 39.6545
17097 1 11.7525 88.9792 40.9273
22700 2 13.5955 88.9669 42.1569
17099 1 14.493 90.6043 40.9583
22717 2 15.4232 89.1263 39.6144
17059 1 17.2088 88.9792 40.9273
22698 2 16.3285 90.5856 42.1993
22719 2 18.1519 90.7245 39.6545
19911 2 21.7848 90.5856 42.1993
17057 1 19.9492 90.6043 40.9583
22668 2 19.0518 88.9669 42.1569
22671 2 20.8794 89.1263 39.6144
22733 2 12.6969 93.9107 39.7197
17090 1 11.7723 92.2231 40.9864
22699 2 13.6035 92.1969 42.2366
17088 1 14.5058 93.8334 41.0121
17058 1 17.2285 92.2231 40.9864
22701 2 16.3336 93.8038 42.2701
22704 2 15.4246 92.3179 39.6886
22702 2 18.1532 93.9107 39.7197
19909 2 21.7899 93.8038 42.2701
17060 1 19.9621 93.8334 41.0121
22654 2 19.0597 92.1969 42.2366
22670 2 20.8809 92.3179 39.6886
17105 1 12.5531 77.343 43.2519
22327 2 11.6565 75.6581 44.5324
22720 2 14.3904 77.3189 44.5243
16665 1 13.5088 75.6581 45.7813
16679 1 15.2661 75.6652 43.2751
22274 2 17.1128 75.6581 44.5324
17077 1 18.0094 77.343 43.2519
17064 1 16.24 77.3153 45.7759
14284 1 21.6963 77.3153 45.7759
22673 2 19.8466 77.3189 44.5243
16631 1 20.7224 75.6652 43.2751
16629 1 18.965 75.6581 45.7813
17106 1 12.5908 80.6671 43.2003
22710 2 11.6735 78.9765 44.514
22708 2 14.4199 80.6271 44.5093
17065 1 13.5186 78.9645 45.7729
17069 1 15.3034 79.0128 43.2163
22674 2 17.1298 78.9765 44.514
17067 1 18.047 80.6671 43.2003
17066 1 16.258 80.6027 45.7804
14272 1 21.7142 80.6027 45.7804
17016 1 20.7596 79.0128 43.2163
22675 2 19.8761 80.6271 44.5093
17013 1 18.9749 78.9645 45.7729
17094 1 12.6394 83.9224 43.26
22709 2 11.714 82.2735 44.5196
22711 2 14.4641 83.9166 44.5461
17051 1 13.5449 82.2359 45.7963
17068 1 15.342 82.2902 43.2242
22666 2 17.1702 82.2735 44.5196
17070 1 18.0957 83.9224 43.26
17049 1 16.289 83.8658 45.8246
14273 1 21.7452 83.8658 45.8246
17015 1 20.7983 82.2902 43.2242
22664 2 19.9203 83.9166 44.5461
17012 1 19.0012 82.2359 45.7963
17095 1 12.6704 87.2073 43.3886
22696 2 11.7527 85.5591 44.589
22694 2 14.496 87.2024 44.6404
17050 1 13.577 85.4951 45.8625
17055 1 15.3918 85.5609 43.3119
22665 2 17.2089 85.5591 44.589
17053 1 18.1267 87.2073 43.3886
17052 1 16.3172 87.1269 45.9103
14264 1 21.7735 87.1269 45.9103
17014 1 20.8481 85.5609 43.3119
22667 2 19.9523 87.2024 44.6404
17005 1 19.0332 85.4951 45.8625
17086 1 12.6793 90.4837 43.4863
22695 2 11.7774 88.8406 44.6904
22697 2 14.5116 90.4698 44.7352
17054 1 15.4008 88.8493 43.446
22651 2 17.2336 88.8406 44.6904
17056 1 18.1355 90.4837 43.4863
17007 1 20.8571 88.8493 43.446
22649 2 19.9678 90.4698 44.7352
17087 1 12.6904 93.7305 43.5535
22688 2 11.7875 92.091 44.7754
22686 2 14.5186 93.707 44.8116
17040 1 15.4136 92.1105 43.5216
22650 2 17.2438 92.091 44.7754
17038 1 18.1466 93.7305 43.5535
22652 2 19.9748 93.707 44.8116
17006 1 20.8699 92.1105 43.5216
22706 2 12.6165 77.3047 47.0604
16663 1 11.7276 75.6515 48.3196
17063 1 14.4571 77.2926 48.3224
16612 1 17.1839 75.6515 48.3196
22272 2 15.3412 75.6552 47.0612
22672 2 18.0727 77.3047 47.0604
17009 1 19.9134 77.2926 48.3224
22233 2 20.7975 75.6552 47.0612
17047 1 11.7329 78.93 48.3297
22707 2 12.6343 80.5893 47.0695
17045 1 14.4675 80.5634 48.3421
17010 1 17.1891 78.93 48.3297
22662 2 15.3517 78.9496 47.0623
22660 2 18.0905 80.5893 47.0695
17011 1 19.9237 80.5634 48.3421
22614 2 20.8079 78.9496 47.0623
17046 1 11.7483 82.193 48.3607
22692 2 12.6602 83.857 47.11
17048 1 14.4869 83.8199 48.3861
17002 1 17.2045 82.193 48.3607
22661 2 15.375 82.2246 47.085
22663 2 18.1164 83.857 47.11
17000 1 19.9431 83.8199 48.3861
22613 2 20.8312 82.2246 47.085
17032 1 11.7698 85.4459 48.4181
22693 2 12.6833 87.12 47.1845
17030 1 14.5076 87.0718 48.4558
17001 1 17.226 85.4459 48.4181
22647 2 15.4006 85.4885 47.1443
22645 2 18.1395 87.12 47.1845
17003 1 19.9639 87.0718 48.4558
22612 2 20.8569 85.4885 47.1443
17031 1 11.7874 88.6982 48.4976
22684 2 12.6986 90.3795 47.2712
17033 1 14.5212 90.3248 48.5408
17036 1 13.5969 88.7608 45.962
16987 1 17.2437 88.6982 48.4976
17034 1 16.3295 90.3928 46.0096
22646 2 15.4202 88.751 47.228
22648 2 18.1548 90.3795 47.2712
14265 1 21.7858 90.3928 46.0096
16985 1 19.9774 90.3248 48.5408
22605 2 20.8764 88.751 47.228
17004 1 19.0531 88.7608 45.962
17024 1 11.7969 91.9502 48.5824
17035 1 13.605 92.0207 46.0509
22685 2 12.7063 93.6242 47.3496
17022 1 14.5278 93.5732 48.6211
16986 1 17.2531 91.9502 48.5824
17037 1 16.3364 93.644 46.0876
22633 2 15.4312 92.0039 47.3118
22631 2 18.1625 93.6242 47.3496
14263 1 21.7926 93.644 46.0876
16988 1 19.9841 93.5732 48.6211
16990 1 19.0612 92.0207 46.0509
22604 2 20.8874 92.0039 47.3118
17043 1 12.6656 77.2786 50.8781
22260 2 13.5566 75.6513 49.6067
22258 2 11.7639 75.6489 52.1622
22656 2 14.4935 77.2771 52.166
22657 2 16.287 77.2888 49.6095
16610 1 15.3925 75.6482 50.8738
17008 1 18.1218 77.2786 50.8781
22222 2 17.2201 75.6489 52.1622
19885 2 21.7432 77.2888 49.6095
16580 1 20.8487 75.6482 50.8738
22231 2 19.0128 75.6513 49.6067
22607 2 19.9497 77.2771 52.166
17044 1 12.6724 80.5346 50.9019
22658 2 13.5633 78.9238 49.6165
22639 2 11.7683 78.9041 52.1745
22637 2 14.5006 80.5295 52.1878
16998 1 15.3963 78.9075 50.8875
22659 2 16.2978 80.5557 49.6284
16996 1 18.1286 80.5346 50.9019
22608 2 17.2245 78.9041 52.1745
19870 2 21.7541 80.5557 49.6284
16956 1 20.8526 78.9075 50.8875
22611 2 19.0196 78.9238 49.6165
22609 2 19.9568 80.5295 52.1878
17028 1 12.6851 83.7834 50.9453
22643 2 13.5776 82.1846 49.6463
22638 2 11.7776 82.1534 52.2061
22640 2 14.5116 83.7759 52.229
16997 1 15.4063 82.1598 50.9211
22641 2 16.3143 83.8114 49.6704
16999 1 18.1414 83.7834 50.9453
22600 2 17.2339 82.1534 52.2061
19871 2 21.7705 83.8114 49.6704
16955 1 20.8625 82.1598 50.9211
22610 2 19.0338 82.1846 49.6463
22598 2 19.9679 83.7759 52.229
17029 1 12.6999 87.0283 51.007
22642 2 13.5947 85.4372 49.7003
22623 2 14.5238 87.0191 52.2871
22625 2 11.7896 85.3977 52.2562
16983 1 15.4207 85.406 50.9741
22644 2 16.331 87.0626 49.7348
16981 1 18.1562 87.0283 51.007
22599 2 17.2459 85.3977 52.2562
19862 2 21.7872 87.0626 49.7348
16954 1 20.877 85.406 50.9741
22603 2 19.051 85.4372 49.7003
22601 2 19.9801 87.0191 52.2871
22626 2 14.5344 90.2611 52.3563
22624 2 11.8013 88.6402 52.3208
17020 1 12.7118 90.2728 51.0812
22629 2 13.6099 88.6877 49.7725
22589 2 17.2576 88.6402 52.3208
16982 1 15.4346 88.6506 51.0431
22627 2 16.3438 90.3122 49.8115
16984 1 18.1681 90.2728 51.0812
19863 2 21.8001 90.3122 49.8115
22587 2 19.9906 90.2611 52.3563
16948 1 20.8908 88.6506 51.0431
22602 2 19.0661 88.6877 49.7725
22617 2 14.5419 93.5006 52.4287
22619 2 11.8104 91.8813 52.3925
17021 1 12.719 93.5157 51.1578
22628 2 13.6203 91.9352 49.8504
22588 2 17.2667 91.8813 52.3925
16971 1 15.4441 91.8947 51.1199
22630 2 16.3518 93.556 49.8879
16969 1 18.1752 93.5157 51.1578
22590 2 19.9981 93.5006 52.4287
19861 2 21.8081 93.556 49.8879
16947 1 20.9003 91.8947 51.1199
22592 2 19.0765 91.9352 49.8504
22635 2 12.695 77.2693 54.7265
16600 1 13.5954 75.6471 53.4345
16993 1 16.3245 77.27 53.4387
22220 2 15.4221 75.6482 54.7227
22606 2 18.1512 77.2693 54.7265
14222 1 21.7807 77.27 53.4387
16578 1 19.0516 75.6471 53.4345
22213 2 20.8784 75.6482 54.7227
16994 1 13.5983 78.8923 53.4481
22636 2 12.6999 80.5101 54.7481
16995 1 16.3295 80.5138 53.4622
22596 2 15.4251 78.8901 54.735
22594 2 18.1562 80.5101 54.7481
14206 1 21.7858 80.5138 53.4622
16953 1 19.0546 78.8923 53.4481
22578 2 20.8814 78.8901 54.735
16979 1 13.6055 82.1345 53.4808
22621 2 12.7078 83.7483 54.787
16977 1 16.3385 83.7545 53.5036
22595 2 15.4317 82.1295 54.7655
22597 2 18.1641 83.7483 54.787
14207 1 21.7947 83.7545 53.5036
16952 1 19.0617 82.1345 53.4808
22577 2 20.888 82.1295 54.7655
16978 1 13.6157 85.374 53.5301
22622 2 12.7171 86.9847 54.8404
22583 2 18.1733 86.9847 54.8404
16980 1 16.3493 86.9932 53.5599
22585 2 15.4405 85.3666 54.8122
14198 1 21.8055 86.9932 53.5599
22576 2 20.8968 85.3666 54.8122
16946 1 19.0719 85.374 53.5301
22615 2 12.7257 90.2205 54.904
16967 1 13.6264 88.6123 53.5925
22586 2 18.1819 90.2205 54.904
22584 2 15.4497 88.6027 54.8713
16965 1 16.3591 90.2314 53.627
14199 1 21.8153 90.2314 53.627
22575 2 20.9059 88.6027 54.8713
16945 1 19.0826 88.6123 53.5925
22616 2 12.7325 93.4553 54.9723
16966 1 13.6349 91.8503 53.6627
22581 2 15.4575 91.8381 54.9379
16968 1 16.3661 93.4689 53.6987
22579 2 18.1887 93.4553 54.9723
22574 2 20.9137 91.8381 54.9379
16939 1 19.0911 91.8503 53.6627
14197 1 21.8223 93.4689 53.6987
17291 1 12.7201 77.2615 58.5649
16598 1 11.7946 75.6473 55.9977
22539 2 13.6206 75.6486 57.2852
16992 1 14.5235 77.2646 56.0015
22924 2 16.3494 77.2645 57.2886
16895 1 15.4476 75.6484 58.5616
16573 1 17.2509 75.6473 55.9977
17280 1 18.1763 77.2615 58.5649
16949 1 19.9797 77.2646 56.0015
16847 1 20.9038 75.6484 58.5616
22509 2 19.0769 75.6486 57.2852
20112 2 21.8057 77.2645 57.2886
16975 1 11.7969 78.8818 56.0101
17292 1 12.7232 80.4876 58.5847
22925 2 13.6228 78.8803 57.2965
16973 1 14.5274 80.4987 56.0233
16950 1 17.2532 78.8818 56.0101
17278 1 15.4495 78.8745 58.5727
22926 2 16.3531 80.4959 57.3088
17276 1 18.1795 80.4876 58.5847
17232 1 20.9057 78.8745 58.5727
16951 1 19.9837 80.4987 56.0233
22890 2 19.079 78.8803 57.2965
20110 2 21.8093 80.4959 57.3088
16974 1 11.8024 82.1155 56.0406
17288 1 12.7286 83.7141 58.6201
22921 2 13.6277 82.1113 57.325
16976 1 14.5342 83.732 56.0618
17277 1 15.4538 82.1008 58.6006
16943 1 17.2586 82.1155 56.0406
22919 2 16.3591 83.7266 57.345
17279 1 18.1848 83.7141 58.6201
17231 1 20.91 82.1008 58.6006
16941 1 19.9904 83.732 56.0618
22889 2 19.084 82.1113 57.325
20111 2 21.8153 83.7266 57.345
16963 1 11.8101 85.3483 56.0863
17289 1 12.7352 86.941 58.6685
22920 2 13.6345 85.3417 57.3683
16961 1 14.5424 86.9647 56.1138
17270 1 15.4599 85.3275 58.6429
16942 1 17.2663 85.3483 56.0863
22922 2 16.3663 86.9569 57.3945
17268 1 18.1914 86.941 58.6685
17230 1 20.9161 85.3275 58.6429
16944 1 19.9987 86.9647 56.1138
22884 2 19.0908 85.3417 57.3683
20108 2 21.8226 86.9569 57.3945
16962 1 11.8185 88.581 56.1438
17284 1 12.7419 90.1685 58.7264
22929 2 10.9172 90.1872 57.4537
22910 2 13.6419 88.572 57.4231
16964 1 14.5505 90.1974 56.1758
17269 1 15.4667 88.5547 58.6965
16936 1 17.2747 88.581 56.1438
22908 2 16.3735 90.1872 57.4537
17223 1 20.9229 88.5547 58.6965
17271 1 18.1981 90.1685 58.7264
16934 1 20.0067 90.1974 56.1758
22883 2 19.0981 88.572 57.4231
16959 1 11.8258 91.8137 56.2091
17285 1 12.7476 93.3965 58.7903
22927 2 10.9233 93.4173 57.5184
22909 2 13.6485 91.8023 57.4856
16957 1 14.5569 93.4299 56.2432
17256 1 15.473 91.7825 58.7578
16935 1 17.282 91.8137 56.2091
22911 2 16.3795 93.4173 57.5184
17222 1 20.9293 91.7825 58.7578
17254 1 18.2039 93.3965 58.7903
16937 1 20.0131 93.4299 56.2432
22870 2 19.1048 91.8023 57.4856
16881 1 13.6426 75.6502 61.1253
22537 2 11.8167 75.6498 59.8481
22923 2 14.5454 77.2616 59.8511
22913 2 12.7396 77.26 62.4133
17290 1 10.9149 77.2597 61.1281
17273 1 16.3711 77.2597 61.1281
22489 2 17.273 75.6498 59.8481
22487 2 15.4674 75.6517 62.4107
22886 2 20.0016 77.2616 59.8511
16845 1 19.0988 75.6502 61.1253
22885 2 18.1959 77.26 62.4133
22439 2 20.9236 75.6517 62.4107
17274 1 13.644 78.8693 61.1351
17286 1 10.9175 80.4791 61.146
22917 2 11.8184 78.8734 59.8583
22915 2 14.5482 80.4853 59.8696
22914 2 12.7419 80.4768 62.4301
17275 1 16.3737 80.4791 61.146
22887 2 17.2746 78.8734 59.8583
22877 2 15.4687 78.8683 62.4198
17229 1 19.1003 78.8693 61.1351
22888 2 20.0044 80.4853 59.8696
22824 2 20.9249 78.8683 62.4198
22875 2 18.1982 80.4768 62.4301
17266 1 13.6476 82.0891 61.1606
17287 1 10.9219 83.6994 61.1787
22916 2 11.8223 82.0972 59.8846
22902 2 12.7459 83.6944 62.4612
22918 2 14.553 83.7091 59.9031
17264 1 16.3781 83.6994 61.1787
22881 2 17.2785 82.0972 59.8846
22876 2 15.4718 82.0855 62.444
17228 1 19.1038 82.0891 61.1606
22879 2 20.0092 83.7091 59.9031
22823 2 20.9281 82.0855 62.444
22878 2 18.2021 83.6944 62.4612
17265 1 13.6526 85.3099 61.1999
17282 1 10.9274 86.9208 61.2239
22906 2 11.8277 85.3213 59.9248
22903 2 12.7508 86.9131 62.5044
17267 1 16.3836 86.9208 61.2239
22880 2 17.284 85.3213 59.9248
22904 2 14.5589 86.9336 59.9492
22863 2 15.4764 85.3036 62.4815
17221 1 19.1089 85.3099 61.1999
22882 2 20.0151 86.9336 59.9492
22822 2 20.9326 85.3036 62.4815
22861 2 18.2071 86.9131 62.5044
17252 1 13.6584 88.5319 61.2502
17283 1 10.9331 90.1433 61.2785
22905 2 11.8338 88.546 59.9761
22894 2 12.7561 90.1331 62.5571
17250 1 16.3893 90.1433 61.2785
22867 2 17.2901 88.546 59.9761
22907 2 14.5649 90.1586 60.0048
22862 2 15.4816 88.523 62.5298
17220 1 19.1146 88.5319 61.2502
22865 2 20.0212 90.1586 60.0048
22815 2 20.9378 88.523 62.5298
22864 2 18.2123 90.1331 62.5571
17251 1 13.6639 91.7549 61.3084
17281 1 10.9383 93.3668 61.3396
22898 2 11.8396 91.7714 60.0351
17253 1 16.3945 93.3668 61.3396
22866 2 17.2959 91.7714 60.0351
22896 2 14.5703 93.3843 60.0666
22848 2 15.4867 91.7436 62.5861
17206 1 19.1201 91.7549 61.3084
22868 2 20.0266 93.3843 60.0666
22814 2 20.943 91.7436 62.5861
22912 2 10.9325 77.2591 64.9746
16879 1 11.8361 75.6525 63.6887
22473 2 13.6603 75.6541 64.9724
17272 1 14.5646 77.2589 63.6911
22872 2 16.3888 77.2591 64.9746
16826 1 17.2924 75.6525 63.6887
17225 1 20.0208 77.2589 63.6911
22437 2 19.1166 75.6541 64.9724
17262 1 11.8373 78.8654 63.6974
22873 2 13.6614 78.8642 64.9804
22900 2 10.9344 80.4695 64.9899
17226 1 17.2936 78.8654 63.6974
17260 1 14.5667 80.4722 63.7074
22874 2 16.3906 80.4695 64.9899
17227 1 20.023 80.4722 63.7074
22821 2 19.1176 78.8642 64.9804
17261 1 11.8403 82.0792 63.7209
22859 2 13.6641 82.0751 65.0028
22901 2 10.9378 83.681 65.0189
17218 1 17.2965 82.0792 63.7209
17263 1 14.5704 83.6866 63.7378
22857 2 16.394 83.681 65.0189
17216 1 20.0267 83.6866 63.7378
22820 2 19.1203 82.0751 65.0028
17248 1 11.8446 85.2944 63.7577
22858 2 13.668 85.2874 65.038
22892 2 10.9421 86.8941 65.0598
17217 1 17.3008 85.2944 63.7577
17246 1 14.5751 86.9026 63.7802
22860 2 16.3983 86.8941 65.0598
17219 1 20.0314 86.9026 63.7802
22813 2 19.1242 85.2874 65.038
17247 1 11.8495 88.5112 63.8052
22844 2 13.6726 88.5013 65.0839
22893 2 10.9468 90.109 65.11
17203 1 17.3058 88.5112 63.8052
17249 1 14.5802 90.1201 63.8322
22842 2 16.4031 90.109 65.11
17201 1 20.0364 90.1201 63.8322
22812 2 19.1288 88.5013 65.0839
17240 1 11.8545 91.7295 63.8609
22843 2 13.6773 91.7172 65.1379
22891 2 10.9514 93.3257 65.1671
22895 2 12.761 93.3543 62.6163
17202 1 17.3107 91.7295 63.8609
17238 1 14.5849 93.3392 63.8909
22845 2 16.4076 93.3257 65.1671
22798 2 19.1335 91.7172 65.1379
22846 2 18.2172 93.3543 62.6163
17204 1 20.0411 93.3392 63.8909
17258 1 12.7568 77.2588 66.2549
22471 2 11.852 75.6569 67.5323
17257 1 10.9477 77.2594 68.8229
16812 1 13.6757 75.659 68.8211
22871 2 14.5803 77.2586 67.5341
16824 1 15.4847 75.6553 66.2528
22420 2 17.3082 75.6569 67.5323
17209 1 16.404 77.2594 68.8229
17224 1 18.213 77.2588 66.2549
22817 2 20.0366 77.2586 67.5341
16785 1 20.9409 75.6553 66.2528
16783 1 19.1319 75.659 68.8211
17259 1 12.7586 80.4662 66.2698
22855 2 11.8528 78.8605 67.5394
17210 1 13.6764 78.86 68.8282
17242 1 10.9492 80.4608 68.8369
17214 1 15.4856 78.8623 66.2605
22818 2 17.309 78.8605 67.5394
22853 2 14.5819 80.4625 67.5482
17211 1 16.4055 80.4608 68.8369
17166 1 20.9418 78.8623 66.2605
17212 1 18.2148 80.4662 66.2698
22819 2 20.0381 80.4625 67.5482
17163 1 19.1327 78.86 68.8282
17244 1 12.7617 83.6749 66.2983
22854 2 11.8551 82.065 67.5603
17195 1 13.6786 82.062 68.8489
17243 1 10.952 83.6636 68.864
17213 1 15.4881 82.0703 66.2825
22810 2 17.3113 82.065 67.5603
22856 2 14.5849 83.6678 67.5755
17193 1 16.4082 83.6636 68.864
17165 1 20.9444 82.0703 66.2825
17215 1 18.218 83.6749 66.2983
22808 2 20.0411 83.6678 67.5755
17162 1 19.1348 82.062 68.8489
17245 1 12.7659 86.8854 66.3386
22840 2 11.8586 85.2712 67.5936
17194 1 13.6819 85.2658 68.8819
17234 1 10.9557 86.8686 68.9026
17199 1 15.4918 85.2799 66.3171
22809 2 17.3148 85.2712 67.5936
22838 2 14.5888 86.8751 67.6143
17196 1 16.4119 86.8686 68.9026
17164 1 20.9481 85.2799 66.3171
17197 1 18.2221 86.8854 66.3386
22811 2 20.045 86.8751 67.6143
17155 1 19.1381 85.2658 68.8819
17236 1 12.7704 90.098 66.3884
22839 2 11.8628 88.4796 67.6374
17181 1 13.6858 88.472 68.9255
17235 1 10.9598 90.0761 68.9505
17198 1 15.4962 88.4914 66.3625
22795 2 17.3191 88.4796 67.6374
22841 2 14.5932 90.0848 67.6626
17179 1 16.416 90.0761 68.9505
17157 1 20.9525 88.4914 66.3625
17200 1 18.2266 90.098 66.3884
22793 2 20.0494 90.0848 67.6626
17154 1 19.142 88.472 68.9255
17237 1 12.7748 93.3127 66.4451
22832 2 11.8673 91.6906 67.6895
17180 1 13.69 91.6809 68.9773
17233 1 10.9639 93.2864 69.0056
17185 1 15.5007 91.7051 66.4161
22794 2 17.3235 91.6906 67.6895
22830 2 14.5975 93.297 67.7179
17182 1 16.4201 93.2864 69.0056
17156 1 20.957 91.7051 66.4161
17183 1 18.231 93.3127 66.4451
22796 2 20.0538 93.297 67.7179
17144 1 19.1462 91.6809 68.9773
22851 2 12.7714 77.2574 70.0884
16810 1 11.8629 75.6618 71.4054
17208 1 14.5912 77.259 71.4071
16774 1 17.3192 75.6618 71.4054
22418 2 15.4994 75.6592 70.0867
17159 1 20.0475 77.259 71.4071
22816 2 18.2277 77.2574 70.0884
22388 2 20.9556 75.6592 70.0867
17191 1 11.8636 78.8563 71.4122
22852 2 12.7729 80.4544 70.1021
17160 1 17.3198 78.8563 71.4122
17189 1 14.5925 80.4539 71.4207
22806 2 15.5001 78.8557 70.0936
17161 1 20.0488 80.4539 71.4207
22764 2 20.9564 78.8557 70.0936
22804 2 18.2291 80.4544 70.1021
17190 1 11.8655 82.0519 71.4323
22836 2 12.7757 83.653 70.1285
17152 1 17.3217 82.0519 71.4323
17192 1 14.5949 83.6505 71.4469
22805 2 15.5023 82.0534 70.1138
17150 1 20.0512 83.6505 71.4469
22763 2 20.9585 82.0534 70.1138
22807 2 18.2319 83.653 70.1285
17177 1 11.8684 85.2498 71.4643
22837 2 12.7793 86.8542 70.1662
17151 1 17.3246 85.2498 71.4643
17175 1 14.5982 86.8498 71.4843
22791 2 15.5055 85.2532 70.1461
17153 1 20.0544 86.8498 71.4843
22762 2 20.9618 85.2532 70.1461
22789 2 18.2356 86.8542 70.1662
17176 1 11.8718 88.4506 71.5066
22828 2 12.7834 90.0584 70.2132
17141 1 17.3281 88.4506 71.5066
17178 1 14.6018 90.0523 71.531
22790 2 15.5095 88.4559 70.1887
17139 1 20.058 90.0523 71.531
22756 2 20.9657 88.4559 70.1887
22792 2 18.2397 90.0584 70.2132
17171 1 11.8755 91.6549 71.5571
22829 2 12.7876 93.2662 70.2673
17140 1 17.3317 91.6549 71.5571
17169 1 14.6054 93.2584 71.5846
22779 2 15.5136 91.6618 70.2395
17142 1 20.0616 93.2584 71.5846
22755 2 20.9699 91.6618 70.2395
22777 2 18.2438 93.2662 70.2673
17187 1 12.7474 77.2607 74.0657
22850 2 10.9602 77.2552 72.6295
22406 2 11.8608 75.6641 75.1182
22408 2 13.6881 75.6609 72.6278
22800 2 14.5891 77.2549 75.1198
22801 2 16.4164 77.2552 72.6295
16772 1 15.4756 75.6665 74.0641
22381 2 17.3171 75.6641 75.1182
17158 1 18.2037 77.2607 74.0657
22757 2 20.0453 77.2549 75.1198
16765 1 20.9318 75.6665 74.0641
22386 2 19.1444 75.6609 72.6278
17188 1 12.7474 80.4499 74.0791
22783 2 11.8613 78.846 75.1246
22802 2 13.6889 78.8496 72.6345
22834 2 10.9616 80.4444 72.6428
17148 1 15.4756 78.8551 74.0708
22758 2 17.3176 78.846 75.1246
22781 2 14.59 80.4376 75.1325
22803 2 16.4179 80.4444 72.6428
17130 1 20.9318 78.8551 74.0708
17146 1 18.2037 80.4499 74.0791
22759 2 20.0463 80.4376 75.1325
22761 2 19.1451 78.8496 72.6345
17173 1 12.7474 83.6413 74.1051
22782 2 11.8627 82.0299 75.1435
22787 2 13.691 82.0398 72.6542
22835 2 10.9643 83.6358 72.6685
17147 1 15.4755 82.0453 74.0906
22751 2 17.319 82.0299 75.1435
22784 2 14.5918 83.623 75.1573
22785 2 16.4206 83.6358 72.6685
17129 1 20.9318 82.0453 74.0906
17149 1 18.2037 83.6413 74.1051
22749 2 20.0481 83.623 75.1573
22760 2 19.1472 82.0398 72.6542
17174 1 12.7474 86.836 74.1422
22771 2 11.8648 85.2172 75.1738
22786 2 13.6941 85.2327 72.6857
22826 2 10.9679 86.8305 72.7053
17137 1 15.4755 85.2382 74.1224
22750 2 17.3211 85.2172 75.1738
22769 2 14.5942 86.8125 75.1928
22788 2 16.4241 86.8305 72.7053
17128 1 20.9318 85.2382 74.1224
17135 1 18.2036 86.836 74.1422
22752 2 20.0504 86.8125 75.1928
22754 2 19.1504 85.2327 72.6857
17167 1 12.7473 90.0347 74.1885
22770 2 11.8673 88.4091 75.2141
22775 2 13.698 88.4293 72.7273
22827 2 10.9719 90.0293 72.7513
17136 1 15.4755 88.4348 74.1644
22744 2 17.3236 88.4091 75.2141
22772 2 14.5967 90.0071 75.2373
22773 2 16.4281 90.0293 72.7513
17127 1 20.9317 88.4348 74.1644
17138 1 18.2036 90.0347 74.1885
22742 2 20.053 90.0071 75.2373
22753 2 19.1542 88.4293 72.7273
17168 1 12.7471 93.2377 74.2418
22767 2 11.8699 91.6064 75.2623
22774 2 13.702 91.6303 72.777
22825 2 10.9759 93.2326 72.8043
22776 2 16.4321 93.2326 72.8043
17133 1 15.4754 91.6356 74.2144
22743 2 17.3261 91.6064 75.2623
22765 2 14.5992 93.2072 75.2887
22747 2 19.1583 91.6303 72.777
22745 2 20.0555 93.2072 75.2887
17131 1 18.2034 93.2377 74.2418
17126 1 20.9316 91.6356 74.2144
5183 1 12.7675 94.5974 -2.88205
11625 2 11.8375 96.1843 -1.41827
11633 2 13.6619 96.2061 -3.91609
11640 2 10.9356 94.6226 -3.93697
5170 1 15.4923 96.1802 -2.86065
11595 2 17.2937 96.1843 -1.41827
11631 2 14.5666 94.6025 -1.43974
11632 2 16.3918 94.6226 -3.93697
5124 1 20.9485 96.1802 -2.86065
5172 1 18.2237 94.5974 -2.88205
11594 2 20.0229 94.6025 -1.43974
11598 2 19.1181 96.2061 -3.91609
5184 1 12.7608 97.7621 -2.83834
11624 2 11.8353 99.3452 -1.37279
11629 2 13.6581 99.3698 -3.87182
11638 2 10.9318 97.7885 -3.89433
5169 1 15.4854 99.3431 -2.81528
11589 2 17.2915 99.3452 -1.37279
11623 2 14.5645 97.7653 -1.39591
11634 2 16.3881 97.7885 -3.89433
5123 1 20.9417 99.3431 -2.81528
5168 1 18.217 97.7621 -2.83834
11596 2 20.0207 97.7653 -1.39591
11597 2 19.1143 99.3698 -3.87182
5180 1 12.7538 100.923 -2.79162
11614 2 11.8331 102.502 -1.32491
11628 2 13.6542 102.529 -3.82517
11639 2 10.928 100.95 -3.84872
5162 1 15.4784 102.502 -2.76751
11588 2 17.2894 102.502 -1.32491
11626 2 14.5623 100.924 -1.34907
11627 2 16.3843 100.95 -3.84872
5122 1 20.9346 102.502 -2.76751
5171 1 18.21 100.923 -2.79162
11587 2 20.0186 100.924 -1.34907
11592 2 19.1105 102.529 -3.82517
5181 1 12.7467 104.08 -2.7431
11613 2 11.831 105.656 -1.27587
11618 2 13.6504 105.684 -3.77732
11636 2 10.9242 104.107 -3.80133
5161 1 15.4713 105.658 -2.71856
11575 2 17.2872 105.656 -1.27587
11612 2 14.5602 104.079 -1.30046
11630 2 16.3804 104.107 -3.80133
5115 1 20.9276 105.658 -2.71856
5160 1 18.2029 104.08 -2.7431
11590 2 20.0164 104.079 -1.30046
11591 2 19.1066 105.684 -3.77732
5176 1 12.7397 107.234 -2.694
11606 2 11.8288 108.805 -1.22678
11617 2 13.6466 108.835 -3.72935
11637 2 10.9204 107.26 -3.75329
5148 1 15.4645 108.809 -2.66957
11574 2 17.285 108.805 -1.22678
11615 2 14.558 107.231 -1.25126
11616 2 16.3766 107.26 -3.75329
5114 1 20.9207 108.809 -2.66957
5163 1 18.196 107.234 -2.694
11573 2 20.0142 107.231 -1.25126
11578 2 19.1029 108.835 -3.72935
5177 1 12.7331 110.384 -2.64538
11605 2 11.8266 111.952 -1.17867
11607 2 13.643 111.981 -3.68226
11635 2 10.9167 110.408 -3.70564
5147 1 15.458 111.958 -2.62156
11557 2 17.2828 111.952 -1.17867
11604 2 14.5558 110.379 -1.20255
11619 2 16.3729 110.408 -3.70564
5099 1 20.9142 111.958 -2.62156
5146 1 18.1893 110.384 -2.64538
11576 2 20.0121 110.379 -1.20255
11577 2 19.0992 111.981 -3.68226
5154 1 11.8406 96.1413 2.39322
5166 1 13.6591 96.1647 -0.198414
5182 1 10.9323 94.5835 -0.220031
11621 2 12.7498 94.5765 1.10876
5118 1 17.2968 96.1413 2.39322
5164 1 14.5701 94.5616 2.37108
5165 1 16.3886 94.5835 -0.220031
11585 2 15.4767 96.157 1.13064
5117 1 20.0263 94.5616 2.37108
5121 1 19.1153 96.1647 -0.198414
11532 2 20.9329 96.157 1.13064
11593 2 18.206 94.5765 1.10876
5153 1 11.8378 99.2987 2.4401
5158 1 13.6562 99.3246 -0.15258
5178 1 10.9295 97.745 -0.175878
11622 2 12.7473 97.7366 1.15342
5110 1 17.2941 99.2987 2.4401
5152 1 14.5673 97.7204 2.41628
5167 1 16.3858 97.745 -0.175878
11584 2 15.4742 99.3154 1.17697
5119 1 20.0236 97.7204 2.41628
5120 1 19.1125 99.3246 -0.15258
11531 2 20.9305 99.3154 1.17697
11583 2 18.2036 97.7366 1.15342
5140 1 11.835 102.453 2.48937
5157 1 13.6533 102.481 -0.104329
5179 1 10.9267 100.903 -0.128678
11610 2 12.7448 100.893 1.2011
5109 1 17.2912 102.453 2.48937
5155 1 14.5645 100.876 2.46451
5156 1 16.3829 100.903 -0.128678
11571 2 15.4717 102.471 1.22567
5108 1 20.0208 100.876 2.46451
5113 1 19.1096 102.481 -0.104329
11530 2 20.9279 102.471 1.22567
11586 2 18.2011 100.893 1.2011
5139 1 11.832 105.605 2.53975
5144 1 13.6504 105.634 -0.0548944
5174 1 10.9237 104.058 -0.0796847
11611 2 12.7423 104.047 1.25052
5095 1 17.2883 105.605 2.53975
5138 1 14.5616 104.03 2.51449
5159 1 16.38 104.058 -0.0796847
11570 2 15.4691 105.623 1.27551
5111 1 20.0179 104.03 2.51449
5112 1 19.1066 105.634 -0.0548944
11523 2 20.9253 105.623 1.27551
11569 2 18.1985 104.047 1.25052
5143 1 13.6474 108.785 -0.00543356
5175 1 10.9208 107.21 -0.0300994
11602 2 12.7397 107.198 1.30048
5141 1 14.5587 107.18 2.56498
5142 1 16.377 107.21 -0.0300994
11556 2 15.4665 108.773 1.32531
5093 1 20.0149 107.18 2.56498
5098 1 19.1037 108.785 -0.00543356
11522 2 20.9227 108.773 1.32531
11572 2 18.1959 107.198 1.30048
5133 1 13.6445 111.932 0.0430219
5173 1 10.9178 110.359 0.0189785
11603 2 12.7371 110.347 1.34987
5145 1 16.3741 110.359 0.0189785
11555 2 15.4639 111.92 1.37405
5097 1 19.1007 111.932 0.0430219
11507 2 20.9201 111.92 1.37405
11554 2 18.1933 110.347 1.34987
5150 1 12.7527 94.5416 4.94722
11581 2 13.6596 96.1325 3.69327
11620 2 10.9329 94.5536 3.67095
5106 1 15.4794 96.1199 4.96991
11580 2 16.3891 94.5536 3.67095
5052 1 20.9356 96.1199 4.96991
5116 1 18.209 94.5416 4.94722
11529 2 19.1159 96.1325 3.69327
5151 1 12.7498 97.6976 4.99352
11567 2 13.6568 99.2886 3.74048
11608 2 10.9301 97.7109 3.7165
5105 1 15.4761 99.275 5.0186
11582 2 16.3863 97.7109 3.7165
5051 1 20.9324 99.275 5.0186
5104 1 18.206 97.6976 4.99352
11528 2 19.113 99.2886 3.74048
5136 1 12.7464 100.852 5.04355
11566 2 13.6538 102.442 3.79002
11609 2 10.9272 100.866 3.76504
5091 1 15.4729 102.428 5.06889
11565 2 16.3834 100.866 3.76504
5050 1 20.9291 102.428 5.06889
5107 1 18.2026 100.852 5.04355
11521 2 19.1101 102.442 3.79002
5137 1 12.7431 104.003 5.09447
11552 2 13.6508 105.593 3.84061
11600 2 10.9242 104.018 3.81526
5090 1 15.4696 105.578 5.12013
11568 2 16.3805 104.018 3.81526
5043 1 20.9259 105.578 5.12013
5089 1 18.1994 104.003 5.09447
11520 2 19.1071 105.593 3.84061
5132 1 11.8291 108.755 2.59006
5128 1 12.7399 107.153 5.14572
11551 2 13.6478 108.742 3.89106
11601 2 10.9212 107.168 3.86592
5094 1 17.2853 108.755 2.59006
5076 1 15.4663 108.727 5.17111
11550 2 16.3774 107.168 3.86592
5042 1 20.9226 108.727 5.17111
5092 1 18.1961 107.153 5.14572
11506 2 19.104 108.742 3.89106
5131 1 11.8261 111.903 2.63925
5129 1 12.7366 110.301 5.19617
11541 2 13.6448 111.89 3.94033
11599 2 10.9181 110.316 3.9159
5077 1 17.2824 111.903 2.63925
5130 1 14.5557 110.329 2.61485
5075 1 15.4631 111.875 5.22079
11553 2 16.3744 110.316 3.9159
5096 1 20.0119 110.329 2.61485
5028 1 20.9193 111.875 5.22079
5074 1 18.1928 110.301 5.19617
11505 2 19.101 111.89 3.94033
5102 1 13.6611 96.1002 7.54373
5149 1 10.9346 94.5234 7.52034
11559 2 12.7534 94.5146 8.80919
11563 2 11.8418 96.1109 6.26186
5101 1 16.3908 94.5234 7.52034
11514 2 15.4798 96.0906 8.83277
11526 2 17.298 96.1109 6.26186
11579 2 14.5714 94.5334 6.23897
5049 1 19.1173 96.1002 7.54373
11472 2 20.936 96.0906 8.83277
11524 2 18.2097 94.5146 8.80919
11525 2 20.0277 94.5334 6.23897
5087 1 13.6576 99.2524 7.59314
5134 1 10.9313 97.6766 7.56805
11560 2 12.7499 97.6663 8.85721
11562 2 11.8386 99.2644 6.31019
5103 1 16.3875 97.6766 7.56805
11513 2 15.4762 99.2416 8.88229
11518 2 17.2948 99.2644 6.31019
11561 2 14.5683 97.6879 6.28567
5048 1 19.1139 99.2524 7.59314
11471 2 20.9324 99.2416 8.88229
11512 2 18.2061 97.6663 8.85721
11527 2 20.0245 97.6879 6.28567
5086 1 13.6541 102.403 7.64459
5135 1 10.9278 100.828 7.61873
11544 2 12.7462 100.817 8.90788
11548 2 11.8352 102.416 6.36072
5085 1 16.384 100.828 7.61873
11499 2 15.4724 102.391 8.93376
11517 2 17.2914 102.416 6.36072
11564 2 14.565 100.84 6.3353
5041 1 19.1103 102.403 7.64459
11470 2 20.9287 102.391 8.93376
11515 2 18.2024 100.817 8.90788
11516 2 20.0213 100.84 6.3353
5072 1 13.6504 105.552 7.69661
5126 1 10.9241 103.978 7.67059
11545 2 12.7424 103.966 8.95977
11547 2 11.8318 105.566 6.41201
5088 1 16.3804 103.978 7.67059
11498 2 15.4686 105.54 8.98574
11503 2 17.288 105.566 6.41201
11546 2 14.5616 103.991 6.38634
5040 1 19.1067 105.552 7.69661
11464 2 20.9249 105.54 8.98574
11497 2 18.1987 103.966 8.95977
11519 2 20.0179 103.991 6.38634
5071 1 13.6468 108.701 7.74809
5127 1 10.9205 107.127 7.72248
11536 2 12.7386 107.114 9.01155
11540 2 11.8284 108.714 6.46293
5070 1 16.3767 107.127 7.72248
11487 2 15.4649 108.687 9.03706
11502 2 17.2846 108.714 6.46293
11549 2 14.5582 107.14 6.43758
5027 1 19.103 108.701 7.74809
11463 2 20.9211 108.687 9.03706
11500 2 18.1949 107.114 9.01155
11501 2 20.0144 107.14 6.43758
5061 1 13.6432 111.848 7.79805
5125 1 10.9169 110.274 7.77331
11537 2 12.7349 110.261 9.06217
11539 2 11.825 111.862 6.51248
5073 1 16.3731 110.274 7.77331
11486 2 15.4612 111.835 9.08677
11488 2 17.2812 111.862 6.51248
11538 2 14.5548 110.288 6.48793
5026 1 19.0995 111.848 7.79805
11456 2 20.9175 111.835 9.08677
11485 2 18.1911 110.261 9.06217
11504 2 20.011 110.288 6.48793
5083 1 11.8426 96.0808 10.1167
11510 2 13.6612 96.0707 11.4049
11542 2 10.9311 97.645 11.4301
5046 1 17.2989 96.0808 10.1167
5100 1 14.5726 94.5055 10.0925
11511 2 16.3873 97.645 11.4301
5045 1 20.0289 94.5055 10.0925
11469 2 19.1175 96.0707 11.4049
5082 1 11.8388 99.2305 10.1673
11495 2 13.6571 99.2191 11.4558
11543 2 10.9269 100.793 11.482
5038 1 17.295 99.2305 10.1673
5081 1 14.5689 97.6558 10.1417
11493 2 16.3832 100.793 11.482
5084 1 14.5649 100.805 10.1934
5047 1 20.0251 97.6558 10.1417
11468 2 19.1134 99.2191 11.4558
5036 1 20.0212 100.805 10.1934
5068 1 11.8348 102.379 10.2197
11494 2 13.653 102.367 11.5083
11534 2 10.9227 103.94 11.5347
5037 1 17.2911 102.379 10.2197
11496 2 16.379 103.94 11.5347
5066 1 14.5609 103.953 10.2461
11462 2 19.1092 102.367 11.5083
5039 1 20.0172 103.953 10.2461
5067 1 11.8308 105.527 10.2724
11483 2 13.6488 105.514 11.5609
11535 2 10.9186 107.087 11.5869
5024 1 17.287 105.527 10.2724
11481 2 16.3748 107.087 11.5869
5069 1 14.5569 107.101 10.2985
11461 2 19.105 105.514 11.5609
5022 1 20.0132 107.101 10.2985
5060 1 11.8268 108.674 10.3243
11482 2 13.6447 108.661 11.6125
11533 2 10.9146 110.234 11.6376
5023 1 17.2831 108.674 10.3243
11484 2 16.3709 110.234 11.6376
5058 1 14.553 110.248 10.3496
11455 2 19.1009 108.661 11.6125
5025 1 20.0093 110.248 10.3496
5059 1 11.823 111.822 10.3743
11476 2 13.6409 111.808 11.6622
5484 1 14.5493 113.395 10.3984
5013 1 17.2793 111.822 10.3743
11917 2 16.3672 113.382 11.6861
11454 2 19.0971 111.808 11.6622
5429 1 20.0056 113.395 10.3984
8702 2 21.8234 113.382 11.6861
5030 1 13.6609 96.0402 15.2639
11491 2 11.8423 96.05 13.9781
5062 1 10.9303 97.6124 15.2906
5080 1 12.7498 97.6348 12.7157
5034 1 15.4801 96.0611 12.6899
11466 2 17.2985 96.05 13.9781
5031 1 16.3865 97.6124 15.2906
11489 2 14.5681 97.623 14.0041
5001 1 19.1171 96.0402 15.2639
5004 1 20.9363 96.0611 12.6899
5032 1 18.206 97.6348 12.7157
11467 2 20.0243 97.623 14.0041
5016 1 13.6559 99.1846 15.3177
11490 2 11.8376 99.1958 14.0305
5063 1 10.9253 100.757 15.3449
5064 1 12.7454 100.781 12.7687
5033 1 15.4757 99.2082 12.742
11459 2 17.2938 99.1958 14.0305
5014 1 16.3815 100.757 15.3449
11492 2 14.5634 100.769 14.0573
5000 1 19.1121 99.1846 15.3177
5003 1 20.932 99.2082 12.742
5035 1 18.2016 100.781 12.7687
11457 2 20.0196 100.769 14.0573
5015 1 13.6509 102.329 15.3722
11479 2 11.8329 102.341 14.0841
5054 1 10.9204 103.901 15.3992
5065 1 12.741 103.928 12.8222
5020 1 15.4713 102.355 12.7954
11458 2 17.2892 102.341 14.0841
5017 1 16.3766 103.901 15.3992
11477 2 14.5587 103.914 14.1108
4997 1 19.1072 102.329 15.3722
5002 1 20.9275 102.355 12.7954
11460 2 20.015 103.914 14.1108
5018 1 18.1972 103.928 12.8222
5008 1 13.6461 105.474 15.4259
11478 2 11.8284 105.487 14.1372
5055 1 10.9157 107.047 15.4522
5056 1 12.7366 107.074 12.875
5019 1 15.4669 105.501 12.8488
11452 2 17.2846 105.487 14.1372
5006 1 16.372 107.047 15.4522
11480 2 14.5543 107.06 14.1633
4996 1 19.1024 105.474 15.4259
4999 1 20.9231 105.501 12.8488
11450 2 20.0105 107.06 14.1633
5021 1 18.1929 107.074 12.875
5007 1 13.6417 108.62 15.478
11475 2 11.824 108.634 14.1889
5057 1 12.7325 110.221 12.9261
5012 1 15.4626 108.648 12.9008
11451 2 17.2803 108.634 14.1889
5009 1 16.3677 110.194 15.5031
11473 2 14.5501 110.207 14.214
1981 1 21.824 110.194 15.5031
5010 1 18.1887 110.221 12.9261
11453 2 20.0064 110.207 14.214
4994 1 19.0979 108.62 15.478
4998 1 20.9189 108.648 12.9008
5005 1 13.6376 111.768 15.5275
11474 2 11.8201 111.781 14.2384
11916 2 14.5463 113.355 14.2621
5463 1 12.7287 113.369 12.9746
5413 1 16.3639 113.342 15.5511
5011 1 15.4587 111.795 12.9507
11449 2 17.2763 111.781 14.2384
5428 1 18.1849 113.369 12.9746
4993 1 19.0939 111.768 15.5275
2390 1 21.8201 113.342 15.5511
11873 2 20.0026 113.355 14.2621
4995 1 20.9149 111.795 12.9507
11814 2 13.6589 96.0021 19.1279
5374 1 11.8411 96.0169 17.839
11832 2 12.7482 97.5992 16.5793
11826 2 10.9277 97.5723 19.1558
11818 2 15.479 96.0276 16.5524
5351 1 17.2973 96.0169 17.839
11815 2 16.3839 97.5723 19.1558
5372 1 14.5663 97.5877 17.8667
11769 2 19.1151 96.0021 19.1279
11772 2 20.9353 96.0276 16.5524
11816 2 18.2045 97.5992 16.5793
5352 1 20.0225 97.5877 17.8667
5373 1 11.8353 99.1585 17.8946
11806 2 13.6528 99.1427 19.1838
11828 2 12.7429 100.742 16.6338
11827 2 10.9217 100.713 19.2116
11817 2 15.4737 99.1708 16.6065
5347 1 17.2916 99.1585 17.8946
5375 1 14.5607 100.73 17.9224
11804 2 16.378 100.713 19.2116
11768 2 19.109 99.1427 19.1838
11771 2 20.9299 99.1708 16.6065
11819 2 18.1992 100.742 16.6338
5345 1 20.0169 100.73 17.9224
5367 1 11.8298 102.301 17.9501
11805 2 13.647 102.285 19.2392
11829 2 12.7379 103.887 16.688
11810 2 15.4685 102.314 16.661
5346 1 17.2861 102.301 17.9501
5365 1 14.5553 103.873 17.9773
11761 2 19.1033 102.285 19.2392
11770 2 20.9247 102.314 16.661
5348 1 20.0116 103.873 17.9773
11808 2 18.1941 103.887 16.688
5366 1 11.8247 105.445 18.0041
11824 2 12.7331 107.032 16.7406
11809 2 15.4636 105.459 16.7146
5335 1 17.281 105.445 18.0041
5368 1 14.5505 107.018 18.0303
11763 2 20.9198 105.459 16.7146
11811 2 18.1894 107.032 16.7406
5333 1 20.0067 107.018 18.0303
5360 1 11.8201 108.591 18.0558
11825 2 12.7289 110.179 16.791
5358 1 14.5462 110.165 18.0806
5334 1 17.2764 108.591 18.0558
11796 2 15.4591 108.605 16.7661
11794 2 18.1851 110.179 16.791
11762 2 20.9153 108.605 16.7661
5336 1 20.0024 110.165 18.0806
5359 1 11.8161 111.739 18.1046
12239 2 12.7252 113.328 16.8385
5760 1 14.5425 113.314 18.1279
5317 1 17.2724 111.739 18.1046
11795 2 15.4551 111.753 16.8151
12228 2 18.1814 113.328 16.8385
11747 2 20.9113 111.753 16.8151
5734 1 19.9987 113.314 18.1279
11802 2 11.8377 95.9722 21.7049
5371 1 12.7452 97.5592 20.4443
5343 1 15.4767 95.9899 20.4155
11766 2 17.294 95.9722 21.7049
11800 2 14.5623 97.541 21.7338
5292 1 20.9329 95.9899 20.4155
5341 1 18.2015 97.5592 20.4443
11767 2 20.0186 97.541 21.7338
11801 2 11.8308 99.1103 21.7625
5363 1 12.7389 100.699 20.5013
5342 1 15.4701 99.1288 20.473
11758 2 17.2871 99.1103 21.7625
11803 2 14.5558 100.68 21.7908
5291 1 20.9264 99.1288 20.473
5344 1 18.1952 100.699 20.5013
11756 2 20.012 100.68 21.7908
11822 2 10.9162 103.856 19.2663
11788 2 11.8247 102.251 21.8185
5364 1 12.7332 103.841 20.5565
11807 2 16.3725 103.856 19.2663
5331 1 15.4641 102.27 20.5292
11757 2 17.2809 102.251 21.8185
11786 2 14.55 103.823 21.8455
5290 1 20.9204 102.27 20.5292
5329 1 18.1895 103.841 20.5565
11759 2 20.0063 103.823 21.8455
11792 2 13.6418 105.429 19.2929
11787 2 11.8194 105.395 21.8718
5356 1 12.7283 106.986 20.609
11789 2 14.5452 106.968 21.8974
11790 2 16.3676 107.002 19.3188
5330 1 15.4588 105.413 20.5831
11743 2 17.2756 105.395 21.8718
5332 1 18.1846 106.986 20.609
11760 2 19.0981 105.429 19.2929
5283 1 20.915 105.413 20.5831
11741 2 20.0015 106.968 21.8974
8559 2 21.8238 107.002 19.3188
11791 2 13.6373 108.575 19.344
11780 2 11.815 108.542 21.9222
5357 1 12.7242 110.134 20.6584
11778 2 14.5413 110.117 21.9461
11793 2 16.3634 110.149 19.3685
5316 1 15.4543 108.56 20.6341
11742 2 17.2713 108.542 21.9222
5314 1 18.1804 110.134 20.6584
11746 2 19.0935 108.575 19.344
5282 1 20.9105 108.56 20.6341
11744 2 19.9975 110.117 21.9461
8557 2 21.8197 110.149 19.3685
11781 2 13.6335 111.724 19.3922
11779 2 11.8115 111.693 21.9693
5754 1 12.7208 113.285 20.7046
12220 2 14.5382 113.269 21.9916
5315 1 15.4505 111.709 20.6819
11725 2 17.2678 111.693 21.9693
12221 2 16.3599 113.299 19.4151
5733 1 18.177 113.285 20.7046
11745 2 19.0897 111.724 19.3922
5267 1 20.9068 111.709 20.6819
12173 2 19.9944 113.269 21.9916
8974 2 21.8161 113.299 19.4151
5323 1 11.8316 95.9178 25.5745
5339 1 13.6549 95.9575 22.9939
5361 1 10.923 97.5254 23.0237
11799 2 12.7395 97.5037 24.3135
5286 1 17.2879 95.9178 25.5745
11754 2 15.4716 95.9361 24.2837
5321 1 14.5556 97.4845 25.605
5340 1 16.3793 97.5254 23.0237
5289 1 19.1111 95.9575 22.9939
11700 2 20.9278 95.9361 24.2837
5287 1 20.0118 97.4845 25.605
11752 2 18.1957 97.5037 24.3135
5322 1 11.8237 99.0526 25.6345
5327 1 13.6476 99.094 23.053
5362 1 10.9161 100.663 23.0816
11784 2 12.7325 100.642 24.3711
5324 1 14.5484 100.622 25.663
5278 1 17.2799 99.0526 25.6345
11753 2 15.4639 99.0723 24.3427
5325 1 16.3724 100.663 23.0816
5288 1 19.1038 99.094 23.053
11699 2 20.9202 99.0723 24.3427
5276 1 20.0046 100.622 25.663
11755 2 18.1887 100.642 24.3711
5308 1 11.8173 102.193 25.6905
5326 1 13.6412 102.234 23.1095
11785 2 12.7268 103.785 24.4254
5306 1 14.5427 103.765 25.7169
5277 1 17.2735 102.193 25.6905
11739 2 15.4576 102.213 24.3987
5328 1 16.3665 103.805 23.1365
11737 2 18.183 103.785 24.4254
5281 1 19.0974 102.234 23.1095
11698 2 20.9138 102.213 24.3987
5279 1 19.999 103.765 25.7169
2282 1 21.8228 103.805 23.1365
5307 1 11.8123 105.338 25.7424
5312 1 13.6359 105.378 23.1627
11776 2 12.7223 106.932 24.4761
5309 1 14.5385 106.913 25.767
5263 1 17.2686 105.338 25.7424
11738 2 15.4525 105.358 24.4512
5310 1 16.3618 106.951 23.1881
11740 2 18.1785 106.932 24.4761
2283 1 21.818 106.951 23.1881
5280 1 19.0921 105.378 23.1627
11691 2 20.9087 105.358 24.4512
5261 1 19.9948 106.913 25.767
5300 1 11.8087 108.488 25.7907
5311 1 13.6317 108.525 23.2126
11777 2 12.7189 110.083 24.5235
5298 1 14.5355 110.065 25.8136
5262 1 17.265 108.488 25.7907
11724 2 15.4486 108.507 24.5002
5313 1 16.358 110.101 23.2362
11722 2 18.1751 110.083 24.5235
2281 1 21.8143 110.101 23.2362
5266 1 19.0879 108.525 23.2126
11690 2 20.9048 108.507 24.5002
5264 1 19.9917 110.065 25.8136
5299 1 11.8062 111.642 25.8356
5301 1 13.6284 111.677 23.2591
12206 2 12.7164 113.237 24.5676
5721 1 14.5333 113.22 25.8569
5246 1 17.2624 111.642 25.8356
11723 2 15.4457 111.66 24.546
5722 1 16.3551 113.253 23.2811
12172 2 18.1726 113.237 24.5676
2681 1 21.8114 113.253 23.2811
5669 1 19.9895 113.22 25.8569
5265 1 19.0846 111.677 23.2591
11676 2 20.9019 111.66 24.546
11750 2 13.6475 95.8917 26.8645
5320 1 12.7302 97.4347 28.1881
11782 2 10.9151 97.4587 26.8948
5274 1 15.4627 95.8683 28.1576
11751 2 16.3713 97.4587 26.8948
5272 1 18.1865 97.4347 28.1881
5226 1 20.9189 95.8683 28.1576
11697 2 19.1037 95.8917 26.8645
11735 2 13.6395 99.0272 26.9241
5304 1 12.7233 100.573 28.2449
5273 1 15.4546 99.0031 28.2171
11733 2 16.3643 100.597 26.9522
5275 1 18.1795 100.573 28.2449
5225 1 20.9108 99.0031 28.2171
11696 2 19.0957 99.0272 26.9241
8519 2 21.8205 100.597 26.9522
11734 2 13.6333 102.169 26.9792
5305 1 12.7183 103.719 28.297
5259 1 15.4487 102.146 28.2715
11736 2 16.359 103.742 27.0052
5257 1 18.1746 103.719 28.297
8510 2 21.8153 103.742 27.0052
5224 1 20.9049 102.146 28.2715
11689 2 19.0896 102.169 26.9792
11720 2 13.6289 105.316 27.0303
5296 1 12.7151 106.871 28.3451
5258 1 15.4447 105.294 28.3215
11718 2 16.3553 106.892 27.0544
5260 1 18.1713 106.871 28.3451
8511 2 21.8115 106.892 27.0544
5217 1 20.9009 105.294 28.3215
11688 2 19.0851 105.316 27.0303
11719 2 13.6257 108.468 27.0777
5297 1 12.713 110.026 28.3898
5245 1 15.442 108.448 28.3679
11721 2 16.3527 110.046 27.1001
5243 1 18.1692 110.026 28.3898
8509 2 21.8089 110.046 27.1001
5216 1 20.8982 108.448 28.3679
11675 2 19.082 108.468 27.0777
11709 2 13.6236 111.624 27.1218
5703 1 12.7117 113.186 28.4316
5244 1 15.4404 111.606 28.4111
12157 2 16.3509 113.203 27.1427
5668 1 18.1679 113.186 28.4316
5205 1 20.8966 111.606 28.4111
11674 2 19.0798 111.624 27.1218
8941 2 21.8072 113.203 27.1427
5270 1 13.6353 95.8065 30.7424
11731 2 11.8213 95.8369 29.447
11728 2 12.7179 97.3397 32.059
11729 2 14.5453 97.4044 29.4771
11682 2 15.4495 95.7699 32.0298
11694 2 17.2776 95.8369 29.447
5271 1 16.3594 97.3744 30.7719
11680 2 18.1741 97.3397 32.059
2230 1 21.8156 97.3744 30.7719
5223 1 19.0915 95.8065 30.7424
11652 2 20.9057 95.7699 32.0298
11695 2 20.0015 97.4044 29.4771
5255 1 13.628 98.9448 30.7997
11730 2 11.8137 98.974 29.5058
11712 2 12.7132 100.487 32.1124
11732 2 14.5389 100.546 29.5331
11681 2 15.4433 98.9121 32.0864
11686 2 17.2699 98.974 29.5058
5253 1 16.3535 100.518 30.8261
11683 2 18.1694 100.487 32.1124
2231 1 21.8098 100.518 30.8261
5222 1 19.0842 98.9448 30.7997
11651 2 20.8996 98.9121 32.0864
11684 2 19.9951 100.546 29.5331
5254 1 13.6234 102.092 30.8514
11716 2 11.8085 102.119 29.5592
11713 2 12.7106 103.641 32.1612
11714 2 14.5347 103.694 29.5842
11668 2 15.4398 102.063 32.1373
11685 2 17.2647 102.119 29.5592
5256 1 16.35 103.668 30.8757
11666 2 18.1668 103.641 32.1612
2222 1 21.8063 103.668 30.8757
5215 1 19.0797 102.092 30.8514
11650 2 20.896 102.063 32.1373
11687 2 19.9909 103.694 29.5842
5241 1 13.6208 105.246 30.899
11715 2 11.8051 105.27 29.6082
11704 2 12.7094 106.801 32.2064
11717 2 14.5321 106.848 29.6314
11667 2 15.438 105.22 32.1842
11672 2 17.2613 105.27 29.6082
5239 1 16.3481 106.825 30.9215
11669 2 18.1656 106.801 32.2064
2223 1 21.8043 106.825 30.9215
5214 1 19.077 105.246 30.899
11647 2 20.8942 105.22 32.1842
11670 2 19.9883 106.848 29.6314
5240 1 13.6194 108.405 30.9433
11708 2 11.8031 108.427 29.6538
11705 2 12.709 109.964 32.2486
11706 2 14.5305 110.006 29.6754
11660 2 15.4372 108.382 32.2278
11671 2 17.2593 108.427 29.6538
5242 1 16.3471 109.986 30.9644
11658 2 18.1652 109.964 32.2486
2221 1 21.8034 109.986 30.9644
5204 1 19.0756 108.405 30.9433
11646 2 20.8934 108.382 32.2278
11673 2 19.9867 110.006 29.6754
5232 1 13.6188 111.567 30.9848
11707 2 11.8019 111.587 29.6963
12135 2 12.7091 113.131 32.2883
12156 2 14.5297 113.168 29.7165
11659 2 15.4371 111.547 32.2688
11661 2 17.2581 111.587 29.6963
5653 1 16.3469 113.149 31.0045
12100 2 18.1654 113.131 32.2883
5203 1 19.0751 111.567 30.9848
11643 2 20.8934 111.547 32.2688
2630 1 21.8031 113.149 31.0045
12101 2 19.9859 113.168 29.7165
5251 1 11.806 95.731 33.3271
11678 2 13.6205 95.6903 34.6103
5249 1 14.5312 97.303 33.3544
5220 1 17.2623 95.731 33.3271
11679 2 16.3466 97.265 34.6378
5208 1 15.4324 95.6418 35.9078
8446 2 21.8028 97.265 34.6378
11649 2 19.0768 95.6903 34.6103
5221 1 19.9874 97.303 33.3544
5190 1 20.8886 95.6418 35.9078
5252 1 14.5275 100.454 33.405
5250 1 11.8009 98.8777 33.3802
11664 2 13.617 98.8422 34.6638
11662 2 16.3443 100.421 34.6885
5212 1 17.2571 98.8777 33.3802
8447 2 21.8005 100.421 34.6885
5210 1 19.9838 100.454 33.405
11648 2 19.0733 98.8422 34.6638
5235 1 14.526 103.613 33.4516
5237 1 11.7984 102.033 33.4287
11663 2 13.6157 102.002 34.7121
11665 2 16.3437 103.584 34.7349
5211 1 17.2547 102.033 33.4287
8438 2 21.7999 103.584 34.7349
5213 1 19.9822 103.613 33.4516
11645 2 19.0719 102.002 34.7121
11656 2 13.6156 105.167 34.7569
5236 1 11.7975 105.194 33.4738
5238 1 14.5256 106.776 33.4954
5201 1 17.2538 105.194 33.4738
11654 2 16.3439 106.751 34.7783
8439 2 21.8002 106.751 34.7783
11644 2 19.0718 105.167 34.7569
5199 1 19.9818 106.776 33.4954
5229 1 14.5259 109.943 33.5366
5231 1 11.7976 108.359 33.5162
11655 2 13.6162 108.336 34.7991
11657 2 16.3447 109.921 34.8193
5200 1 17.2538 108.359 33.5162
8437 2 21.801 109.921 34.8193
5202 1 19.9822 109.943 33.5366
11642 2 19.0724 108.336 34.7991
11653 2 13.6171 111.506 34.8389
5230 1 11.7981 111.527 33.5563
5652 1 14.5267 113.112 33.5754
5194 1 17.2544 111.527 33.5563
12085 2 16.3458 113.092 34.8579
5603 1 19.9829 113.112 33.5754
8870 2 21.802 113.092 34.8579
11641 2 19.0734 111.506 34.8389
11854 2 11.793 95.5998 37.1843
17091 1 13.6041 95.5413 38.4792
11852 2 14.5207 97.1822 37.2106
5248 1 12.7032 97.2214 35.9325
11843 2 17.2492 95.5998 37.1843
17476 1 16.3337 97.1321 38.5024
5206 1 18.1594 97.2214 35.9325
17061 1 19.0603 95.5413 38.4792
11844 2 19.9769 97.1822 37.2106
14664 1 21.79 97.1321 38.5024
11853 2 11.7926 98.7662 37.2354
17477 1 13.607 98.7225 38.5251
5233 1 12.7026 100.385 35.9794
11855 2 14.521 100.351 37.2591
11840 2 17.2488 98.7662 37.2354
5207 1 15.4308 98.8028 35.9563
17478 1 16.3364 100.313 38.5474
5209 1 18.1589 100.385 35.9794
17442 1 19.0632 98.7225 38.5251
5189 1 20.8871 98.8028 35.9563
11838 2 19.9773 100.351 37.2591
14662 1 21.7926 100.313 38.5474
11850 2 11.7934 101.938 37.282
17473 1 13.6095 101.903 38.5692
5234 1 12.7032 103.554 36.0237
11848 2 14.5222 103.524 37.3041
11839 2 17.2497 101.938 37.282
5197 1 15.431 101.969 36.0018
17471 1 16.3389 103.492 38.5906
5195 1 18.1595 103.554 36.0237
17441 1 19.0658 101.903 38.5692
5188 1 20.8872 101.969 36.0018
11841 2 19.9785 103.524 37.3041
14663 1 21.7952 103.492 38.5906
11849 2 11.7949 105.112 37.3256
17472 1 13.612 105.082 38.6116
5227 1 12.7045 106.725 36.0658
11851 2 14.5238 106.699 37.3466
11836 2 17.2511 105.112 37.3256
5196 1 15.4319 105.139 36.045
17474 1 16.3414 106.673 38.6321
5198 1 18.1607 106.725 36.0658
17436 1 19.0683 105.082 38.6116
5187 1 20.8882 105.139 36.045
11834 2 19.9801 106.699 37.3466
14660 1 21.7976 106.673 38.6321
11847 2 11.7966 108.287 37.3669
17462 1 13.6145 108.263 38.6522
5228 1 12.706 109.898 36.1058
11845 2 14.5256 109.876 37.3868
11835 2 17.2528 108.287 37.3669
17460 1 16.3438 109.853 38.6718
5193 1 15.4333 108.311 36.086
5191 1 18.1622 109.898 36.1058
17435 1 19.0707 108.263 38.6522
5186 1 20.8896 108.311 36.086
11837 2 19.9819 109.876 37.3868
14661 1 21.8 109.853 38.6718
12264 2 14.5274 113.053 37.4249
5631 1 12.7076 113.073 36.1438
11846 2 11.7984 111.464 37.4061
17461 1 13.6168 111.443 38.6909
5602 1 18.1638 113.073 36.1438
11833 2 17.2547 111.464 37.4061
17463 1 16.3461 113.033 38.7095
5192 1 15.4349 111.485 36.1251
12250 2 19.9837 113.053 37.4249
17422 1 19.0731 111.443 38.6909
5185 1 20.8911 111.485 36.1251
14659 1 21.8023 113.033 38.7095
23099 2 12.6985 97.095 39.7743
17089 1 11.7817 95.4393 41.0372
22689 2 13.6073 95.4073 42.3005
17475 1 14.5128 97.0413 41.0613
23081 2 16.3369 97.0088 42.3285
17041 1 17.2379 95.4393 41.0372
22703 2 15.4258 95.5028 39.748
23088 2 18.1548 97.095 39.7743
17438 1 19.9691 97.0413 41.0613
22653 2 19.0635 95.4073 42.3005
22655 2 20.882 95.5028 39.748
20278 2 21.7932 97.0088 42.3285
23100 2 12.7007 100.279 39.823
23082 2 13.6103 98.6087 42.3549
17469 1 11.7872 98.6408 41.0849
17467 1 14.5174 100.239 41.1078
23086 2 15.4277 98.6871 39.7992
23083 2 16.34 100.207 42.3798
17439 1 17.2434 98.6408 41.0849
23084 2 18.157 100.279 39.823
17440 1 19.9736 100.239 41.1078
23037 2 19.0666 98.6087 42.3549
23040 2 20.8839 98.6871 39.7992
20274 2 21.7962 100.207 42.3798
23096 2 12.7032 103.463 39.8681
17468 1 11.7911 101.835 41.1301
23074 2 13.6134 101.805 42.4037
17470 1 14.521 103.43 41.1519
23085 2 15.4301 101.871 39.8459
17433 1 17.2474 101.835 41.1301
23072 2 16.343 103.402 42.4266
23087 2 18.1594 103.463 39.8681
17431 1 19.9772 103.43 41.1519
23036 2 19.0696 101.805 42.4037
23039 2 20.8863 101.871 39.8459
20275 2 21.7992 103.402 42.4266
23097 2 12.7057 106.647 39.9106
17458 1 11.7945 105.025 41.1732
23073 2 13.6163 104.999 42.4489
17456 1 14.5242 106.62 41.194
23078 2 15.4326 105.055 39.8897
17432 1 17.2508 105.025 41.1732
23075 2 16.3459 106.594 42.4704
23076 2 18.1619 106.647 39.9106
17434 1 19.9805 106.62 41.194
23029 2 19.0725 104.999 42.4489
23038 2 20.8888 105.055 39.8897
20270 2 21.8021 106.594 42.4704
23092 2 12.7081 109.83 39.951
17457 1 11.7976 108.213 41.2144
23060 2 13.6191 108.19 42.4914
17459 1 14.5271 109.807 41.2342
23077 2 15.4351 108.239 39.9311
17419 1 17.2538 108.213 41.2144
23058 2 16.3486 109.785 42.5117
23079 2 18.1644 109.83 39.951
17417 1 19.9834 109.807 41.2342
23028 2 19.0754 108.19 42.4914
23031 2 20.8913 108.239 39.9311
20271 2 21.8048 109.785 42.5117
23093 2 12.7105 113.014 39.9892
17450 1 11.8004 111.4 41.2536
23059 2 13.6218 111.379 42.5314
17448 1 14.5298 112.994 41.2724
17418 1 17.2566 111.4 41.2536
23061 2 16.3512 112.974 42.5506
23064 2 15.4374 111.422 39.9703
23062 2 18.1667 113.014 39.9892
17420 1 19.986 112.994 41.2724
23014 2 19.078 111.379 42.5314
23030 2 20.8937 111.422 39.9703
20269 2 21.8074 112.974 42.5506
17465 1 12.6972 96.9555 43.6101
22687 2 11.7927 95.3189 44.8447
23080 2 14.5226 96.9277 44.8752
17039 1 15.4222 95.3452 43.5828
22634 2 17.2489 95.3189 44.8447
17437 1 18.1534 96.9555 43.6101
23033 2 19.9789 96.9277 44.8752
16991 1 20.8785 95.3452 43.5828
17466 1 12.702 100.167 43.6608
23070 2 11.7962 98.5341 44.9036
23068 2 14.5259 100.139 44.9304
17429 1 15.4278 98.5624 43.6361
23034 2 17.2524 98.5341 44.9036
17427 1 18.1582 100.167 43.6608
17376 1 20.8841 98.5624 43.6361
23035 2 19.9821 100.139 44.9304
17454 1 12.7058 103.369 43.7077
23069 2 11.7993 101.741 44.9559
23071 2 14.5289 103.343 44.9802
17428 1 15.4321 101.769 43.6846
23026 2 17.2555 101.741 44.9559
17430 1 18.162 103.369 43.7077
17375 1 20.8883 101.769 43.6846
23024 2 19.9851 103.343 44.9802
17455 1 12.7092 106.567 43.7517
23056 2 11.8022 104.943 45.0036
23054 2 14.5318 106.543 45.0262
17415 1 15.4357 104.969 43.73
23025 2 17.2585 104.943 45.0036
17413 1 18.1654 106.567 43.7517
17374 1 20.8919 104.969 43.73
23027 2 19.988 106.543 45.0262
17446 1 12.7122 109.761 43.7932
23055 2 11.805 108.142 45.048
23057 2 14.5345 109.74 45.0692
17414 1 15.4389 108.165 43.7727
23011 2 17.2613 108.142 45.048
17416 1 18.1685 109.761 43.7932
17367 1 20.8951 108.165 43.7727
23009 2 19.9907 109.74 45.0692
17447 1 12.715 112.954 43.8324
23048 2 11.8077 111.337 45.0896
23046 2 14.537 112.934 45.1094
17400 1 15.4418 111.358 43.8131
23010 2 17.2639 111.337 45.0896
17398 1 18.1712 112.954 43.8324
17366 1 20.898 111.358 43.8131
23012 2 19.9933 112.934 45.1094
23066 2 12.7107 96.8544 47.4172
17023 1 11.802 95.1934 48.6571
17025 1 13.6111 95.2631 46.1211
17423 1 14.5321 96.8107 48.6905
17424 1 16.3417 96.8783 46.152
16972 1 17.2582 95.1934 48.6571
22632 2 15.4369 95.2409 47.3846
23032 2 18.167 96.8544 47.4172
17369 1 19.9883 96.8107 48.6905
16989 1 19.0674 95.2631 46.1211
22593 2 20.8931 95.2409 47.3846
14644 1 21.7979 96.8783 46.152
17407 1 11.8057 98.4253 48.7219
17425 1 13.6157 98.4901 46.1808
23067 2 12.7139 100.074 47.4765
17405 1 14.5353 100.037 48.7515
17370 1 17.2619 98.4253 48.7219
17426 1 16.3458 100.099 46.208
23022 2 15.4405 98.4653 47.4477
23020 2 18.1702 100.074 47.4765
17371 1 19.9916 100.037 48.7515
17373 1 19.0719 98.4901 46.1808
22974 2 20.8968 98.4653 47.4477
14632 1 21.802 100.099 46.208
17406 1 11.8087 101.647 48.7795
17411 1 13.6194 101.706 46.2339
23052 2 12.7167 103.286 47.5298
17408 1 14.5382 103.255 48.8061
17362 1 17.2649 101.647 48.7795
17409 1 16.3492 103.311 46.2587
23021 2 15.4435 101.681 47.5038
23023 2 18.1729 103.286 47.5298
17360 1 19.9944 103.255 48.8061
17372 1 19.0757 101.706 46.2339
22973 2 20.8997 101.681 47.5038
14633 1 21.8055 103.311 46.2587
17392 1 11.8114 104.862 48.8316
17410 1 13.6227 104.914 46.2825
23053 2 12.7193 106.493 47.5786
17390 1 14.5408 106.466 48.8561
17361 1 17.2676 104.862 48.8316
17412 1 16.3523 106.516 46.3055
23007 2 15.4461 104.89 47.5547
23005 2 18.1755 106.493 47.5786
17363 1 19.997 106.466 48.8561
17365 1 19.0789 104.914 46.2825
22972 2 20.9024 104.89 47.5547
14624 1 21.8086 106.516 46.3055
17391 1 11.8139 108.07 48.8796
17396 1 13.6257 108.117 46.3276
23044 2 12.7218 109.695 47.6238
17393 1 14.5432 109.673 48.9023
17347 1 17.2701 108.07 48.8796
17394 1 16.3552 109.716 46.3491
23006 2 15.4487 108.095 47.6016
23008 2 18.178 109.695 47.6238
17345 1 19.9995 109.673 48.9023
17364 1 19.0819 108.117 46.3276
22965 2 20.9049 108.095 47.6016
14625 1 21.8114 109.716 46.3491
17384 1 11.8163 111.274 48.9241
17395 1 13.6284 111.316 46.3698
23045 2 12.7241 112.895 47.6657
17382 1 14.5456 112.875 48.945
17346 1 17.2725 111.274 48.9241
17397 1 16.3578 112.914 46.3899
22993 2 15.4511 111.296 47.6451
22991 2 18.1804 112.895 47.6657
17348 1 20.0018 112.875 48.945
17350 1 19.0846 111.316 46.3698
22964 2 20.9073 111.296 47.6451
14623 1 21.814 112.914 46.3899
17403 1 12.7231 96.7528 51.229
22620 2 13.6263 95.1743 49.9236
22618 2 11.8165 95.1185 52.464
23016 2 14.5467 96.7347 52.4983
23017 2 16.3565 96.7901 49.9575
16970 1 15.4494 95.1352 51.1943
17368 1 18.1794 96.7528 51.229
22582 2 17.2727 95.1185 52.464
16940 1 20.9057 95.1352 51.1943
22591 2 19.0826 95.1743 49.9236
22967 2 20.0029 96.7347 52.4983
20245 2 21.8127 96.7901 49.9575
17404 1 12.7259 99.9821 51.2932
23018 2 13.63 98.4037 49.9896
22999 2 11.8203 98.3493 52.5312
22997 2 14.5498 99.9622 52.5628
17358 1 15.4527 98.3684 51.2619
23019 2 16.3596 100.015 50.0201
17356 1 18.1822 99.9821 51.2932
22968 2 17.2765 98.3493 52.5312
20230 2 21.8158 100.015 50.0201
17316 1 20.909 98.3684 51.2619
22971 2 19.0863 98.4037 49.9896
22969 2 20.006 99.9622 52.5628
17388 1 12.7283 103.204 51.3514
23003 2 13.6328 101.625 50.0491
22998 2 11.8229 101.574 52.5931
17357 1 15.4553 101.594 51.323
23001 2 16.3621 103.233 50.0767
17359 1 18.1845 103.204 51.3514
22960 2 17.2791 101.574 52.5931
20231 2 21.8183 103.233 50.0767
17315 1 20.9115 101.594 51.323
22970 2 19.089 101.625 50.0491
17389 1 12.7304 106.42 51.4046
23002 2 13.6351 104.84 50.1031
17343 1 15.4575 104.812 51.3786
23004 2 16.3644 106.445 50.1284
17341 1 18.1866 106.42 51.4046
20222 2 21.8206 106.445 50.1284
17314 1 20.9137 104.812 51.3786
22963 2 19.0914 104.84 50.1031
17380 1 12.7324 109.63 51.4534
22989 2 13.6373 108.049 50.1527
17342 1 15.4595 108.025 51.4295
22987 2 16.3665 109.653 50.176
20223 2 21.8228 109.653 50.176
17308 1 20.9158 108.025 51.4295
17344 1 18.1886 109.63 51.4534
22962 2 19.0936 108.049 50.1527
17381 1 12.7343 112.837 51.4983
22988 2 13.6394 111.255 50.1985
17331 1 15.4615 111.234 51.4763
22990 2 16.3686 112.857 50.22
17307 1 20.9177 111.234 51.4763
17329 1 18.1906 112.837 51.4983
22952 2 19.0957 111.255 50.1985
20221 2 21.8248 112.857 50.22
17402 1 10.9142 96.7034 53.7691
22995 2 12.7372 96.6873 55.0406
16960 1 13.6404 95.0867 53.7344
17353 1 16.3704 96.7034 53.7691
22580 2 15.4632 95.0718 55.0067
22966 2 18.1934 96.6873 55.0406
16938 1 19.0966 95.0867 53.7344
22573 2 20.9194 95.0718 55.0067
17354 1 13.6438 98.3189 53.8027
17386 1 10.9169 99.933 53.835
22996 2 12.7404 99.915 55.1059
17355 1 16.3732 99.933 53.835
22956 2 15.467 98.3017 55.0737
17313 1 19.1 98.3189 53.8027
22938 2 20.9233 98.3017 55.0737
22954 2 18.1966 99.915 55.1059
17339 1 13.6461 101.546 53.8661
17387 1 10.9189 103.157 53.8958
22981 2 12.7426 103.138 55.1671
17337 1 16.3752 103.157 53.8958
22955 2 15.4697 101.527 55.137
23000 2 14.5521 103.183 52.6221
17312 1 19.1023 101.546 53.8661
22937 2 20.9259 101.527 55.137
22957 2 18.1988 103.138 55.1671
22958 2 20.0084 103.183 52.6221
17338 1 13.648 104.767 53.9244
17378 1 10.9207 106.375 53.9517
22982 2 12.7444 106.357 55.2238
22985 2 11.825 104.792 52.6499
17340 1 16.3769 106.375 53.9517
22945 2 15.4716 104.748 55.196
22959 2 17.2813 104.792 52.6499
22983 2 14.5541 106.399 52.6765
17306 1 19.1042 104.767 53.9244
22936 2 20.9279 104.748 55.196
22943 2 18.2006 106.357 55.2238
22961 2 20.0103 106.399 52.6765
22984 2 11.8269 108.006 52.7021
22975 2 12.7459 109.571 55.2761
17379 1 10.9223 109.59 54.0031
17327 1 13.6496 107.983 53.9779
22986 2 14.5559 109.611 52.7266
22949 2 17.2831 108.006 52.7021
22944 2 15.4733 107.964 55.2505
17325 1 16.3785 109.59 54.0031
22947 2 20.0121 109.611 52.7266
22946 2 18.2021 109.571 55.2761
22935 2 20.9295 107.964 55.2505
17305 1 19.1059 107.983 53.9779
22979 2 11.8287 111.216 52.7501
22976 2 12.7473 112.783 55.3241
17377 1 10.9239 112.8 54.0502
17326 1 13.6512 111.195 54.0271
22977 2 14.5576 112.819 52.7727
22948 2 17.2849 111.216 52.7501
22941 2 15.4747 111.177 55.3006
17328 1 16.3801 112.8 54.0502
17299 1 19.1074 111.195 54.0271
22950 2 20.0139 112.819 52.7727
22939 2 18.2036 112.783 55.3241
22934 2 20.931 111.177 55.3006
17651 1 12.7519 96.6241 58.8567
23292 2 10.9278 96.6462 57.5849
16958 1 11.8312 95.0458 56.2775
22899 2 13.6538 95.032 57.5516
17352 1 14.5613 96.6611 56.3117
23284 2 16.3841 96.6462 57.5849
17255 1 15.4781 95.0104 58.8234
16933 1 17.2874 95.0458 56.2775
17309 1 20.0175 96.6611 56.3117
17640 1 18.2082 96.6241 58.8567
17207 1 20.9343 95.0104 58.8234
22869 2 19.1101 95.032 57.5516
17335 1 11.8347 98.2757 56.3452
17652 1 12.7549 99.8503 58.9225
23290 2 10.931 99.8727 57.6501
23285 2 13.6577 98.2598 57.6178
17333 1 14.5641 99.8894 56.3779
17310 1 17.291 98.2757 56.3452
17638 1 15.4817 98.2374 58.8898
23286 2 16.3872 99.8727 57.6501
17592 1 20.9379 98.2374 58.8898
17311 1 20.0203 99.8894 56.3779
17636 1 18.2111 99.8503 58.9225
23250 2 19.1139 98.2598 57.6178
17334 1 11.837 101.502 56.4097
17648 1 12.7569 103.074 58.9858
23291 2 10.9332 103.096 57.7124
23281 2 13.6603 101.485 57.6817
17336 1 14.5661 103.114 56.4404
17637 1 15.4841 101.463 58.9546
17303 1 17.2933 101.502 56.4097
23279 2 16.3895 103.096 57.7124
17591 1 20.9404 101.463 58.9546
17639 1 18.2131 103.074 58.9858
17301 1 20.0223 103.114 56.4404
23249 2 19.1166 101.485 57.6817
17323 1 11.8387 104.724 56.47
17649 1 12.7584 106.295 59.0454
23288 2 10.9349 106.316 57.7709
23280 2 13.6622 104.706 57.7422
17321 1 14.5676 106.334 56.4984
17630 1 15.4858 104.685 59.0161
17302 1 17.295 104.724 56.47
23282 2 16.3911 106.316 57.7709
17590 1 20.942 104.685 59.0161
17628 1 18.2146 106.295 59.0454
17304 1 20.0238 106.334 56.4984
23244 2 19.1185 104.706 57.7422
17322 1 11.8401 107.943 56.5257
17644 1 12.7595 109.513 59.1007
23289 2 10.9363 109.533 57.8251
23270 2 13.6637 107.925 57.7985
17324 1 14.5689 109.551 56.552
17629 1 15.4871 107.905 59.0736
17296 1 17.2964 107.943 56.5257
23268 2 16.3925 109.533 57.8251
17583 1 20.9433 107.905 59.0736
17631 1 18.2158 109.513 59.1007
17294 1 20.0251 109.551 56.552
23243 2 19.12 107.925 57.7985
17319 1 11.8414 111.158 56.5771
17645 1 12.7605 112.729 59.1515
23287 2 10.9375 112.747 57.8749
23269 2 13.665 111.14 57.8505
17317 1 14.5701 112.764 56.6011
17616 1 15.4882 111.122 59.1267
17295 1 17.2977 111.158 56.5771
23271 2 16.3937 112.747 57.8749
17582 1 20.9444 111.122 59.1267
17614 1 18.2168 112.729 59.1515
17297 1 20.0264 112.764 56.6011
23230 2 19.1212 111.14 57.8505
17650 1 10.9424 96.5907 61.404
17241 1 13.6686 94.9787 61.3715
22897 2 11.8445 94.9971 60.0987
17633 1 16.3987 96.5907 61.404
23283 2 14.5746 96.6097 60.1312
22849 2 17.3008 94.9971 60.0987
23246 2 20.0309 96.6097 60.1312
17205 1 19.1248 94.9787 61.3715
17634 1 13.6722 98.2027 61.4366
17646 1 10.9455 99.8144 61.469
23277 2 11.8483 98.2222 60.1636
17635 1 16.4017 99.8144 61.469
23247 2 17.3045 98.2222 60.1636
23275 2 14.5778 99.8342 60.1959
17589 1 19.1284 98.2027 61.4366
23248 2 20.0341 99.8342 60.1959
17626 1 13.6747 101.426 61.5011
17647 1 10.9476 103.037 61.5325
23276 2 11.851 101.446 60.2276
17624 1 16.4038 103.037 61.5325
23241 2 17.3072 101.446 60.2276
23278 2 14.5801 103.057 60.2587
17588 1 19.131 101.426 61.5011
23239 2 20.0364 103.057 60.2587
17625 1 13.6765 104.648 61.5632
17642 1 10.9491 106.258 61.5931
23266 2 11.8529 104.668 60.2889
17627 1 16.4053 106.258 61.5931
23240 2 17.3091 104.668 60.2889
23264 2 14.5818 106.278 60.3183
17581 1 19.1328 104.648 61.5632
23242 2 20.038 106.278 60.3183
17612 1 13.6778 107.868 61.6219
17643 1 10.9502 109.477 61.6497
23265 2 11.8543 107.887 60.3466
17610 1 16.4064 109.477 61.6497
23227 2 17.3106 107.887 60.3466
23267 2 14.5831 109.496 60.3739
17580 1 19.134 107.868 61.6219
23225 2 20.0393 109.496 60.3739
17611 1 13.6788 111.086 61.6764
17641 1 10.9511 112.695 61.702
23258 2 11.8555 111.104 60.4002
17613 1 16.4074 112.695 61.702
23226 2 17.3117 111.104 60.4002
23256 2 14.5841 112.712 60.4253
17566 1 19.135 111.086 61.6764
23228 2 20.0404 112.712 60.4253
23272 2 10.9554 96.5441 65.2284
23273 2 12.7651 96.5762 62.6792
17239 1 11.8589 94.9493 63.9219
22833 2 13.6816 94.9347 65.1974
17632 1 14.5889 96.5596 63.9536
23232 2 16.4116 96.5441 65.2284
17186 1 17.3151 94.9493 63.9219
22847 2 15.4913 94.9652 62.6474
17585 1 20.0451 96.5596 63.9536
23245 2 18.2214 96.5762 62.6792
22797 2 19.1378 94.9347 65.1974
22799 2 20.9475 94.9652 62.6474
17622 1 11.8624 98.17 63.9856
23233 2 13.6852 98.1537 65.2598
23260 2 10.9586 99.7636 65.2914
23274 2 12.7683 99.7983 62.7431
17586 1 17.3187 98.17 63.9856
17620 1 14.592 99.7806 64.0177
23234 2 16.4148 99.7636 65.2914
23237 2 15.4949 98.1873 62.7111
17587 1 20.0482 99.7806 64.0177
23181 2 19.1414 98.1537 65.2598
23184 2 20.9512 98.1873 62.7111
23235 2 18.2246 99.7983 62.7431
17621 1 11.8651 101.391 64.0496
23219 2 13.6881 101.374 65.3229
23261 2 10.9611 102.984 65.3541
23262 2 12.7707 103.02 62.8059
17578 1 17.3213 101.391 64.0496
17623 1 14.5943 103.002 64.081
23217 2 16.4173 102.984 65.3541
23236 2 15.4977 101.409 62.7747
17576 1 20.0505 103.002 64.081
23180 2 19.1443 101.374 65.3229
23183 2 20.9539 101.409 62.7747
23238 2 18.2269 103.02 62.8059
17608 1 11.867 104.612 64.1119
23218 2 13.6902 104.594 65.3848
23252 2 10.963 106.204 65.4148
23263 2 12.7724 106.24 62.8663
17577 1 17.3233 104.612 64.1119
17606 1 14.5959 106.222 64.1421
23220 2 16.4192 106.204 65.4148
23223 2 15.4997 104.63 62.8365
17579 1 20.0521 106.222 64.1421
23173 2 19.1465 104.594 65.3848
23182 2 20.956 104.63 62.8365
23221 2 18.2286 106.24 62.8663
17607 1 11.8684 107.832 64.1713
23204 2 13.6918 107.814 65.4439
23253 2 10.9643 109.424 65.4722
23254 2 12.7737 109.46 62.923
17563 1 17.3246 107.832 64.1713
17609 1 14.5971 109.442 64.1996
23202 2 16.4206 109.424 65.4722
23222 2 15.5012 107.85 62.8951
17561 1 20.0533 109.442 64.1996
23172 2 19.148 107.814 65.4439
23175 2 20.9574 107.85 62.8951
23224 2 18.2299 109.46 62.923
17600 1 11.8694 111.052 64.2268
23203 2 13.693 111.034 65.4994
23251 2 10.9654 112.644 65.5255
23255 2 12.7747 112.678 62.9755
17562 1 17.3257 111.052 64.2268
17598 1 14.598 112.661 64.2528
23205 2 16.4216 112.644 65.5255
23208 2 15.5023 111.069 62.9498
17564 1 20.0542 112.661 64.2528
23158 2 19.1492 111.034 65.4994
23174 2 20.9586 111.069 62.9498
23206 2 18.231 112.678 62.9755
17618 1 12.7787 96.5293 66.5062
22831 2 11.8715 94.9041 67.7474
17617 1 10.9676 96.4994 69.0652
17172 1 13.6939 94.8925 69.0349
23231 2 14.6015 96.5117 67.7777
17184 1 15.5049 94.9208 66.4753
22780 2 17.3277 94.9041 67.7474
17569 1 16.4239 96.4994 69.0652
17584 1 18.2349 96.5293 66.5062
23177 2 20.0577 96.5117 67.7777
17145 1 20.9612 94.9208 66.4753
17143 1 19.1502 94.8925 69.0349
17619 1 12.7818 99.7476 66.5692
23215 2 11.8751 98.12 67.8086
17570 1 13.6974 98.1068 69.0959
17602 1 10.9707 99.7149 69.127
17574 1 15.5085 98.1383 66.5376
23178 2 17.3314 98.12 67.8086
23213 2 14.6048 99.7287 67.8398
17571 1 16.427 99.7149 69.127
17526 1 20.9647 98.1383 66.5376
17572 1 18.2381 99.7476 66.5692
23179 2 20.0611 99.7287 67.8398
17523 1 19.1536 98.1068 69.0959
17604 1 12.7843 102.967 66.6322
23214 2 11.8781 101.338 67.8711
17555 1 13.7002 101.324 69.1583
17603 1 10.9733 102.933 69.1895
17573 1 15.5113 101.357 66.6009
23170 2 17.3344 101.338 67.8711
23216 2 14.6075 102.947 67.9021
17553 1 16.4295 102.933 69.1895
17525 1 20.9675 101.357 66.6009
17575 1 18.2405 102.967 66.6322
23168 2 20.0638 102.947 67.9021
17522 1 19.1565 101.324 69.1583
17605 1 12.7861 106.187 66.6934
23200 2 11.8805 104.557 67.9328
17554 1 13.7025 104.542 69.2203
17594 1 10.9753 106.152 69.2505
17559 1 15.5134 104.577 66.6632
23169 2 17.3368 104.557 67.9328
23198 2 14.6096 106.168 67.9629
17556 1 16.4315 106.152 69.2505
17524 1 20.9696 104.577 66.6632
17557 1 18.2423 106.187 66.6934
23171 2 20.0658 106.168 67.9629
17515 1 19.1587 104.542 69.2203
17596 1 12.7874 109.408 66.7514
23199 2 11.8823 107.778 67.9922
17558 1 15.5149 107.797 66.7229
23155 2 17.3385 107.778 67.9922
23201 2 14.6111 109.388 68.0206
17517 1 20.9712 107.797 66.7229
17560 1 18.2436 109.408 66.7514
23153 2 20.0674 109.388 68.0206
17597 1 12.7884 112.628 66.8052
23192 2 11.8836 110.999 68.048
17545 1 15.5161 111.018 66.7788
23154 2 17.3399 110.999 68.048
23190 2 14.6123 112.61 68.0744
17516 1 20.9723 111.018 66.7788
17543 1 18.2446 112.628 66.8052
23156 2 20.0686 112.61 68.0744
23211 2 12.7914 96.4774 70.326
17170 1 11.879 94.8628 71.6133
17568 1 14.6087 96.468 71.6429
17134 1 17.3352 94.8628 71.6133
22778 2 15.5176 94.8713 70.2962
17519 1 20.065 96.468 71.6429
23176 2 18.2476 96.4774 70.326
22748 2 20.9739 94.8713 70.2962
17551 1 11.8821 98.0742 71.673
23212 2 12.7946 99.6919 70.387
17520 1 17.3384 98.0742 71.673
17549 1 14.6116 99.6811 71.7035
23166 2 15.5212 98.0843 70.3564
17521 1 20.0679 99.6811 71.7035
23124 2 20.9774 98.0843 70.3564
23164 2 18.2508 99.6919 70.387
17550 1 11.8848 101.289 71.7339
23196 2 12.7974 102.91 70.4486
17512 1 17.341 101.289 71.7339
17552 1 14.614 102.897 71.7654
23165 2 15.5241 101.3 70.4179
17510 1 20.0702 102.897 71.7654
23123 2 20.9804 101.3 70.4179
23167 2 18.2536 102.91 70.4486
17537 1 11.8868 104.506 71.7962
23197 2 12.7995 106.129 70.5088
17511 1 17.343 104.506 71.7962
17535 1 14.6158 106.116 71.8262
23151 2 15.5266 104.519 70.479
17513 1 20.072 106.116 71.8262
23122 2 20.9829 104.519 70.479
23149 2 18.2558 106.129 70.5088
17536 1 11.8884 107.727 71.8555
17541 1 13.7042 107.763 69.28
17595 1 10.9768 109.373 69.3085
23188 2 12.8012 109.351 70.5663
17501 1 17.3447 107.727 71.8555
17538 1 14.6172 109.338 71.8839
17539 1 16.433 109.373 69.3085
23150 2 15.5285 107.74 70.538
17499 1 20.0735 109.338 71.8839
17514 1 19.1604 107.763 69.28
23116 2 20.9848 107.74 70.538
23152 2 18.2574 109.351 70.5663
17531 1 11.8898 110.949 71.9113
17540 1 13.7055 110.984 69.3361
17593 1 10.9779 112.595 69.3626
23189 2 12.8025 112.574 70.62
17500 1 17.346 110.949 71.9113
17529 1 14.6185 112.561 71.9378
17542 1 16.4342 112.595 69.3626
23139 2 15.53 110.963 70.5937
17502 1 20.0747 112.561 71.9378
17504 1 19.1617 110.984 69.3361
23115 2 20.9863 110.963 70.5937
23137 2 18.2588 112.574 70.62
17547 1 12.7468 96.4449 74.2997
23210 2 10.9795 96.4406 72.8619
22766 2 11.8723 94.8093 75.3163
22768 2 13.7059 94.836 72.8326
23160 2 14.6014 96.4128 75.3449
23161 2 16.4358 96.4406 72.8619
17132 1 15.4751 94.8408 74.2703
22741 2 17.3285 94.8093 75.3163
17518 1 18.203 96.4449 74.2997
23117 2 20.0577 96.4128 75.3449
17125 1 20.9313 94.8408 74.2703
22746 2 19.1621 94.836 72.8326
17548 1 12.7463 99.656 74.3602
23143 2 11.8743 98.0177 75.3741
23162 2 13.7093 98.0463 72.8918
23194 2 10.9827 99.6531 72.9221
17508 1 15.4747 98.05 74.3298
23118 2 17.3305 98.0177 75.3741
23141 2 14.6033 99.6238 75.4037
23163 2 16.4389 99.6531 72.9221
17490 1 20.9309 98.05 74.3298
17506 1 18.2026 99.656 74.3602
23119 2 20.0595 99.6238 75.4037
23121 2 19.1656 98.0463 72.8918
17533 1 12.7457 102.87 74.4206
23142 2 11.876 101.231 75.4335
23147 2 13.7121 101.261 72.9524
23195 2 10.9855 102.869 72.9825
17507 1 15.4743 101.263 74.3904
23111 2 17.3322 101.231 75.4335
23144 2 14.6049 102.84 75.4622
23145 2 16.4417 102.869 72.9825
17489 1 20.9306 101.263 74.3904
17509 1 18.202 102.87 74.4206
23109 2 20.0611 102.84 75.4622
23120 2 19.1684 101.261 72.9524
17534 1 12.7452 106.089 74.4797
23131 2 11.8774 104.449 75.4909
23146 2 13.7148 104.479 73.0124
23186 2 10.9877 106.09 73.0418
17497 1 15.4735 104.479 74.4504
23110 2 17.3337 104.449 75.4909
23129 2 14.6062 106.06 75.5195
23148 2 16.4439 106.09 73.0418
17488 1 20.9297 104.479 74.4504
17495 1 18.2014 106.089 74.4797
23112 2 20.0624 106.06 75.5195
23114 2 19.171 104.479 73.0124
17527 1 12.7449 109.31 74.5365
23130 2 11.8786 107.671 75.5475
23135 2 13.7167 107.701 73.0706
23187 2 10.9894 109.313 73.0986
17496 1 15.4731 107.699 74.5085
23104 2 17.3349 107.671 75.5475
23132 2 14.6073 109.283 75.575
23133 2 16.4457 109.313 73.0986
17487 1 20.9293 107.699 74.5085
17498 1 18.2011 109.31 74.5365
23102 2 20.0635 109.283 75.575
23113 2 19.173 107.701 73.0706
17528 1 12.7449 112.534 74.5898
23127 2 11.8797 110.896 75.6017
23134 2 13.7183 110.925 73.1257
23185 2 10.9909 112.538 73.1519
17493 1 15.473 110.922 74.5637
23103 2 17.3359 110.896 75.6017
23125 2 14.6083 112.51 75.6275
23136 2 16.4471 112.538 73.1519
17486 1 20.9292 110.922 74.5637
17491 1 18.2011 112.534 74.5898
23105 2 20.0645 112.51 75.6275
23107 2 19.1745 110.925 73.1257
5567 1 12.7268 113.531 -2.5982
12033 2 11.8244 115.096 -1.13241
12041 2 13.6395 115.125 -3.63688
12048 2 10.9131 113.554 -3.65931
5554 1 15.452 115.103 -2.57539
12003 2 17.2806 115.096 -1.13241
12039 2 14.5536 113.525 -1.15526
12040 2 16.3694 113.554 -3.65931
5556 1 18.1831 113.531 -2.5982
5508 1 20.9083 115.103 -2.57539
12002 2 20.0098 113.525 -1.15526
12006 2 19.0958 115.125 -3.63688
5568 1 12.7211 116.674 -2.55323
12032 2 11.8222 118.238 -1.08869
12037 2 13.6363 118.266 -3.59392
5553 1 15.4466 118.245 -2.53178
11997 2 17.2785 118.238 -1.08869
12031 2 14.5514 116.668 -1.1102
12042 2 16.366 116.696 -3.61506
5552 1 18.1774 116.674 -2.55323
5507 1 20.9029 118.245 -2.53178
12004 2 20.0077 116.668 -1.1102
12005 2 19.0925 118.266 -3.59392
8782 2 21.8222 116.696 -3.61506
5564 1 12.716 119.816 -2.5111
12022 2 11.8201 121.379 -1.04807
12036 2 13.6333 121.404 -3.55392
12034 2 14.5493 119.809 -1.06797
5546 1 15.4418 121.386 -2.49125
11996 2 17.2764 121.379 -1.04807
12035 2 16.3629 119.835 -3.57352
5555 1 18.1723 119.816 -2.5111
5506 1 20.8981 121.386 -2.49125
11995 2 20.0055 119.809 -1.06797
12000 2 19.0895 121.404 -3.55392
8783 2 21.8191 119.835 -3.57352
5565 1 12.7116 122.955 -2.47228
12021 2 11.8181 124.517 -1.01095
12026 2 13.6306 124.541 -3.51731
12020 2 14.5472 122.948 -1.02905
5545 1 15.4377 124.524 -2.45422
11983 2 17.2744 124.517 -1.01095
12038 2 16.36 122.973 -3.53517
5544 1 18.1678 122.955 -2.47228
5499 1 20.8939 124.524 -2.45422
11998 2 20.0035 122.948 -1.02905
11999 2 19.0868 124.541 -3.51731
8780 2 21.8163 122.973 -3.53517
5560 1 12.7077 126.093 -2.43711
12014 2 11.8163 127.655 -0.977614
12025 2 13.6282 127.676 -3.48438
12023 2 14.5453 126.086 -0.993795
5532 1 15.4341 127.661 -2.42097
11982 2 17.2725 127.655 -0.977614
12024 2 16.3575 126.108 -3.50037
5547 1 18.164 126.093 -2.43711
5498 1 20.8904 127.661 -2.42097
11981 2 20.0015 126.086 -0.993795
11986 2 19.0844 127.676 -3.48438
8781 2 21.8137 126.108 -3.50037
5561 1 12.7045 129.229 -2.40582
12013 2 11.8146 130.791 -0.948254
12015 2 13.6261 130.809 -3.45534
12012 2 14.5435 129.223 -0.962428
5531 1 15.4312 130.797 -2.39168
11965 2 17.2708 130.791 -0.948254
12027 2 16.3552 129.243 -3.46936
5530 1 18.1607 129.229 -2.40582
5483 1 20.8874 130.797 -2.39168
11984 2 19.9997 129.223 -0.962428
11985 2 19.0823 130.809 -3.45534
8779 2 21.8114 129.243 -3.46936
5550 1 13.6416 115.078 0.0895948
5566 1 10.9149 113.505 0.066592
12029 2 12.7344 113.493 1.39775
5549 1 16.3712 113.505 0.066592
11993 2 15.4613 115.065 1.42086
5505 1 19.0979 115.078 0.0895948
11940 2 20.9175 115.065 1.42086
12001 2 18.1907 113.493 1.39775
5542 1 13.6389 118.221 0.133575
12030 2 12.7319 116.637 1.44331
5551 1 16.3684 116.649 0.111947
11992 2 15.4587 118.209 1.46503
5504 1 19.0951 118.221 0.133575
11939 2 20.915 118.209 1.46503
11991 2 18.1881 116.637 1.44331
2490 1 21.8246 116.649 0.111947
5541 1 13.6363 121.362 0.174414
12018 2 12.7294 119.78 1.48595
5540 1 16.3657 119.792 0.154415
11979 2 15.4563 121.351 1.50602
11994 2 18.1856 119.78 1.48595
5497 1 19.0926 121.362 0.174414
11938 2 20.9126 121.351 1.50602
2491 1 21.8219 119.792 0.154415
5528 1 13.6339 124.502 0.211709
12019 2 12.7271 122.922 1.5252
5543 1 16.3632 122.933 0.193524
11978 2 15.4541 124.492 1.54344
11977 2 18.1833 122.922 1.5252
5496 1 19.0902 124.502 0.211709
11931 2 20.9103 124.492 1.54344
2486 1 21.8194 122.933 0.193524
5527 1 13.6317 127.642 0.24518
12010 2 12.7249 126.062 1.56072
5526 1 16.3609 126.072 0.228936
11964 2 15.452 127.632 1.57701
11980 2 18.1811 126.062 1.56072
5482 1 19.088 127.642 0.24518
11930 2 20.9082 127.632 1.57701
2487 1 21.8172 126.072 0.228936
5517 1 13.6298 130.78 0.274644
12011 2 12.7229 129.202 1.5923
5529 1 16.3589 129.211 0.260421
11963 2 15.4502 130.772 1.60655
11962 2 18.1792 129.202 1.5923
5481 1 19.0861 130.78 0.274644
11915 2 20.9064 130.772 1.60655
2485 1 21.8151 129.211 0.260421
5538 1 11.8232 115.048 2.68643
5534 1 12.7334 113.448 5.24487
11989 2 13.6418 115.036 3.98755
12028 2 10.9151 113.463 3.96424
5502 1 17.2794 115.048 2.68643
5548 1 14.5528 113.476 2.66314
5490 1 15.4599 115.021 5.26832
11988 2 16.3714 113.463 3.96424
5501 1 20.009 113.476 2.66314
5436 1 20.9161 115.021 5.26832
5500 1 18.1896 113.448 5.24487
11937 2 19.098 115.036 3.98755
5537 1 11.8204 118.193 2.73091
5536 1 14.5499 116.621 2.70905
5535 1 12.7303 116.594 5.29106
11975 2 13.6389 118.181 4.03203
5494 1 17.2767 118.193 2.73091
5489 1 15.4569 118.167 5.31302
11990 2 16.3685 116.608 4.01017
5488 1 18.1865 116.594 5.29106
5503 1 20.0062 116.621 2.70905
5435 1 20.9131 118.167 5.31302
11936 2 19.0952 118.181 4.03203
8752 2 21.8247 116.608 4.01017
5524 1 11.8178 121.336 2.77215
5539 1 14.5472 119.765 2.75196
5520 1 12.7273 119.739 5.33415
11974 2 13.6362 121.325 4.07326
5493 1 17.274 121.336 2.77215
5475 1 15.4541 121.312 5.35439
11973 2 16.3657 119.753 4.05308
5491 1 18.1836 119.739 5.33415
5492 1 20.0034 119.765 2.75196
5434 1 20.9103 121.312 5.35439
11929 2 19.0925 121.325 4.07326
8753 2 21.8219 119.753 4.05308
5523 1 11.8153 124.479 2.80976
5522 1 14.5447 122.907 2.79143
5521 1 12.7246 122.884 5.37371
11960 2 13.6338 124.468 4.11085
5479 1 17.2716 124.479 2.80976
5474 1 15.4515 124.456 5.39207
11976 2 16.3631 122.896 4.09253
5473 1 18.1809 122.884 5.37371
5495 1 20.0009 122.907 2.79143
5427 1 20.9077 124.456 5.39207
11928 2 19.09 124.468 4.11085
8744 2 21.8193 122.896 4.09253
5516 1 11.8131 127.62 2.84346
5525 1 14.5423 126.049 2.82711
5512 1 12.7222 126.028 5.40945
11959 2 13.6315 127.611 4.14454
5478 1 17.2694 127.62 2.84346
5460 1 15.4492 127.6 5.42582
11958 2 16.3607 126.039 4.12819
5476 1 18.1784 126.028 5.40945
5477 1 19.9986 126.049 2.82711
5426 1 20.9054 127.6 5.42582
11914 2 19.0878 127.611 4.14454
8745 2 21.817 126.039 4.12819
5515 1 11.8112 130.761 2.8731
5514 1 14.5402 129.191 2.8588
5513 1 12.72 129.172 5.44116
11949 2 13.6296 130.753 4.17415
5461 1 17.2674 130.761 2.8731
5459 1 15.4472 130.744 5.45546
11961 2 16.3586 129.182 4.15986
5458 1 18.1763 129.172 5.44116
5480 1 19.9965 129.191 2.8588
5412 1 20.9034 130.744 5.45546
11913 2 19.0858 130.753 4.17415
8743 2 21.8149 129.182 4.15986
5486 1 13.6398 114.995 7.84568
5533 1 10.9134 113.421 7.8222
11967 2 12.7314 113.408 9.11077
11971 2 11.8218 115.009 6.55983
11968 2 12.728 116.556 9.15667
5485 1 16.3696 113.421 7.8222
11922 2 15.4578 114.982 9.13409
11934 2 17.278 115.009 6.55983
11987 2 14.5515 113.435 6.53648
11920 2 18.1843 116.556 9.15667
5433 1 19.0961 114.995 7.84568
11880 2 20.914 114.982 9.13409
11932 2 18.1876 113.408 9.11077
11933 2 20.0077 113.435 6.53648
5471 1 13.6367 118.142 7.89035
11970 2 11.8187 118.155 6.60434
11969 2 14.5483 116.582 6.58248
11952 2 12.725 119.703 9.19937
5487 1 16.3663 116.568 7.86842
11921 2 15.4546 118.129 9.17845
11926 2 17.2749 118.155 6.60434
11923 2 18.1812 119.703 9.19937
5432 1 19.0929 118.142 7.89035
11879 2 20.9108 118.129 9.17845
11935 2 20.0046 116.582 6.58248
2446 1 21.8226 116.568 7.86842
5470 1 13.6337 121.288 7.93163
11956 2 11.8159 121.3 6.64552
11972 2 14.5454 119.727 6.62537
11953 2 12.7222 122.85 9.23852
5469 1 16.3633 119.715 7.91144
11907 2 15.4517 121.277 9.21941
11925 2 17.2721 121.3 6.64552
11905 2 18.1785 122.85 9.23852
5425 1 19.09 121.288 7.93163
11878 2 20.9079 121.277 9.21941
11924 2 20.0016 119.727 6.62537
2447 1 21.8195 119.715 7.91144
5456 1 13.6311 124.434 7.96918
11955 2 11.8133 124.446 6.68302
11954 2 14.5427 122.873 6.66475
5472 1 16.3605 122.861 7.95088
11911 2 17.2695 124.446 6.68302
5424 1 19.0874 124.434 7.96918
11927 2 19.9989 122.873 6.66475
2438 1 21.8167 122.861 7.95088
5455 1 13.6288 127.581 8.00277
11948 2 11.811 127.591 6.71661
11957 2 14.5402 126.018 6.70032
5454 1 16.358 126.008 7.98648
11910 2 17.2673 127.591 6.71661
5457 1 16.3559 129.154 8.01805
5411 1 19.085 127.581 8.00277
11909 2 19.9965 126.018 6.70032
2439 1 21.8143 126.008 7.98648
2437 1 21.8121 129.154 8.01805
5445 1 13.6268 130.727 8.03228
11947 2 11.809 130.736 6.74613
11946 2 14.5381 129.163 6.73189
11896 2 17.2653 130.736 6.74613
5869 1 16.354 132.3 8.04547
5410 1 19.083 130.727 8.03228
11912 2 19.9943 129.163 6.73189
2845 1 21.8102 132.3 8.04547
5467 1 11.8195 114.969 10.4218
11918 2 13.6373 114.956 11.7093
5465 1 14.5459 116.543 10.4445
5430 1 17.2757 114.969 10.4218
11919 2 16.3638 116.53 11.7317
11877 2 19.0935 114.956 11.7093
5431 1 20.0022 116.543 10.4445
8686 2 21.82 116.53 11.7317
5466 1 11.8162 118.117 10.4663
11903 2 13.6341 118.104 11.7533
5468 1 14.5428 119.691 10.4872
5422 1 17.2725 118.117 10.4663
11901 2 16.3607 119.679 11.774
11876 2 19.0903 118.104 11.7533
5420 1 19.9991 119.691 10.4872
8687 2 21.8169 119.679 11.774
5452 1 11.8133 121.265 10.5072
11902 2 13.6312 121.253 11.7939
5450 1 14.54 122.839 10.5263
5421 1 17.2695 121.265 10.5072
11904 2 16.358 122.828 11.8128
11870 2 19.0874 121.253 11.7939
5423 1 19.9963 122.839 10.5263
8678 2 21.8142 122.828 11.8128
5451 1 11.8107 124.413 10.5444
11891 2 13.6287 124.403 11.8307
5453 1 14.5376 125.987 10.5616
11944 2 12.7198 125.998 9.27385
11906 2 15.4491 124.424 9.25667
5408 1 17.2669 124.413 10.5444
11889 2 16.3556 125.977 11.8477
11908 2 18.176 125.998 9.27385
11872 2 20.9053 124.424 9.25667
11869 2 19.0849 124.403 11.8307
5406 1 19.9938 125.987 10.5616
8679 2 21.8119 125.977 11.8477
5444 1 11.8084 127.562 10.5777
11890 2 13.6265 127.552 11.8637
11945 2 12.7177 129.145 9.3052
5442 1 14.5355 129.136 10.5929
11895 2 15.4468 127.571 9.29003
5407 1 17.2646 127.562 10.5777
11893 2 18.1739 129.145 9.3052
11892 2 16.3536 129.127 11.8787
11871 2 20.9031 127.571 9.29003
11863 2 19.0827 127.552 11.8637
5409 1 19.9917 129.136 10.5929
8677 2 21.8098 129.127 11.8787
5443 1 11.8064 130.71 10.607
11884 2 13.6246 130.702 11.8927
12375 2 12.7159 132.293 9.33245
5868 1 14.5337 132.285 10.62
11894 2 15.4449 130.719 9.31934
5397 1 17.2627 130.71 10.607
12340 2 18.1721 132.293 9.33245
12325 2 16.3519 132.278 11.9057
11864 2 20.9011 130.719 9.31934
11862 2 19.0808 130.702 11.8927
5813 1 19.9899 132.285 10.62
9110 2 21.8081 132.278 11.9057
5414 1 13.634 114.917 15.574
11899 2 11.8165 114.93 14.285
5464 1 12.7252 116.517 13.0202
11897 2 14.543 116.504 14.3072
5418 1 15.455 114.943 12.9978
11874 2 17.2727 114.93 14.285
5415 1 16.3605 116.492 15.5961
5416 1 18.1815 116.517 13.0202
5385 1 19.0903 114.917 15.574
5388 1 20.9113 114.943 12.9978
2374 1 21.8168 116.492 15.5961
11875 2 19.9992 116.504 14.3072
5400 1 13.6309 118.067 15.6173
11898 2 11.8133 118.079 14.3285
5448 1 12.7222 119.667 13.0625
11900 2 14.54 119.655 14.3489
5417 1 15.4518 118.092 13.0418
11867 2 17.2696 118.079 14.3285
5398 1 16.3576 119.642 15.6376
5419 1 18.1784 119.667 13.0625
2375 1 21.8139 119.642 15.6376
5384 1 19.0872 118.067 15.6173
5387 1 20.908 118.092 13.0418
11865 2 19.9963 119.655 14.3489
11885 2 14.5375 122.806 14.3871
5399 1 13.6282 121.218 15.657
11887 2 11.8106 121.23 14.3685
5449 1 12.7195 122.817 13.1011
5402 1 18.1757 122.817 13.1011
5404 1 15.4489 121.241 13.0822
11866 2 17.2668 121.23 14.3685
5401 1 16.3552 122.794 15.6755
11868 2 19.9937 122.806 14.3871
2366 1 21.8114 122.794 15.6755
5381 1 19.0845 121.218 15.657
5386 1 20.9052 121.241 13.0822
11888 2 14.5353 125.957 14.4215
5440 1 12.7172 125.967 13.1359
5392 1 13.6259 124.371 15.6931
11886 2 11.8082 124.381 14.4047
5405 1 18.1734 125.967 13.1359
5390 1 16.3531 125.947 15.7097
11860 2 17.2644 124.381 14.4047
5403 1 15.4464 124.392 13.119
11858 2 19.9915 125.957 14.4215
5383 1 20.9027 124.392 13.119
5380 1 19.0822 124.371 15.6931
2367 1 21.8093 125.947 15.7097
11881 2 14.5334 129.11 14.452
5441 1 12.7152 129.118 13.1667
11883 2 11.8062 127.534 14.4372
5391 1 13.624 127.524 15.7253
5394 1 18.1715 129.118 13.1667
5393 1 16.3513 129.101 15.74
11859 2 17.2624 127.534 14.4372
5396 1 15.4443 127.543 13.1518
11861 2 19.9896 129.11 14.452
5382 1 20.9005 127.543 13.1518
5378 1 19.0803 127.524 15.7253
2365 1 21.8075 129.101 15.74
11882 2 11.8045 130.686 14.4658
5389 1 13.6224 130.678 15.7536
5847 1 12.7136 132.27 13.1935
12324 2 14.5319 132.263 14.4785
5797 1 16.3498 132.255 15.7663
5812 1 18.1698 132.27 13.1935
11857 2 17.2607 130.686 14.4658
5395 1 15.4425 130.694 13.1806
12281 2 19.9881 132.263 14.4785
2774 1 21.8061 132.255 15.7663
5377 1 19.0787 130.678 15.7536
5379 1 20.8987 130.694 13.1806
5758 1 11.8127 114.889 18.1503
12240 2 12.7219 116.478 16.8828
5756 1 14.5394 116.465 18.1719
12226 2 15.4516 114.903 16.8611
5735 1 17.269 114.889 18.1503
12224 2 18.1782 116.478 16.8828
12180 2 20.9079 114.903 16.8611
5736 1 19.9956 116.465 18.1719
5757 1 11.8099 118.041 18.1926
12236 2 12.7192 119.63 16.9238
5759 1 14.5368 119.618 18.2125
12225 2 15.4486 118.054 16.9038
5731 1 17.2661 118.041 18.1926
12227 2 18.1754 119.63 16.9238
12179 2 20.9049 118.054 16.9038
5729 1 19.993 119.618 18.2125
5751 1 11.8075 121.195 18.2315
12237 2 12.7169 122.783 16.9612
5749 1 14.5346 122.772 18.2496
12218 2 15.4461 121.207 16.943
5730 1 17.2637 121.195 18.2315
12216 2 18.1731 122.783 16.9612
12178 2 20.9024 121.207 16.943
5732 1 19.9908 122.772 18.2496
5750 1 11.8055 124.349 18.2667
12232 2 12.715 125.937 16.9949
5752 1 14.5328 125.927 18.283
12217 2 15.444 124.36 16.9785
5719 1 17.2618 124.349 18.2667
12219 2 18.1712 125.937 16.9949
12171 2 20.9002 124.36 16.9785
5717 1 19.989 125.927 18.283
5744 1 11.8039 127.505 18.2983
12233 2 12.7133 129.092 17.0249
5742 1 14.5313 129.084 18.3126
5718 1 17.2601 127.505 18.2983
12204 2 15.4422 127.515 17.0104
12202 2 18.1696 129.092 17.0249
12170 2 20.8985 127.515 17.0104
5720 1 19.9875 129.084 18.3126
5743 1 11.8025 130.662 18.3261
12647 2 12.712 132.248 17.0509
6144 1 14.5301 132.241 18.3385
5701 1 17.2588 130.662 18.3261
12203 2 15.4408 130.67 17.0384
12636 2 18.1683 132.248 17.0509
12155 2 20.897 130.67 17.0384
6118 1 19.9863 132.241 18.3385
12222 2 13.6303 114.875 19.4372
12210 2 11.8087 114.846 22.0131
5755 1 12.718 116.438 20.7476
12208 2 14.5357 116.423 22.0338
12223 2 16.357 116.451 19.4585
5727 1 15.4475 114.861 20.7265
12174 2 17.265 114.846 22.0131
5725 1 18.1743 116.438 20.7476
12177 2 19.0865 114.875 19.4372
5676 1 20.9037 114.861 20.7265
12175 2 19.9919 116.423 22.0338
8970 2 21.8132 116.451 19.4585
12214 2 13.6276 118.028 19.4789
12209 2 11.8066 118.001 22.0537
5747 1 12.7158 119.592 20.7871
12211 2 14.5338 119.58 22.0727
12212 2 16.3546 119.605 19.4985
5726 1 15.445 118.015 20.7678
12166 2 17.2628 118.001 22.0537
5728 1 18.1721 119.592 20.7871
12176 2 19.0838 118.028 19.4789
5675 1 20.9012 118.015 20.7678
12164 2 19.99 119.58 22.0727
8971 2 21.8108 119.605 19.4985
12213 2 13.6254 121.183 19.5172
12196 2 11.8048 121.158 22.0909
5748 1 12.7141 122.749 20.8232
12194 2 14.5322 122.738 22.1083
12215 2 16.3526 122.761 19.535
5715 1 15.443 121.171 20.8056
12165 2 17.2611 121.158 22.0909
5713 1 18.1703 122.749 20.8232
12169 2 19.0817 121.183 19.5172
5674 1 20.8993 121.171 20.8056
12167 2 19.9885 122.738 22.1083
8966 2 21.8089 122.761 19.535
12200 2 13.6237 124.339 19.5519
12195 2 11.8035 124.317 22.1248
5740 1 12.7127 125.907 20.8558
12197 2 14.531 125.897 22.1404
12198 2 16.351 125.917 19.568
5714 1 15.4414 124.328 20.8399
12151 2 17.2597 124.317 22.1248
5716 1 18.1689 125.907 20.8558
12168 2 19.0799 124.339 19.5519
5667 1 20.8977 124.328 20.8399
12149 2 19.9873 125.897 22.1404
8967 2 21.8073 125.917 19.568
12199 2 13.6222 127.496 19.5831
12188 2 11.8024 127.477 22.1551
5741 1 12.7115 129.066 20.8847
12186 2 14.5301 129.057 22.169
12201 2 16.3497 129.075 19.5972
5700 1 15.4402 127.487 20.8707
12150 2 17.2587 127.477 22.1551
5698 1 18.1677 129.066 20.8847
12154 2 19.0784 127.496 19.5831
5666 1 20.8964 127.487 20.8707
12152 2 19.9863 129.057 22.169
8965 2 21.8059 129.075 19.5972
12189 2 13.621 130.654 19.6105
12187 2 11.8016 130.638 22.1819
6138 1 12.7106 132.226 20.91
12628 2 14.5293 132.219 22.1939
5699 1 15.4391 130.646 20.8978
12133 2 17.2578 130.638 22.1819
12629 2 16.3486 132.233 19.6228
6117 1 18.1668 132.226 20.91
12153 2 19.0773 130.654 19.6105
5651 1 20.8954 130.646 20.8978
12581 2 19.9856 132.219 22.1939
9382 2 21.8049 132.233 19.6228
5707 1 11.8043 114.799 25.8774
5723 1 13.6259 114.831 23.3023
12207 2 12.7145 116.394 24.6085
5705 1 14.5318 116.379 25.8972
5670 1 17.2606 114.799 25.8774
12162 2 15.4435 114.815 24.5885
5724 1 16.3529 116.409 23.3228
12160 2 18.1707 116.394 24.6085
5673 1 19.0821 114.831 23.3023
12108 2 20.8997 114.815 24.5885
5671 1 19.988 116.379 25.8972
2673 1 21.8092 116.409 23.3228
5706 1 11.8031 117.959 25.9161
5711 1 13.6239 117.987 23.3423
12192 2 12.7131 119.553 24.6463
5662 1 17.2593 117.959 25.9161
12161 2 15.4419 117.973 24.6278
5709 1 16.3513 119.566 23.3611
12163 2 18.1694 119.553 24.6463
5672 1 19.0802 117.987 23.3423
12107 2 20.8981 117.973 24.6278
2674 1 21.8075 119.566 23.3611
5710 1 13.6225 121.146 23.3791
12193 2 12.7121 122.714 24.6808
12147 2 15.4407 121.133 24.664
5712 1 16.35 122.726 23.3962
12145 2 18.1684 122.714 24.6808
5665 1 19.0787 121.146 23.3791
12106 2 20.8969 121.133 24.664
2666 1 21.8062 122.726 23.3962
5696 1 13.6214 124.306 23.4125
12184 2 12.7114 125.876 24.7121
12146 2 15.4398 124.295 24.6969
5694 1 16.349 125.887 23.4279
12148 2 18.1676 125.876 24.7121
5664 1 19.0776 124.306 23.4125
12099 2 20.8961 124.295 24.6969
2667 1 21.8053 125.887 23.4279
5695 1 13.6205 127.468 23.4424
12185 2 12.7108 129.04 24.7399
12132 2 15.4392 127.458 24.7264
5697 1 16.3483 129.049 23.4561
12130 2 18.167 129.04 24.7399
5650 1 19.0767 127.468 23.4424
12098 2 20.8954 127.458 24.7264
2665 1 21.8045 129.049 23.4561
5685 1 13.6198 130.63 23.4689
12614 2 12.7104 132.204 24.7643
12131 2 15.4387 130.622 24.7526
6106 1 16.3477 132.211 23.4808
12580 2 18.1666 132.204 24.7643
5649 1 19.0761 130.63 23.4689
12084 2 20.8949 130.622 24.7526
3065 1 21.8039 132.211 23.4808
12158 2 13.6222 114.783 27.1629
5704 1 12.7109 116.348 28.4704
5658 1 15.4394 114.766 28.4513
12159 2 16.3498 116.364 27.1823
5656 1 18.1672 116.348 28.4704
8926 2 21.806 116.364 27.1823
5610 1 20.8956 114.766 28.4513
12105 2 19.0784 114.783 27.1629
5708 1 14.5307 119.54 25.9343
12143 2 13.6213 117.944 27.201
5688 1 12.7106 119.512 28.5064
5657 1 15.4389 117.93 28.4887
12141 2 16.3491 119.526 27.2189
5659 1 18.1668 119.512 28.5064
8927 2 21.8053 119.526 27.2189
5660 1 19.987 119.54 25.9343
5609 1 20.8951 117.93 28.4887
12104 2 19.0775 117.944 27.201
5692 1 11.8022 121.121 25.9517
5690 1 14.53 122.702 25.9683
12142 2 13.6207 121.108 27.236
5689 1 12.7104 122.678 28.5394
5661 1 17.2584 121.121 25.9517
5643 1 15.4386 121.095 28.5233
12144 2 16.3486 122.69 27.2524
5641 1 18.1667 122.678 28.5394
8918 2 21.8049 122.69 27.2524
5663 1 19.9862 122.702 25.9683
5608 1 20.8949 121.095 28.5233
12097 2 19.0769 121.108 27.236
5691 1 11.8016 124.284 25.9841
5693 1 14.5295 125.866 25.9991
12128 2 13.6203 124.273 27.268
5680 1 12.7104 125.845 28.5694
5647 1 17.2578 124.284 25.9841
5642 1 15.4385 124.261 28.5548
12126 2 16.3483 125.856 27.2828
5644 1 18.1667 125.845 28.5694
8919 2 21.8046 125.856 27.2828
5645 1 19.9857 125.866 25.9991
5601 1 20.8948 124.261 28.5548
12096 2 19.0766 124.273 27.268
5684 1 11.8012 127.448 26.0133
5682 1 14.5291 129.031 26.0267
12127 2 13.6201 127.439 27.2968
5681 1 12.7105 129.013 28.5963
5646 1 17.2574 127.448 26.0133
5629 1 15.4386 127.429 28.5833
12129 2 16.3482 129.022 27.31
5627 1 18.1667 129.013 28.5963
8917 2 21.8044 129.022 27.31
5648 1 19.9854 129.031 26.0267
5600 1 20.8948 127.429 28.5833
12083 2 19.0764 127.439 27.2968
5683 1 11.8009 130.614 26.0392
12117 2 13.62 130.606 27.3224
6105 1 14.5289 132.197 26.0508
6087 1 12.7106 132.182 28.6199
5630 1 17.2571 130.614 26.0392
5628 1 15.4387 130.597 28.6085
12565 2 16.3481 132.189 27.3339
6052 1 18.1668 132.182 28.6199
5589 1 20.8949 130.597 28.6085
12082 2 19.0762 130.606 27.3224
6053 1 19.9851 132.197 26.0508
9349 2 21.8043 132.189 27.3339
5654 1 13.6188 114.732 31.0236
12139 2 11.8013 114.75 29.7359
12136 2 12.7096 116.299 32.3255
12137 2 14.5293 116.332 29.7547
12090 2 15.4374 114.715 32.3072
12102 2 17.2576 114.75 29.7359
5655 1 16.347 116.316 31.0421
12088 2 18.1658 116.299 32.3255
2614 1 21.8032 116.316 31.0421
5607 1 19.075 114.732 31.0236
12060 2 20.8937 114.715 32.3072
12103 2 19.9856 116.332 29.7547
5639 1 13.619 117.899 31.0599
12138 2 11.8012 117.915 29.7728
12120 2 12.7102 119.469 32.3601
12140 2 14.5293 119.498 29.7902
12089 2 15.438 117.884 32.3431
12094 2 17.2574 117.915 29.7728
5637 1 16.3473 119.484 31.077
12091 2 18.1664 119.469 32.3601
2615 1 21.8035 119.484 31.077
5606 1 19.0752 117.899 31.0599
12059 2 20.8942 117.884 32.3431
12092 2 19.9855 119.498 29.7902
5638 1 13.6194 121.068 31.0935
12124 2 11.8012 121.082 29.8069
12121 2 12.7108 122.641 32.392
12122 2 14.5294 122.666 29.8229
12076 2 15.4386 121.055 32.3764
12093 2 17.2574 121.082 29.8069
5640 1 16.3477 122.653 31.1092
12074 2 18.1671 122.641 32.392
2606 1 21.804 122.653 31.1092
5599 1 19.0756 121.068 31.0935
12058 2 20.8949 121.055 32.3764
12095 2 19.9856 122.666 29.8229
5625 1 13.6198 124.238 31.1243
12123 2 11.8014 124.25 29.8381
12112 2 12.7115 125.813 32.421
12125 2 14.5296 125.834 29.8525
12075 2 15.4393 124.227 32.4069
12080 2 17.2576 124.25 29.8381
5623 1 16.3482 125.824 31.1386
12077 2 18.1677 125.813 32.421
2607 1 21.8044 125.824 31.1386
5598 1 19.0761 124.238 31.1243
12055 2 20.8955 124.227 32.4069
12078 2 19.9858 125.834 29.8525
5624 1 13.6203 127.409 31.1521
12116 2 11.8016 127.419 29.8662
12113 2 12.7121 128.986 32.4471
12114 2 14.5298 129.004 29.8791
12068 2 15.4399 127.399 32.4345
12079 2 17.2578 127.419 29.8662
5626 1 16.3486 128.995 31.1649
12066 2 18.1683 128.986 32.4471
2605 1 21.8049 128.995 31.1649
5588 1 19.0765 127.409 31.1521
12054 2 20.8961 127.399 32.4345
12081 2 19.9861 129.004 29.8791
5616 1 13.6207 130.581 31.1768
12115 2 11.8018 130.589 29.8912
12543 2 12.7126 132.16 32.4701
12564 2 14.5301 132.175 29.9025
12067 2 15.4405 130.573 32.459
12069 2 17.2581 130.589 29.8912
6037 1 16.349 132.167 31.188
12508 2 18.1688 132.16 32.4701
5587 1 19.077 130.581 31.1768
12051 2 20.8967 130.573 32.459
3014 1 21.8053 132.167 31.188
12509 2 19.9863 132.175 29.9025
5635 1 11.799 114.697 33.594
12086 2 13.6183 114.679 34.8764
5633 1 14.5276 116.282 33.612
5604 1 17.2552 114.697 33.594
12087 2 16.347 116.266 34.8943
8854 2 21.8032 116.266 34.8943
12057 2 19.0745 114.679 34.8764
5605 1 19.9838 116.282 33.612
5636 1 14.5285 119.455 33.6461
5634 1 11.7999 117.868 33.6293
12072 2 13.6194 117.853 34.9115
12070 2 16.3482 119.44 34.9282
5596 1 17.2562 117.868 33.6293
8855 2 21.8044 119.44 34.9282
5594 1 19.9848 119.455 33.6461
12056 2 19.0757 117.853 34.9115
5619 1 14.5295 122.628 33.6776
5621 1 11.8009 121.041 33.6622
12071 2 13.6206 121.027 34.9442
12073 2 16.3493 122.615 34.9596
5595 1 17.2571 121.041 33.6622
8846 2 21.8055 122.615 34.9596
5597 1 19.9857 122.628 33.6776
12053 2 19.0768 121.027 34.9442
5622 1 14.5304 125.802 33.7064
12064 2 13.6217 124.203 34.9743
5620 1 11.8018 124.215 33.6924
12062 2 16.3503 125.791 34.9882
5585 1 17.2581 124.215 33.6924
8847 2 21.8065 125.791 34.9882
5583 1 19.9866 125.802 33.7064
12052 2 19.0779 124.203 34.9743
5613 1 14.5312 128.977 33.7323
12063 2 13.6227 127.379 35.0015
5615 1 11.8027 127.389 33.7197
12065 2 16.3512 128.968 35.014
5584 1 17.2589 127.389 33.7197
5586 1 19.9874 128.977 33.7323
12050 2 19.0789 127.379 35.0015
8845 2 21.8074 128.968 35.014
12061 2 13.6235 130.556 35.0257
5614 1 11.8034 130.564 33.7441
6036 1 14.5319 132.152 33.7551
5578 1 17.2596 130.564 33.7441
12493 2 16.352 132.145 35.0366
12049 2 19.0797 130.556 35.0257
9278 2 21.8082 132.145 35.0366
5987 1 19.9881 132.152 33.7551
12262 2 11.8002 114.642 37.4432
17451 1 13.619 114.624 38.7277
5632 1 12.7092 116.249 36.1797
12260 2 14.5292 116.231 37.4609
12251 2 17.2565 114.642 37.4432
5592 1 15.4365 114.661 36.1621
17836 1 16.3482 116.214 38.7452
5590 1 18.1654 116.249 36.1797
5574 1 20.8927 114.661 36.1621
17421 1 19.0753 114.624 38.7277
12252 2 19.9854 116.231 37.4609
15024 1 21.8044 116.214 38.7452
12261 2 11.8019 117.821 37.478
17837 1 13.6211 117.805 38.7623
5617 1 12.7107 119.425 36.2134
12263 2 14.5308 119.41 37.4945
12248 2 17.2582 117.821 37.478
5591 1 15.4381 117.837 36.1969
17838 1 16.3501 119.395 38.7787
5593 1 18.1669 119.425 36.2134
17802 1 19.0773 117.805 38.7623
5573 1 20.8943 117.837 36.1969
12246 2 19.9871 119.41 37.4945
15022 1 21.8064 119.395 38.7787
12258 2 11.8035 121 37.5104
17833 1 13.6229 120.986 38.7945
5618 1 12.7121 122.602 36.2445
12256 2 14.5323 122.589 37.5256
12247 2 17.2597 121 37.5104
5581 1 15.4395 121.014 36.2292
17831 1 16.3518 122.576 38.8097
5579 1 18.1683 122.602 36.2445
17801 1 19.0791 120.986 38.7945
5572 1 20.8958 121.014 36.2292
12249 2 19.9886 122.589 37.5256
15023 1 21.8081 122.576 38.8097
12257 2 11.8049 124.179 37.5402
17832 1 13.6245 124.167 38.8242
5611 1 12.7133 125.78 36.2729
12259 2 14.5337 125.769 37.554
12244 2 17.2611 124.179 37.5402
5580 1 15.4408 124.191 36.2591
17834 1 16.3533 125.758 38.838
5582 1 18.1696 125.78 36.2729
17796 1 19.0807 124.167 38.8242
5571 1 20.8971 124.191 36.2591
12242 2 19.9899 125.769 37.554
15020 1 21.8096 125.758 38.838
12255 2 11.8061 127.359 37.5672
17822 1 13.6259 127.349 38.8511
5612 1 12.7144 128.958 36.2985
12253 2 14.5348 128.949 37.5796
12243 2 17.2624 127.359 37.5672
17820 1 16.3546 128.94 38.8635
5577 1 15.442 127.369 36.2861
5575 1 18.1706 128.958 36.2985
17795 1 19.0821 127.349 38.8511
5570 1 20.8982 127.369 36.2861
12245 2 19.9911 128.949 37.5796
15021 1 21.8109 128.94 38.8635
12254 2 11.8072 130.539 37.5912
17821 1 13.6271 130.531 38.8751
6015 1 12.7153 132.137 36.3211
12672 2 14.5358 132.129 37.6021
12241 2 17.2634 130.539 37.5912
17823 1 16.3557 132.122 38.8859
5576 1 15.443 130.548 36.3102
5986 1 18.1716 132.137 36.3211
17782 1 19.0833 130.531 38.8751
5569 1 20.8992 130.548 36.3102
15019 1 21.8119 132.122 38.8859
12658 2 19.992 132.129 37.6021
23459 2 12.7126 116.197 40.0252
17449 1 11.8029 114.587 41.2907
23049 2 13.6243 114.568 42.5692
17835 1 14.5322 116.179 41.3084
23441 2 16.3535 116.162 42.5872
17401 1 17.2592 114.587 41.2907
23063 2 15.4397 114.605 40.0075
23448 2 18.1689 116.197 40.0252
17798 1 19.9885 116.179 41.3084
23013 2 19.0805 114.568 42.5692
23015 2 20.8959 114.605 40.0075
20638 2 21.8098 116.162 42.5872
23460 2 12.7146 119.38 40.0588
17829 1 11.8052 117.772 41.3255
17827 1 14.5344 119.365 41.3421
23446 2 15.4417 117.789 40.0423
17799 1 17.2614 117.772 41.3255
23444 2 18.1708 119.38 40.0588
17800 1 19.9906 119.365 41.3421
23400 2 20.898 117.789 40.0423
23456 2 12.7163 122.563 40.09
17828 1 11.8072 120.958 41.358
17830 1 14.5363 122.55 41.3732
23445 2 15.4436 120.972 40.0747
17793 1 17.2635 120.958 41.358
23447 2 18.1726 122.563 40.09
17791 1 19.9925 122.55 41.3732
23399 2 20.8998 120.972 40.0747
23457 2 12.7179 125.747 40.1184
17818 1 11.809 124.143 41.3878
17816 1 14.5379 125.736 41.4017
23438 2 15.4452 124.155 40.1045
17792 1 17.2653 124.143 41.3878
23436 2 18.1741 125.747 40.1184
17794 1 19.9942 125.736 41.4017
23398 2 20.9015 124.155 40.1045
23452 2 12.7192 128.93 40.1439
17817 1 11.8106 127.328 41.4148
17819 1 14.5394 128.921 41.4272
23437 2 15.4467 127.339 40.1315
17779 1 17.2668 127.328 41.4148
23439 2 18.1754 128.93 40.1439
17777 1 19.9956 128.921 41.4272
23391 2 20.9029 127.339 40.1315
23453 2 12.7203 132.114 40.1663
17810 1 11.8119 130.514 41.4388
17808 1 14.5405 132.107 41.4496
17778 1 17.2681 130.514 41.4388
23424 2 15.4479 130.522 40.1555
23422 2 18.1765 132.114 40.1663
17780 1 19.9968 132.107 41.4496
23390 2 20.9041 130.522 40.1555
17825 1 12.7175 116.145 43.8692
23047 2 11.8101 114.531 45.1285
23440 2 14.5394 116.128 45.1469
17399 1 15.4444 114.549 43.8511
22994 2 17.2663 114.531 45.1285
17797 1 18.1737 116.145 43.8692
23393 2 19.9956 116.128 45.1469
17351 1 20.9006 114.549 43.8511
23442 2 13.6265 117.756 42.6045
17826 1 12.7197 119.335 43.9035
23430 2 11.8123 117.724 45.1647
23428 2 14.5415 119.32 45.1817
23443 2 16.3556 119.35 42.6212
17789 1 15.4468 117.74 43.8867
23394 2 17.2686 117.724 45.1647
17787 1 18.176 119.335 43.9035
23397 2 19.0827 117.756 42.6045
17736 1 20.903 117.74 43.8867
23395 2 19.9977 119.32 45.1817
20634 2 21.8119 119.35 42.6212
23434 2 13.6285 120.944 42.6373
17814 1 12.7217 122.524 43.9351
23429 2 11.8143 120.915 45.1981
23431 2 14.5434 122.511 45.2137
23432 2 16.3575 122.537 42.6527
17788 1 15.4489 120.93 43.9197
23386 2 17.2706 120.915 45.1981
17790 1 18.1779 122.524 43.9351
23396 2 19.0847 120.944 42.6373
17735 1 20.9051 120.93 43.9197
23384 2 19.9996 122.511 45.2137
20635 2 21.8137 122.537 42.6527
23433 2 13.6302 124.131 42.6673
17815 1 12.7234 125.713 43.9638
23416 2 11.8161 124.106 45.2286
23414 2 14.545 125.702 45.2427
23435 2 16.3592 125.724 42.6813
17775 1 15.4507 124.119 43.9498
23385 2 17.2724 124.106 45.2286
17773 1 18.1796 125.713 43.9638
23389 2 19.0865 124.131 42.6673
17734 1 20.9069 124.119 43.9498
23387 2 20.0013 125.702 45.2427
20630 2 21.8154 125.724 42.6813
23420 2 13.6318 127.318 42.6945
17806 1 12.7249 128.902 43.9896
23415 2 11.8177 127.297 45.2561
23417 2 14.5465 128.893 45.2687
23418 2 16.3606 128.912 42.7069
17774 1 15.4523 127.308 43.9771
23371 2 17.2739 127.297 45.2561
17776 1 18.1811 128.902 43.9896
23388 2 19.088 127.318 42.6945
17727 1 20.9085 127.308 43.9771
23369 2 20.0027 128.893 45.2687
20631 2 21.8168 128.912 42.7069
23419 2 13.6331 130.505 42.7186
17807 1 12.7261 132.091 44.0122
23408 2 11.819 130.488 45.2804
23406 2 14.5477 132.083 45.2914
23421 2 16.3618 132.099 42.7294
17760 1 15.4536 130.497 44.0013
23370 2 17.2752 130.488 45.2804
17758 1 18.1824 132.091 44.0122
23374 2 19.0893 130.505 42.7186
17726 1 20.9099 130.497 44.0013
23372 2 20.0039 132.083 45.2914
20629 2 21.818 132.099 42.7294
23426 2 12.7263 116.093 47.7046
17383 1 11.8185 114.476 48.9652
17385 1 13.6309 114.512 46.4092
17783 1 14.5477 116.076 48.9846
17784 1 16.3602 116.11 46.4279
17332 1 17.2748 114.476 48.9652
22992 2 15.4534 114.494 47.6855
23392 2 18.1826 116.093 47.7046
17729 1 20.004 116.076 48.9846
17349 1 19.0871 114.512 46.4092
22953 2 20.9096 114.494 47.6855
15004 1 21.8164 116.11 46.4279
17767 1 11.8206 117.675 49.0032
17785 1 13.6332 117.707 46.4459
23427 2 12.7283 119.289 47.7405
17765 1 14.5497 119.274 49.021
17730 1 17.2768 117.675 49.0032
17786 1 16.3623 119.304 46.4631
23382 2 15.4555 117.691 47.7229
23380 2 18.1846 119.289 47.7405
17731 1 20.0059 119.274 49.021
17733 1 19.0894 117.707 46.4459
23334 2 20.9117 117.691 47.7229
14992 1 21.8186 119.304 46.4631
17766 1 11.8225 120.873 49.038
17771 1 13.6352 120.901 46.4796
23412 2 12.7301 122.485 47.7732
17722 1 17.2787 120.873 49.038
17768 1 14.5515 122.471 49.0541
17769 1 16.3643 122.498 46.4954
23381 2 15.4574 120.887 47.7572
23383 2 18.1864 122.485 47.7732
14993 1 21.8205 122.498 46.4954
17720 1 20.0077 122.471 49.0541
17732 1 19.0914 120.901 46.4796
23333 2 20.9136 120.887 47.7572
17752 1 11.8242 124.07 49.0695
17770 1 13.637 124.094 46.5104
23413 2 12.7317 125.679 47.8028
17721 1 17.2804 124.07 49.0695
17750 1 14.5531 125.668 49.0841
17772 1 16.3659 125.691 46.5246
23367 2 15.4591 124.082 47.7884
14984 1 21.8222 125.691 46.5246
17723 1 20.0093 125.668 49.0841
17725 1 19.0933 124.094 46.5104
23332 2 20.9153 124.082 47.7884
23365 2 18.188 125.679 47.8028
17751 1 11.8256 127.266 49.0978
17756 1 13.6386 127.287 46.5381
23404 2 12.7331 128.873 47.8292
17707 1 17.2819 127.266 49.0978
17753 1 14.5544 128.864 49.1106
17754 1 16.3674 128.883 46.5507
23366 2 15.4606 127.276 47.8164
14985 1 21.8236 128.883 46.5507
17705 1 20.0107 128.864 49.1106
17724 1 19.0948 127.287 46.5381
23325 2 20.9168 127.276 47.8164
23368 2 18.1894 128.873 47.8292
17744 1 11.8269 130.462 49.1226
17755 1 13.6399 130.479 46.5625
23405 2 12.7343 132.067 47.8522
17706 1 17.2832 130.462 49.1226
17742 1 14.5556 132.06 49.1338
17757 1 16.3686 132.075 46.5735
23353 2 15.4619 130.47 47.8411
14983 1 21.8249 132.075 46.5735
17708 1 20.0119 132.06 49.1338
17710 1 19.0962 130.479 46.5625
23324 2 20.9181 130.47 47.8411
23351 2 18.1906 132.067 47.8522
17763 1 12.7362 116.042 51.5396
23425 2 10.9143 116.059 50.2605
22980 2 13.6414 114.458 50.2407
23377 2 16.3705 116.059 50.2605
17330 1 15.4634 114.44 51.5194
17728 1 18.1924 116.042 51.5396
17300 1 20.9196 114.44 51.5194
22951 2 19.0977 114.458 50.2407
17764 1 12.7379 119.244 51.5773
23378 2 13.6433 117.659 50.2795
23410 2 10.9161 119.259 50.2976
17718 1 15.4652 117.643 51.5589
23379 2 16.3723 119.259 50.2976
17676 1 20.9214 117.643 51.5589
17716 1 18.1941 119.244 51.5773
23331 2 19.0996 117.659 50.2795
17748 1 12.7395 122.445 51.6116
23363 2 13.645 120.859 50.3149
23411 2 10.9177 122.458 50.3313
17717 1 15.4668 120.845 51.5949
23361 2 16.374 122.458 50.3313
17675 1 20.923 120.845 51.5949
17719 1 18.1957 122.445 51.6116
23330 2 19.1013 120.859 50.3149
17749 1 12.7409 125.645 51.6422
23362 2 13.6466 124.057 50.3469
23402 2 10.9192 125.656 50.3616
17703 1 15.4683 124.045 51.6273
23364 2 16.3755 125.656 50.3616
17674 1 20.9246 124.045 51.6273
17701 1 18.1971 125.645 51.6422
23323 2 19.1029 124.057 50.3469
17740 1 12.7422 128.845 51.6694
23349 2 13.648 127.255 50.3755
23403 2 10.9205 128.854 50.3885
17702 1 15.4697 127.245 51.6563
23347 2 16.3768 128.854 50.3885
17668 1 20.9259 127.245 51.6563
17704 1 18.1984 128.845 51.6694
23322 2 19.1043 127.255 50.3755
17741 1 12.7433 132.044 51.693
23348 2 13.6492 130.453 50.4006
23401 2 10.9217 132.051 50.4119
17691 1 15.4709 130.444 51.6816
23350 2 16.3779 132.051 50.4119
17667 1 20.9271 130.444 51.6816
17689 1 18.1995 132.044 51.693
23312 2 19.1055 130.453 50.4006
17762 1 10.9254 116.008 54.0933
23355 2 12.7487 115.992 55.3681
17320 1 13.6527 114.405 54.0722
22978 2 11.8303 114.423 52.7942
17713 1 16.3816 116.008 54.0933
23376 2 14.5593 116.025 52.8149
22940 2 15.4761 114.388 55.3466
22942 2 17.2866 114.423 52.7942
23326 2 18.2049 115.992 55.3681
23327 2 20.0155 116.025 52.8149
17298 1 19.109 114.405 54.0722
22933 2 20.9324 114.388 55.3466
17714 1 13.6542 117.611 54.1133
17746 1 10.9268 119.214 54.1324
23356 2 12.75 119.2 55.4079
23359 2 11.832 117.627 52.8346
17715 1 16.383 119.214 54.1324
23316 2 15.4775 117.596 55.3885
23328 2 17.2882 117.627 52.8346
23357 2 14.5608 119.229 52.8533
17673 1 19.1104 117.611 54.1133
23298 2 20.9337 117.596 55.3885
23314 2 18.2062 119.2 55.4079
23329 2 20.0171 119.229 52.8533
17699 1 13.6556 120.817 54.1506
17747 1 10.9281 122.419 54.1678
23341 2 12.7513 122.406 55.4438
23358 2 11.8335 120.831 52.8712
17697 1 16.3844 122.419 54.1678
23315 2 15.4788 120.803 55.4263
23320 2 17.2897 120.831 52.8712
23360 2 14.5623 122.432 52.8881
17672 1 19.1118 120.817 54.1506
23297 2 20.935 120.803 55.4263
23317 2 18.2075 122.406 55.4438
23318 2 20.0185 122.432 52.8881
17698 1 13.6569 124.021 54.184
17738 1 10.9294 125.622 54.1993
23342 2 12.7524 125.611 55.4757
23345 2 11.8349 124.033 52.9041
17700 1 16.3856 125.622 54.1993
23305 2 15.48 124.008 55.4603
23319 2 17.2911 124.033 52.9041
23343 2 14.5636 125.634 52.9192
17666 1 19.1132 124.021 54.184
23296 2 20.9362 124.008 55.4603
23303 2 18.2087 125.611 55.4757
23321 2 20.0199 125.634 52.9192
17687 1 13.6581 127.224 54.2136
17739 1 10.9306 128.825 54.227
23335 2 12.7535 128.815 55.5038
23344 2 11.8361 127.234 52.9334
23346 2 14.5648 128.835 52.9467
23309 2 17.2924 127.234 52.9334
17685 1 16.3868 128.825 54.227
23304 2 15.4811 127.213 55.4903
23307 2 20.0211 128.835 52.9467
23306 2 18.2098 128.815 55.5038
23295 2 20.9373 127.213 55.4903
17665 1 19.1144 127.224 54.2136
23339 2 11.8373 130.435 52.9591
23336 2 12.7545 132.019 55.5281
17737 1 10.9316 132.028 54.2511
17686 1 13.6592 130.426 54.2395
23337 2 14.5659 132.035 52.9705
23308 2 17.2935 130.435 52.9591
23301 2 15.4821 130.417 55.5164
17688 1 16.3878 132.028 54.2511
23310 2 20.0221 132.035 52.9705
23299 2 18.2107 132.019 55.5281
23294 2 20.9384 130.417 55.5164
17659 1 19.1154 130.426 54.2395
18011 1 12.7615 115.943 59.1979
23652 2 10.9386 115.959 57.9204
17318 1 11.8426 114.37 56.624
23259 2 13.6662 114.354 57.8982
17712 1 14.5714 115.975 56.6459
23644 2 16.3948 115.959 57.9204
17615 1 15.4892 114.336 59.1753
17293 1 17.2989 114.37 56.624
17669 1 20.0276 115.975 56.6459
18000 1 18.2178 115.943 59.1979
17567 1 20.9454 114.336 59.1753
23229 2 19.1224 114.354 57.8982
17695 1 11.8438 117.58 56.6667
18012 1 12.7625 119.155 59.2398
23650 2 10.9397 119.17 57.9616
23645 2 13.6673 117.565 57.9415
17693 1 14.5725 119.185 56.6865
17670 1 17.3001 117.58 56.6667
17998 1 15.4901 117.549 59.2194
23646 2 16.3959 119.17 57.9616
17952 1 20.9464 117.549 59.2194
17671 1 20.0288 119.185 56.6865
17996 1 18.2187 119.155 59.2398
23610 2 19.1235 117.565 57.9415
17694 1 11.845 120.789 56.7052
23651 2 10.9408 122.379 57.9985
23641 2 13.6684 120.775 57.9806
17696 1 14.5737 122.392 56.7229
17997 1 15.4911 120.761 59.2591
17663 1 17.3012 120.789 56.7052
23639 2 16.397 122.379 57.9985
17951 1 20.9473 120.761 59.2591
17661 1 20.0299 122.392 56.7229
23609 2 19.1246 120.775 57.9806
17683 1 11.8461 123.996 56.7396
23648 2 10.9418 125.588 58.0313
23640 2 13.6694 123.984 58.0154
17681 1 14.5748 125.599 56.7553
17662 1 17.3023 123.996 56.7396
23642 2 16.398 125.588 58.0313
17664 1 20.031 125.599 56.7553
23604 2 19.1257 123.984 58.0154
17682 1 11.8472 127.203 56.77
23649 2 10.9428 128.796 58.06
23630 2 13.6704 127.192 58.0461
17684 1 14.5758 128.806 56.7837
17656 1 17.3034 127.203 56.77
23628 2 16.399 128.796 58.06
17654 1 20.032 128.806 56.7837
23603 2 19.1267 127.192 58.0461
17679 1 11.8481 130.408 56.7964
23647 2 10.9437 132.003 58.0847
23629 2 13.6714 130.399 58.0728
17677 1 14.5767 132.011 56.8082
17655 1 17.3044 130.408 56.7964
23631 2 16.3999 132.003 58.0847
17657 1 20.033 132.011 56.8082
23590 2 19.1276 130.399 58.0728
18010 1 10.952 115.911 61.7496
17601 1 13.6797 114.303 61.7264
23257 2 11.8565 114.32 60.4493
17993 1 16.4082 115.911 61.7496
23643 2 14.5851 115.927 60.4722
23209 2 17.3127 114.32 60.4493
23606 2 20.0413 115.927 60.4722
17565 1 19.1359 114.303 61.7264
17994 1 13.6805 117.519 61.7716
18006 1 10.9528 119.126 61.7926
23637 2 11.8575 117.534 60.4939
17995 1 16.409 119.126 61.7926
23607 2 17.3137 117.534 60.4939
23635 2 14.5861 119.141 60.5145
17949 1 19.1367 117.519 61.7716
23608 2 20.0423 119.141 60.5145
18008 1 12.7635 122.366 59.2772
17986 1 13.6813 120.733 61.8123
18007 1 10.9536 122.34 61.8309
23636 2 11.8584 120.747 60.534
17984 1 16.4099 122.34 61.8309
23601 2 17.3146 120.747 60.534
23638 2 14.587 122.353 60.5524
17999 1 18.2197 122.366 59.2772
17948 1 19.1376 120.733 61.8123
23599 2 20.0432 122.353 60.5524
18009 1 12.7644 125.576 59.3104
17985 1 13.6822 123.947 61.8485
18002 1 10.9545 125.553 61.8649
23626 2 11.8593 123.959 60.5697
17990 1 15.4921 123.971 59.2944
17987 1 16.4107 125.553 61.8649
23600 2 17.3156 123.959 60.5697
23624 2 14.5879 125.565 60.5859
17950 1 20.9483 123.971 59.2944
17988 1 18.2206 125.576 59.3104
17941 1 19.1384 123.947 61.8485
23602 2 20.0442 125.565 60.5859
18004 1 12.7653 128.786 59.3394
17972 1 13.6831 127.16 61.8802
18003 1 10.9554 128.766 61.8944
23625 2 11.8603 127.171 60.6011
17989 1 15.493 127.181 59.3255
17970 1 16.4116 128.766 61.8944
23587 2 17.3165 127.171 60.6011
23627 2 14.5888 128.776 60.6152
17943 1 20.9492 127.181 59.3255
17991 1 18.2216 128.786 59.3394
17940 1 19.1393 127.16 61.8802
23585 2 20.0451 128.776 60.6152
18005 1 12.7662 131.995 59.3644
17971 1 13.6839 130.373 61.9076
18001 1 10.9562 131.979 61.9197
23618 2 11.8611 130.381 60.6283
17976 1 15.4939 130.391 59.3524
17973 1 16.4124 131.979 61.9197
23586 2 17.3174 130.381 60.6283
23616 2 14.5897 131.987 60.6403
17942 1 20.9501 130.391 59.3524
17974 1 18.2224 131.995 59.3644
17926 1 19.1401 130.373 61.9076
23588 2 20.0459 131.987 60.6403
23632 2 10.9663 115.864 65.5743
23633 2 12.7756 115.895 63.0235
17599 1 11.8703 114.271 64.2777
23193 2 13.694 114.254 65.5505
17992 1 14.5988 115.88 64.3014
23592 2 16.4225 115.864 65.5743
17546 1 17.3265 114.271 64.2777
23207 2 15.5033 114.287 63.0001
17945 1 20.055 115.88 64.3014
23605 2 18.2319 115.895 63.0235
23157 2 19.1502 114.254 65.5505
23159 2 20.9595 114.287 63.0001
17982 1 11.8711 117.489 64.3239
23593 2 13.6949 117.473 65.5969
23620 2 10.9672 119.082 65.6183
23634 2 12.7765 119.112 63.0668
17946 1 17.3273 117.489 64.3239
17980 1 14.5996 119.097 64.3452
23594 2 16.4234 119.082 65.6183
23597 2 15.5042 117.504 63.0457
17947 1 20.0558 119.097 64.3452
23541 2 19.1511 117.473 65.5969
23544 2 20.9604 117.504 63.0457
23595 2 18.2327 119.112 63.0668
17981 1 11.8719 120.706 64.3654
23579 2 13.6958 120.692 65.6386
23621 2 10.9681 122.301 65.6577
23622 2 12.7774 122.327 63.1055
17938 1 17.3281 120.706 64.3654
17983 1 14.6004 122.314 64.3844
23577 2 16.4243 122.301 65.6577
23596 2 15.5051 120.719 63.0867
17936 1 20.0566 122.314 64.3844
23540 2 19.152 120.692 65.6386
23543 2 20.9613 120.719 63.0867
23598 2 18.2336 122.327 63.1055
17968 1 11.8727 123.923 64.4022
23578 2 13.6966 123.91 65.6756
23612 2 10.9689 125.519 65.6924
23623 2 12.7782 125.542 63.1397
17937 1 17.3289 123.923 64.4022
17966 1 14.6012 125.531 64.4189
23580 2 16.4252 125.519 65.6924
23583 2 15.5059 123.935 63.1231
17939 1 20.0575 125.531 64.4189
23533 2 19.1529 123.91 65.6756
23542 2 20.9622 123.935 63.1231
23581 2 18.2345 125.542 63.1397
17967 1 11.8735 127.139 64.4345
23564 2 13.6975 127.128 65.708
23613 2 10.9698 128.737 65.7226
23614 2 12.7791 128.756 63.1694
17923 1 17.3298 127.139 64.4345
17969 1 14.6021 128.747 64.4489
23562 2 16.426 128.737 65.7226
23582 2 15.5068 127.149 63.1551
17921 1 20.0583 128.747 64.4489
23532 2 19.1537 127.128 65.708
23535 2 20.963 127.149 63.1551
23584 2 18.2353 128.756 63.1694
17960 1 11.8743 130.355 64.4623
23563 2 13.6983 130.345 65.736
23611 2 10.9706 131.954 65.7484
23615 2 12.7799 131.97 63.1949
17922 1 17.3306 130.355 64.4623
17958 1 14.6029 131.962 64.4746
23565 2 16.4269 131.954 65.7484
23568 2 15.5076 130.363 63.1827
17924 1 20.0591 131.962 64.4746
23518 2 19.1546 130.345 65.736
23534 2 20.9639 130.363 63.1827
23566 2 18.2361 131.97 63.1949
17978 1 12.7894 115.849 66.8542
23191 2 11.8847 114.221 68.0997
23591 2 14.6133 115.832 68.1237
17544 1 15.517 114.238 66.8305
23140 2 17.341 114.221 68.0997
17944 1 18.2456 115.849 66.8542
23537 2 20.0696 115.832 68.1237
17505 1 20.9732 114.238 66.8305
17979 1 12.7902 119.069 66.8988
23575 2 11.8857 117.442 68.1466
17934 1 15.5179 117.459 66.8771
23538 2 17.3419 117.442 68.1466
23573 2 14.6143 119.053 68.1683
17886 1 20.9742 117.459 66.8771
17932 1 18.2464 119.069 66.8988
23539 2 20.0705 119.053 68.1683
17964 1 12.791 122.289 66.9386
23574 2 11.8866 120.664 68.1888
17933 1 15.5187 120.679 66.9193
23530 2 17.3429 120.664 68.1888
23576 2 14.6152 122.275 68.2082
17885 1 20.975 120.679 66.9193
17935 1 18.2473 122.289 66.9386
23528 2 20.0714 122.275 68.2082
17965 1 12.7919 125.508 66.9736
23560 2 11.8876 123.885 68.2263
17919 1 15.5196 123.899 66.9567
23529 2 17.3438 123.885 68.2263
23558 2 14.6161 125.496 68.2432
17884 1 20.9758 123.899 66.9567
17917 1 18.2481 125.508 66.9736
23531 2 20.0724 125.496 68.2432
17956 1 12.7927 128.728 67.004
23559 2 11.8885 127.106 68.2591
17918 1 15.5204 127.118 66.9893
23515 2 17.3447 127.106 68.2591
23561 2 14.6171 128.717 68.2737
17877 1 20.9767 127.118 66.9893
17920 1 18.249 128.728 67.004
23513 2 20.0733 128.717 68.2737
17957 1 12.7936 131.947 67.0299
23552 2 11.8894 130.327 68.2873
17905 1 15.5213 130.337 67.0175
23514 2 17.3456 130.327 68.2873
23550 2 14.618 131.938 68.2998
17876 1 20.9775 130.337 67.0175
17903 1 18.2498 131.947 67.0299
23516 2 20.0742 131.938 68.2998
17977 1 10.9789 115.817 69.4121
23571 2 12.8037 115.799 70.6694
17530 1 11.8909 114.173 71.9631
17532 1 13.7065 114.206 69.3879
17928 1 14.6196 115.785 71.9873
17929 1 16.4352 115.817 69.4121
17494 1 17.3472 114.173 71.9631
23138 2 15.5313 114.186 70.6453
17879 1 20.0759 115.785 71.9873
23536 2 18.2599 115.799 70.6694
17503 1 19.1628 114.206 69.3879
23108 2 20.9875 114.186 70.6453
17911 1 11.8921 117.398 72.0103
17930 1 13.7075 117.428 69.4351
17962 1 10.9799 119.04 69.457
23572 2 12.8048 119.023 70.7141
17880 1 17.3483 117.398 72.0103
17909 1 14.6208 119.011 72.0322
17931 1 16.4361 119.04 69.457
23526 2 15.5324 117.411 70.6924
17881 1 20.077 119.011 72.0322
17883 1 19.1638 117.428 69.4351
23484 2 20.9886 117.411 70.6924
23524 2 18.261 119.023 70.7141
17910 1 11.8932 120.623 72.0528
17915 1 13.7085 120.651 69.4776
17963 1 10.9809 122.263 69.497
23556 2 12.8059 122.248 70.7541
17872 1 17.3495 120.623 72.0528
17912 1 14.622 122.236 72.0723
17913 1 16.4371 122.263 69.497
23525 2 15.5335 120.635 70.7347
17870 1 20.0782 122.236 72.0723
17882 1 19.1647 120.651 69.4776
23483 2 20.9897 120.635 70.7347
23527 2 18.2621 122.248 70.7541
17897 1 11.8945 123.849 72.0906
17914 1 13.7095 123.874 69.5152
17954 1 10.9819 125.485 69.5322
23557 2 12.807 125.472 70.7894
17871 1 17.3507 123.849 72.0906
17895 1 14.6232 125.462 72.1077
17916 1 16.4381 125.485 69.5322
23511 2 15.5345 123.86 70.7723
17873 1 20.0794 125.462 72.1077
17875 1 19.1657 123.874 69.5152
23482 2 20.9908 123.86 70.7723
23509 2 18.2632 125.472 70.7894
17896 1 11.8957 127.075 72.1236
17901 1 13.7105 127.096 69.5481
17955 1 10.9829 128.708 69.5629
23548 2 12.808 128.696 70.82
17861 1 17.3519 127.075 72.1236
17898 1 14.6244 128.687 72.1384
17899 1 16.4391 128.708 69.5629
23510 2 15.5356 127.084 70.8053
17859 1 20.0806 128.687 72.1384
17874 1 19.1667 127.096 69.5481
23476 2 20.9919 127.084 70.8053
23512 2 18.2643 128.696 70.82
17891 1 11.8968 130.3 72.1521
17900 1 13.7115 130.319 69.5765
17953 1 10.9838 131.93 69.589
23549 2 12.809 131.92 70.8463
17860 1 17.3531 130.3 72.1521
17889 1 14.6255 131.913 72.1647
17902 1 16.44 131.93 69.589
23499 2 15.5366 130.308 70.8337
17862 1 20.0818 131.913 72.1647
17864 1 19.1677 130.319 69.5765
23475 2 20.9929 130.308 70.8337
23497 2 18.2653 131.92 70.8463
17907 1 12.7454 115.759 74.639
23570 2 10.9922 115.765 73.2011
23126 2 11.8807 114.123 75.6524
23128 2 13.7196 114.152 73.1771
23520 2 14.6094 115.738 75.6761
23521 2 16.4484 115.765 73.2011
17492 1 15.4732 114.146 74.615
23101 2 17.3369 114.123 75.6524
17878 1 18.2016 115.759 74.639
23477 2 20.0656 115.738 75.6761
17485 1 20.9294 114.146 74.615
23106 2 19.1759 114.152 73.1771
17908 1 12.7463 118.985 74.6836
23503 2 11.8819 117.352 75.6989
23522 2 13.7209 117.379 73.224
23554 2 10.9934 118.992 73.2458
17868 1 15.4739 117.372 74.6619
23478 2 17.3382 117.352 75.6989
23501 2 14.6107 118.967 75.7204
23523 2 16.4497 118.992 73.2458
17850 1 20.9301 117.372 74.6619
17866 1 18.2025 118.985 74.6836
23479 2 20.0669 118.967 75.7204
23481 2 19.1772 117.379 73.224
17893 1 12.7475 122.212 74.7236
23502 2 11.8833 120.582 75.7409
23507 2 13.7222 120.606 73.2663
23555 2 10.9947 122.22 73.2857
17867 1 15.475 120.598 74.7042
23471 2 17.3395 120.582 75.7409
23504 2 14.6121 122.197 75.7602
23505 2 16.451 122.22 73.2857
17849 1 20.9312 120.598 74.7042
17869 1 18.2038 122.212 74.7236
23469 2 20.0684 122.197 75.7602
23480 2 19.1784 120.606 73.2663
17894 1 12.749 125.44 74.7589
23491 2 11.8848 123.812 75.7784
23506 2 13.7235 123.834 73.304
23546 2 10.996 125.448 73.3211
17857 1 15.4763 123.826 74.7418
23470 2 17.341 123.812 75.7784
23489 2 14.6137 125.427 75.7954
23508 2 16.4522 125.448 73.3211
17848 1 20.9326 123.826 74.7418
17855 1 18.2052 125.44 74.7589
23472 2 20.0699 125.427 75.7954
23474 2 19.1797 123.834 73.304
17887 1 12.7505 128.669 74.7896
23490 2 11.8863 127.042 75.8113
23495 2 13.7247 127.062 73.337
23547 2 10.9972 128.676 73.3518
17856 1 15.4778 127.054 74.7748
23464 2 17.3425 127.042 75.8113
23492 2 14.6152 128.657 75.8261
23493 2 16.4535 128.676 73.3518
17847 1 20.9341 127.054 74.7748
17858 1 18.2067 128.669 74.7896
23462 2 20.0714 128.657 75.8261
23473 2 19.181 127.062 73.337
17888 1 12.7519 131.897 74.8159
23487 2 11.8878 130.273 75.8398
23494 2 13.7259 130.289 73.3655
23545 2 10.9984 131.903 73.3781
17853 1 15.4793 130.283 74.8033
23463 2 17.344 130.273 75.8398
23485 2 14.6166 131.888 75.8524
23496 2 16.4546 131.903 73.3781
17846 1 20.9356 130.283 74.8033
17851 1 18.2082 131.897 74.8159
23465 2 20.0728 131.888 75.8524
23467 2 19.1822 130.289 73.3655
5951 1 12.7017 132.364 -2.37854
12441 2 11.8131 133.927 -0.923009
12449 2 13.6243 133.942 -3.43033
12447 2 14.5419 132.359 -0.935108
5938 1 15.4287 133.931 -2.36644
12411 2 17.2693 133.927 -0.923009
12448 2 16.3533 132.376 -3.44232
5940 1 18.158 132.364 -2.37854
5892 1 20.885 133.931 -2.36644
12410 2 19.9982 132.359 -0.935108
12414 2 19.0805 133.942 -3.43033
9192 2 21.8095 132.376 -3.44232
5952 1 12.6997 135.498 -2.35548
12440 2 11.8118 137.062 -0.901999
12445 2 13.6229 137.074 -3.40947
12439 2 14.5405 135.495 -0.911974
5937 1 15.4271 137.065 -2.34559
12405 2 17.2681 137.062 -0.901999
12450 2 16.3517 135.508 -3.41938
5936 1 18.1559 135.498 -2.35548
5891 1 20.8833 137.065 -2.34559
12412 2 19.9968 135.495 -0.911974
12413 2 19.0791 137.074 -3.40947
9190 2 21.8079 135.508 -3.41938
5948 1 12.6983 138.632 -2.33672
12430 2 11.8108 140.197 -0.885202
12444 2 13.6218 140.206 -3.39276
12442 2 14.5394 138.63 -0.893077
5930 1 15.4259 140.199 -2.32889
12404 2 17.267 140.197 -0.885202
12443 2 16.3504 138.64 -3.40059
5939 1 18.1546 138.632 -2.33672
5890 1 20.8821 140.199 -2.32889
12403 2 19.9956 138.63 -0.893077
12408 2 19.078 140.206 -3.39276
9191 2 21.8067 138.64 -3.40059
5949 1 12.6973 141.766 -2.3221
12429 2 11.81 143.332 -0.8726
12434 2 13.621 143.338 -3.38022
12428 2 14.5385 141.765 -0.878376
5944 1 12.6966 144.899 -2.31165
12431 2 14.5378 144.899 -0.867873
5929 1 15.425 143.333 -2.31636
12391 2 17.2662 143.332 -0.8726
12446 2 16.3495 141.772 -3.38597
5928 1 18.1535 141.766 -2.3221
5931 1 18.1528 144.899 -2.31165
12432 2 16.3488 144.904 -3.37551
5883 1 20.8812 143.333 -2.31636
12406 2 19.9947 141.765 -0.878376
12407 2 19.0772 143.338 -3.38022
9188 2 21.8057 141.772 -3.38597
12389 2 19.994 144.899 -0.867873
9189 2 21.805 144.904 -3.37551
12422 2 11.8095 146.467 -0.864196
12433 2 13.6204 146.469 -3.37185
5945 1 12.6961 148.032 -2.30538
12420 2 14.5374 148.034 -0.86157
5916 1 15.4244 146.466 -2.30799
12390 2 17.2657 146.467 -0.864196
12435 2 16.3484 148.035 -3.36924
5914 1 18.1524 148.032 -2.30538
5882 1 20.8807 146.466 -2.30799
12394 2 19.0767 146.469 -3.37185
12392 2 19.9936 148.034 -0.86157
9187 2 21.8046 148.035 -3.36924
12421 2 11.8092 149.601 -0.859994
12423 2 13.6201 149.601 -3.36767
3263 1 12.696 151.165 -2.30329
9591 2 14.5373 151.168 -0.859469
5915 1 15.4241 149.599 -2.30381
12373 2 17.2654 149.601 -0.859994
9592 2 16.3482 151.166 -3.36715
3252 1 18.1522 151.165 -2.30329
5867 1 20.8804 149.599 -2.30381
12393 2 19.0764 149.601 -3.36767
9554 2 19.9935 151.168 -0.859469
6336 2 21.8045 151.166 -3.36715
5934 1 13.6282 133.917 0.299961
12437 2 12.7212 132.341 1.61976
5933 1 16.3571 132.349 0.287831
12401 2 15.4486 133.91 1.63192
12409 2 18.1775 132.341 1.61976
5889 1 19.0844 133.917 0.299961
12348 2 20.9048 133.91 1.63192
2878 1 21.8133 132.349 0.287831
5926 1 13.6268 137.054 0.321006
12438 2 12.7197 135.48 1.64301
5935 1 16.3556 135.486 0.311018
12400 2 15.4472 137.049 1.65304
12399 2 18.176 135.48 1.64301
5888 1 19.083 137.054 0.321006
12347 2 20.9035 137.049 1.65304
2874 1 21.8118 135.486 0.311018
5925 1 13.6257 140.191 0.337818
12426 2 12.7185 138.618 1.66201
12427 2 12.7176 141.756 1.67677
5924 1 16.3543 138.623 0.329937
12387 2 15.4461 140.187 1.66992
12402 2 18.1748 138.618 1.66201
12385 2 18.1738 141.756 1.67677
5881 1 19.0819 140.191 0.337818
12346 2 20.9024 140.187 1.66992
2875 1 21.8106 138.623 0.329937
5912 1 13.6249 143.327 0.350429
12418 2 12.7169 144.894 1.68731
5927 1 16.3534 141.759 0.344648
12386 2 15.4453 143.325 1.68257
12388 2 18.1731 144.894 1.68731
5910 1 16.3527 144.896 0.355159
5880 1 19.0811 143.327 0.350429
12339 2 20.9016 143.325 1.68257
2870 1 21.8096 141.759 0.344648
2871 1 21.8089 144.896 0.355159
5911 1 13.6243 146.464 0.358838
12419 2 12.7165 148.032 1.69364
12372 2 15.4448 146.463 1.691
5913 1 16.3523 148.032 0.361465
12370 2 18.1727 148.032 1.69364
5866 1 19.0806 146.464 0.358838
12338 2 20.901 146.463 1.691
2869 1 21.8085 148.032 0.361465
5901 1 13.624 149.6 0.363042
9581 2 12.7163 151.17 1.69574
12371 2 15.4445 149.601 1.69522
3245 1 16.3521 151.168 0.363568
9553 2 18.1726 151.17 1.69574
5865 1 19.0803 149.6 0.363042
12323 2 20.9007 149.601 1.69522
190 1 21.8084 151.168 0.363568
5922 1 11.8095 133.902 2.89853
5932 1 14.5384 132.331 2.88635
5918 1 12.7182 132.316 5.46871
12397 2 13.6279 133.895 4.19957
5886 1 17.2657 133.902 2.89853
5874 1 15.4455 133.887 5.4809
12396 2 16.3568 132.324 4.18739
5884 1 18.1744 132.316 5.46871
5885 1 19.9947 132.331 2.88635
5820 1 20.9017 133.887 5.4809
12345 2 19.0841 133.895 4.19957
9172 2 21.8131 132.324 4.18739
5921 1 11.8081 137.042 2.9197
5920 1 14.5369 135.472 2.90965
5919 1 12.7166 135.459 5.49202
12383 2 13.6265 137.037 4.22074
5904 1 12.7153 138.602 5.51108
5878 1 17.2643 137.042 2.9197
5873 1 15.444 137.031 5.50208
12398 2 16.3553 135.466 4.21069
5872 1 18.1728 135.459 5.49202
5875 1 18.1716 138.602 5.51108
5887 1 19.9931 135.472 2.90965
5819 1 20.9003 137.031 5.50208
12344 2 19.0827 137.037 4.22074
9160 2 21.8115 135.466 4.21069
5908 1 11.807 140.182 2.93661
5923 1 14.5356 138.612 2.92869
12382 2 13.6253 140.178 4.23766
5905 1 12.7143 141.745 5.52588
5906 1 14.5346 141.752 2.94347
5877 1 17.2632 140.182 2.93661
5859 1 15.4429 140.174 5.51901
12381 2 16.354 138.607 4.22974
5857 1 18.1706 141.745 5.52588
12384 2 16.353 141.749 4.24453
5876 1 19.9919 138.612 2.92869
5818 1 20.8991 140.174 5.51901
12337 2 19.0816 140.178 4.23766
9161 2 21.8102 138.607 4.22974
9152 2 21.8092 141.749 4.24453
5879 1 19.9909 141.752 2.94347
5907 1 11.8061 143.321 2.94927
12368 2 13.6245 143.319 4.25034
5909 1 14.5339 144.891 2.95402
5896 1 12.7136 144.888 5.53644
5863 1 17.2624 143.321 2.94927
5858 1 15.4421 143.316 5.53169
12366 2 16.3523 144.89 4.25509
5860 1 18.1699 144.888 5.53644
5811 1 20.8983 143.316 5.53169
12336 2 19.0807 143.319 4.25034
5861 1 19.9902 144.891 2.95402
9153 2 21.8085 144.89 4.25509
5900 1 11.8056 146.461 2.95771
12367 2 13.6239 146.46 4.25878
5898 1 14.5335 148.031 2.96035
5897 1 12.7132 148.031 5.54278
5862 1 17.2618 146.461 2.95771
5844 1 15.4415 146.459 5.54014
12369 2 16.3519 148.031 4.26142
5842 1 18.1694 148.031 5.54278
5810 1 20.8977 146.459 5.54014
12322 2 19.0802 146.46 4.25878
5864 1 19.9898 148.031 2.96035
9151 2 21.8081 148.031 4.26142
5899 1 11.8053 149.6 2.96193
12357 2 13.6237 149.602 4.263
3244 1 14.5334 151.17 2.96246
3230 1 12.7131 151.173 5.5449
5845 1 17.2615 149.6 2.96193
5843 1 15.4412 149.602 5.54436
9540 2 16.3518 151.172 4.26353
3196 1 18.1693 151.173 5.5449
5796 1 20.8975 149.602 5.54436
12321 2 19.0799 149.602 4.263
3197 1 19.9896 151.17 2.96246
6316 2 21.808 151.172 4.26353
5870 1 13.6251 133.873 8.05761
12379 2 11.8073 133.88 6.77148
12395 2 14.5363 132.308 6.75933
12377 2 14.5347 135.453 6.78257
12342 2 17.2636 133.88 6.77148
5871 1 16.3525 135.446 8.0687
5817 1 19.0813 133.873 8.05761
12341 2 19.9925 132.308 6.75933
2830 1 21.8087 135.446 8.0687
12343 2 19.9909 135.453 6.78257
5855 1 13.6237 137.019 8.07873
12378 2 11.8059 137.025 6.7926
12380 2 14.5334 138.597 6.80158
12334 2 17.2622 137.025 6.7926
5853 1 16.3512 138.592 8.08769
5816 1 19.0799 137.019 8.07873
2831 1 21.8074 138.592 8.08769
12332 2 19.9897 138.597 6.80158
5854 1 13.6226 140.165 8.0956
12364 2 11.8048 140.17 6.80949
12362 2 14.5325 141.742 6.81635
12333 2 17.261 140.17 6.80949
5856 1 16.3502 141.739 8.10246
5809 1 19.0788 140.165 8.0956
12335 2 19.9887 141.742 6.81635
2822 1 21.8065 141.739 8.10246
5840 1 13.6217 143.312 8.10826
12363 2 11.804 143.314 6.82215
12365 2 14.5318 144.886 6.8269
12319 2 17.2602 143.314 6.82215
5838 1 16.3495 144.885 8.113
5808 1 19.078 143.312 8.10826
12317 2 19.988 144.886 6.8269
2823 1 21.8058 144.885 8.113
5839 1 13.6212 146.458 8.11669
12356 2 11.8034 146.459 6.83059
12354 2 14.5314 148.031 6.83323
12318 2 17.2597 146.459 6.83059
5841 1 16.3491 148.031 8.11933
5795 1 19.0774 146.458 8.11669
12320 2 19.9876 148.031 6.83323
2821 1 21.8054 148.031 8.11933
5829 1 13.6209 149.603 8.12091
12355 2 11.8031 149.603 6.83481
9539 2 14.5312 151.175 6.83534
12304 2 17.2594 149.603 6.83481
3181 1 16.349 151.176 8.12145
5794 1 19.0772 149.603 8.12091
9485 2 19.9875 151.175 6.83534
157 1 21.8053 151.176 8.12145
5851 1 11.8048 133.859 10.6321
12326 2 13.623 133.853 11.9176
12376 2 12.7144 135.44 9.35554
5849 1 14.5322 135.434 10.6431
12330 2 15.4432 133.866 9.34452
5814 1 17.261 133.859 10.6321
12328 2 18.1706 135.44 9.35554
12327 2 16.3505 135.428 11.9285
12288 2 20.8994 133.866 9.34452
12285 2 19.0793 133.853 11.9176
5815 1 19.9885 135.434 10.6431
9094 2 21.8067 135.428 11.9285
5850 1 11.8035 137.008 10.653
12311 2 13.6218 137.003 11.9384
12360 2 12.7131 138.588 9.37444
5852 1 14.531 138.583 10.6619
12329 2 15.4418 137.014 9.36552
5806 1 17.2597 137.008 10.653
12331 2 18.1694 138.588 9.37444
12309 2 16.3494 138.578 11.9472
12287 2 20.8981 137.014 9.36552
12284 2 19.078 137.003 11.9384
5804 1 19.9873 138.583 10.6619
9095 2 21.8056 138.578 11.9472
5836 1 11.8024 140.158 10.6698
12310 2 13.6208 140.154 11.955
12361 2 12.7122 141.735 9.38915
5834 1 14.5301 141.732 10.6766
12315 2 15.4408 140.162 9.38232
5805 1 17.2587 140.158 10.6698
12313 2 18.1685 141.735 9.38915
12312 2 16.3485 141.729 11.9618
12286 2 20.897 140.162 9.38232
12278 2 19.077 140.154 11.955
5807 1 19.9864 141.732 10.6766
9086 2 21.8047 141.729 11.9618
5835 1 11.8016 143.307 10.6824
12299 2 13.62 143.304 11.9675
12352 2 12.7116 144.883 9.39965
5837 1 14.5295 144.881 10.6871
12314 2 15.44 143.309 9.39492
5792 1 17.2579 143.307 10.6824
12316 2 18.1678 144.883 9.39965
12297 2 16.3479 144.88 11.9722
12280 2 20.8962 143.309 9.39492
12277 2 19.0763 143.304 11.9675
5790 1 19.9857 144.881 10.6871
9087 2 21.8041 144.88 11.9722
5828 1 11.8011 146.456 10.6908
12298 2 13.6196 146.455 11.9759
12353 2 12.7112 148.031 9.40596
5826 1 14.5291 148.03 10.6934
12303 2 15.4394 146.457 9.40333
5791 1 17.2574 146.456 10.6908
12301 2 18.1674 148.031 9.40596
12300 2 16.3475 148.03 11.9785
12279 2 20.8957 146.457 9.40333
12271 2 19.0758 146.455 11.9759
5793 1 19.9853 148.03 10.6934
9085 2 21.8038 148.03 11.9785
5827 1 11.8009 149.605 10.695
12292 2 13.6193 149.606 11.9801
9519 2 12.711 151.178 9.40808
3180 1 14.529 151.18 10.6955
12302 2 15.4392 149.604 9.40754
5781 1 17.2571 149.605 10.695
9484 2 18.1673 151.178 9.40808
9469 2 16.3474 151.181 11.9806
12272 2 20.8954 149.604 9.40754
12270 2 19.0756 149.606 11.9801
3125 1 19.9852 151.18 10.6955
6254 2 21.8037 151.181 11.9806
5798 1 13.6211 133.832 15.778
12307 2 11.8031 133.839 14.4903
5848 1 12.7122 135.422 13.2163
12305 2 14.5306 135.416 14.5011
5802 1 15.441 133.846 13.2054
12282 2 17.2593 133.839 14.4903
5799 1 16.3486 135.41 15.7887
5800 1 18.1684 135.422 13.2163
2758 1 21.8049 135.41 15.7887
5769 1 19.0773 133.832 15.778
5772 1 20.8972 133.846 13.2054
12283 2 19.9868 135.416 14.5011
5784 1 13.62 136.987 15.7984
12306 2 11.8019 136.993 14.5108
5832 1 12.7111 138.574 13.2349
12308 2 14.5296 138.569 14.5196
5801 1 15.4397 136.998 13.2261
12275 2 17.2582 136.993 14.5108
5782 1 16.3477 138.565 15.8071
5803 1 18.1674 138.574 13.2349
2759 1 21.8039 138.565 15.8071
5768 1 19.0763 136.987 15.7984
5771 1 20.896 136.998 13.2261
12273 2 19.9858 138.569 14.5196
12293 2 14.5288 141.723 14.534
5783 1 13.6192 140.142 15.8148
12295 2 11.801 140.146 14.5273
5833 1 12.7103 141.726 13.2495
5785 1 16.347 141.72 15.8214
5788 1 15.4388 140.15 13.2427
12274 2 17.2573 140.146 14.5273
5786 1 18.1665 141.726 13.2495
12276 2 19.985 141.723 14.534
2750 1 21.8032 141.72 15.8214
5765 1 19.0754 140.142 15.8148
5770 1 20.895 140.15 13.2427
12296 2 14.5283 144.877 14.5443
12294 2 11.8004 143.3 14.5396
5776 1 13.6186 143.298 15.8271
5824 1 12.7097 144.878 13.2599
5774 1 16.3465 144.875 15.8317
12268 2 17.2566 143.3 14.5396
5787 1 15.4381 143.302 13.2552
5789 1 18.1659 144.878 13.2599
12266 2 19.9845 144.877 14.5443
5767 1 20.8943 143.302 13.2552
5764 1 19.0748 143.298 15.8271
2751 1 21.8027 144.875 15.8317
12291 2 11.8 146.454 14.5479
5775 1 13.6182 146.453 15.8353
12289 2 14.528 148.031 14.5505
5825 1 12.7094 148.03 13.2661
5777 1 16.3462 148.031 15.8379
5778 1 18.1656 148.03 13.2661
12267 2 17.2562 146.454 14.5479
5780 1 15.4376 146.454 13.2635
2749 1 21.8024 148.031 15.8379
12269 2 19.9842 148.031 14.5505
5766 1 20.8939 146.454 13.2635
5762 1 19.0744 146.453 15.8353
12290 2 11.7998 149.607 14.5521
5773 1 13.618 149.608 15.8395
3159 1 12.7093 151.183 13.2682
9468 2 14.5279 151.184 14.5526
5779 1 15.4374 149.607 13.2677
12265 2 17.256 149.607 14.5521
3109 1 16.3461 151.186 15.84
3124 1 18.1655 151.183 13.2682
5761 1 19.0742 149.608 15.8395
5763 1 20.8936 149.607 13.2677
9425 2 19.9841 151.184 14.5526
86 1 21.8023 151.186 15.84
6142 1 11.8014 133.819 18.35
12648 2 12.7109 135.404 17.0731
6140 1 14.5291 135.398 18.3605
12634 2 15.4396 133.826 17.0625
6119 1 17.2577 133.819 18.35
12632 2 18.1672 135.404 17.0731
12588 2 20.8958 133.826 17.0625
6120 1 19.9853 135.398 18.3605
6141 1 11.8006 136.977 18.37
12644 2 12.7101 138.56 17.0913
6143 1 14.5283 138.556 18.3785
12633 2 15.4386 136.982 17.0827
6115 1 17.2568 136.977 18.37
12635 2 18.1663 138.56 17.0913
12587 2 20.8948 136.982 17.0827
6113 1 19.9846 138.556 18.3785
6135 1 11.7999 140.135 18.3861
12645 2 12.7094 141.717 17.1055
6133 1 14.5278 141.714 18.3926
12626 2 15.4378 140.139 17.0989
6114 1 17.2561 140.135 18.3861
12624 2 18.1657 141.717 17.1055
12586 2 20.8941 140.139 17.0989
6116 1 19.984 141.714 18.3926
6134 1 11.7994 143.293 18.3982
12640 2 12.709 144.874 17.1157
6136 1 14.5273 144.872 18.4028
12625 2 15.4373 143.295 17.1111
6103 1 17.2556 143.293 18.3982
12627 2 18.1652 144.874 17.1157
12579 2 20.8935 143.295 17.1111
6101 1 19.9836 144.872 18.4028
6128 1 11.7991 146.452 18.4063
12641 2 12.7087 148.031 17.1218
6126 1 14.5271 148.031 18.4089
6102 1 17.2553 146.452 18.4063
12612 2 15.4369 146.452 17.1193
12610 2 18.165 148.031 17.1218
12578 2 20.8932 146.452 17.1193
6104 1 19.9834 148.031 18.4089
6127 1 11.7989 149.61 18.4104
9791 2 12.7086 151.188 17.1239
3456 1 14.527 151.189 18.411
6085 1 17.2552 149.61 18.4104
12611 2 15.4368 149.609 17.1234
9780 2 18.1649 151.188 17.1239
12563 2 20.893 149.609 17.1234
3430 1 19.9833 151.189 18.411
12630 2 13.6201 133.813 19.6341
12618 2 11.8009 133.8 22.205
6139 1 12.7099 135.386 20.9315
12616 2 14.5287 135.381 22.2152
12631 2 16.3478 135.392 19.6445
6111 1 15.4383 133.806 20.9212
12582 2 17.2571 133.8 22.205
6109 1 18.1661 135.386 20.9315
12585 2 19.0763 133.813 19.6341
6060 1 20.8946 133.806 20.9212
12583 2 19.985 135.381 22.2152
9378 2 21.804 135.392 19.6445
12622 2 13.6193 136.972 19.6539
12617 2 11.8004 136.962 22.2244
6131 1 12.7093 138.547 20.9493
12619 2 14.5283 138.543 22.2327
12620 2 16.3471 138.552 19.6624
6110 1 15.4377 136.967 20.9409
12574 2 17.2566 136.962 22.2244
6112 1 18.1655 138.547 20.9493
12584 2 19.0756 136.972 19.6539
6059 1 20.8939 136.967 20.9409
12572 2 19.9845 138.543 22.2327
9379 2 21.8034 138.552 19.6624
12621 2 13.6187 140.131 19.6698
12604 2 11.8 140.124 22.2401
6132 1 12.7089 141.708 20.9631
12602 2 14.5279 141.706 22.2464
12623 2 16.3466 141.711 19.6763
6099 1 15.4372 140.128 20.9567
12573 2 17.2562 140.124 22.2401
6097 1 18.1651 141.708 20.9631
12577 2 19.075 140.131 19.6698
6058 1 20.8934 140.128 20.9567
12575 2 19.9842 141.706 22.2464
9374 2 21.8029 141.711 19.6763
12608 2 13.6183 143.291 19.6818
12603 2 11.7997 143.287 22.2519
6124 1 12.7086 144.87 20.9731
12605 2 14.5277 144.868 22.2563
12606 2 16.3463 144.871 19.6864
6098 1 15.4368 143.289 20.9686
12559 2 17.2559 143.287 22.2519
6100 1 18.1648 144.87 20.9731
12576 2 19.0745 143.291 19.6818
6051 1 20.8931 143.289 20.9686
12557 2 19.9839 144.868 22.2563
9375 2 21.8025 144.871 19.6864
12607 2 13.618 146.451 19.6899
12596 2 11.7995 146.45 22.2598
6125 1 12.7084 148.031 20.9791
12594 2 14.5275 148.031 22.2623
12609 2 16.3461 148.031 19.6924
6084 1 15.4366 146.45 20.9766
12558 2 17.2557 146.45 22.2598
6082 1 18.1646 148.031 20.9791
12562 2 19.0743 146.451 19.6899
6050 1 20.8928 146.45 20.9766
12560 2 19.9838 148.031 22.2623
9373 2 21.8023 148.031 19.6924
12597 2 13.6179 149.611 19.694
12595 2 11.7994 149.613 22.2638
3450 1 12.7083 151.193 20.9812
9772 2 14.5275 151.194 22.2644
6083 1 15.4365 149.612 20.9806
12541 2 17.2556 149.613 22.2638
9773 2 16.346 151.191 19.6945
3429 1 18.1646 151.193 20.9812
12561 2 19.0741 149.611 19.694
6035 1 20.8927 149.612 20.9806
9725 2 19.9837 151.194 22.2644
6526 2 21.8022 151.191 19.6945
6107 1 13.6193 133.793 23.4918
12615 2 12.71 135.369 24.7851
12570 2 15.4383 133.786 24.7752
6108 1 16.3472 135.375 23.5019
12568 2 18.1663 135.369 24.7851
6057 1 19.0755 133.793 23.4918
12516 2 20.8946 133.786 24.7752
3057 1 21.8034 135.375 23.5019
6095 1 13.6189 136.957 23.511
12600 2 12.7098 138.534 24.8023
12569 2 15.438 136.952 24.7942
6093 1 16.3468 138.539 23.5192
12571 2 18.166 138.534 24.8023
6056 1 19.0751 136.957 23.511
12515 2 20.8943 136.952 24.7942
3058 1 21.8031 138.539 23.5192
6094 1 13.6186 140.121 23.5265
12601 2 12.7096 141.7 24.8158
12555 2 15.4378 140.117 24.8095
6096 1 16.3466 141.703 23.5328
12553 2 18.1658 141.7 24.8158
6049 1 19.0748 140.121 23.5265
12514 2 20.8941 140.117 24.8095
3050 1 21.8028 141.703 23.5328
6080 1 13.6184 143.285 23.5382
12592 2 12.7095 144.866 24.8255
12554 2 15.4377 143.283 24.8211
6078 1 16.3464 144.867 23.5426
12556 2 18.1657 144.866 24.8255
6048 1 19.0746 143.285 23.5382
12507 2 20.8939 143.283 24.8211
3051 1 21.8026 144.867 23.5426
6079 1 13.6182 146.449 23.5461
12593 2 12.7094 148.032 24.8314
12540 2 15.4376 146.449 24.8289
6081 1 16.3463 148.032 23.5486
12538 2 18.1656 148.032 24.8314
6034 1 19.0744 146.449 23.5461
12506 2 20.8938 146.449 24.8289
3049 1 21.8025 148.032 23.5486
6069 1 13.6181 149.614 23.5501
9758 2 12.7094 151.198 24.8334
12539 2 15.4375 149.615 24.8329
3418 1 16.3463 151.196 23.5506
9724 2 18.1656 151.198 24.8334
6033 1 19.0744 149.614 23.5501
12492 2 20.8937 149.615 24.8329
377 1 21.8025 151.196 23.5506
6091 1 11.8007 133.78 26.0615
6089 1 14.5287 135.363 26.0714
12566 2 13.6199 133.773 27.3445
6088 1 12.7107 135.351 28.6401
6054 1 17.2569 133.78 26.0615
6042 1 15.4387 133.767 28.6304
12567 2 16.348 135.357 27.3543
6040 1 18.1669 135.351 28.6401
9334 2 21.8043 135.357 27.3543
6055 1 19.9849 135.363 26.0714
5994 1 20.895 133.767 28.6304
12513 2 19.0762 133.773 27.3445
6090 1 11.8005 136.946 26.0804
6092 1 14.5286 138.53 26.0884
12551 2 13.6199 136.941 27.3631
6072 1 12.7107 138.521 28.6568
6046 1 17.2568 136.946 26.0804
6041 1 15.4388 136.936 28.6489
12549 2 16.348 138.526 27.3711
6043 1 18.167 138.521 28.6568
9335 2 21.8042 138.526 27.3711
6044 1 19.9848 138.53 26.0884
5993 1 20.8951 136.936 28.6489
12512 2 19.0761 136.941 27.3631
6076 1 11.8004 140.113 26.0956
6074 1 14.5285 141.697 26.1018
12550 2 13.6199 140.11 27.3782
6073 1 12.7108 141.692 28.6699
6045 1 17.2566 140.113 26.0956
6027 1 15.4389 140.106 28.6638
12552 2 16.348 141.694 27.3843
6025 1 18.167 141.692 28.6699
9326 2 21.8042 141.694 27.3843
6047 1 19.9847 141.697 26.1018
5992 1 20.8951 140.106 28.6638
12505 2 19.0761 140.11 27.3782
6075 1 11.8003 143.281 26.107
6077 1 14.5284 144.864 26.1114
12536 2 13.6198 143.279 27.3896
6064 1 12.7108 144.862 28.6794
6031 1 17.2565 143.281 26.107
6026 1 15.4389 143.277 28.6751
12534 2 16.348 144.863 27.3939
6028 1 18.1671 144.862 28.6794
9327 2 21.8042 144.863 27.3939
6029 1 19.9846 144.864 26.1114
5985 1 20.8952 143.277 28.6751
12504 2 19.0761 143.279 27.3896
6068 1 11.8003 146.448 26.1148
6066 1 14.5284 148.032 26.1172
12535 2 13.6198 146.448 27.3972
6065 1 12.7109 148.033 28.6851
6030 1 17.2565 146.448 26.1148
6013 1 15.439 146.447 28.6827
12537 2 16.3479 148.032 27.3997
6011 1 18.1671 148.033 28.6851
9325 2 21.8042 148.032 27.3997
6032 1 19.9846 148.032 26.1172
5984 1 20.8952 146.447 28.6827
12491 2 19.0761 146.448 27.3972
6067 1 11.8002 149.616 26.1187
12525 2 13.6198 149.617 27.4012
3417 1 14.5283 151.2 26.1193
3399 1 12.7109 151.203 28.6872
6014 1 17.2565 149.616 26.1187
6012 1 15.439 149.618 28.6866
9709 2 16.3479 151.201 27.4017
3364 1 18.1671 151.203 28.6872
5973 1 20.8952 149.618 28.6866
12490 2 19.0761 149.617 27.4012
3365 1 19.9846 151.2 26.1193
6493 2 21.8042 151.201 27.4017
6038 1 13.6211 133.753 31.1983
12547 2 11.802 133.76 29.9129
12544 2 12.713 135.334 32.4898
12545 2 14.5303 135.346 29.9225
12498 2 15.4409 133.747 32.4804
12510 2 17.2583 133.76 29.9129
6039 1 16.3494 135.34 31.2078
12496 2 18.1693 135.334 32.4898
2998 1 21.8056 135.34 31.2078
5991 1 19.0773 133.753 31.1983
12468 2 20.8972 133.747 32.4804
12511 2 19.9865 135.346 29.9225
6023 1 13.6214 136.926 31.2165
12546 2 11.8022 136.931 29.9312
12528 2 12.7134 138.508 32.5061
12548 2 14.5304 138.517 29.9391
12497 2 15.4413 136.921 32.4984
12502 2 17.2585 136.931 29.9312
6021 1 16.3497 138.513 31.2243
12499 2 18.1696 138.508 32.5061
2999 1 21.8059 138.513 31.2243
5990 1 19.0776 136.926 31.2165
12467 2 20.8976 136.921 32.4984
12500 2 19.9867 138.517 29.9391
6022 1 13.6216 140.099 31.2312
12532 2 11.8024 140.103 29.946
12529 2 12.7136 141.683 32.5189
12530 2 14.5306 141.689 29.9521
12484 2 15.4416 140.096 32.513
12501 2 17.2586 140.103 29.946
6024 1 16.3499 141.686 31.2372
12482 2 18.1699 141.683 32.5189
2990 1 21.8061 141.686 31.2372
5983 1 19.0779 140.099 31.2312
12466 2 20.8979 140.096 32.513
12503 2 19.9868 141.689 29.9521
6009 1 13.6218 143.273 31.2423
12531 2 11.8025 143.275 29.9572
12520 2 12.7138 144.858 32.5282
12533 2 14.5306 144.861 29.9615
12483 2 15.4419 143.271 32.524
12488 2 17.2587 143.275 29.9572
6007 1 16.35 144.859 31.2465
12485 2 18.1701 144.858 32.5282
2991 1 21.8062 144.859 31.2465
5982 1 19.0781 143.273 31.2423
12463 2 20.8981 143.271 32.524
12486 2 19.9869 144.861 29.9615
6008 1 13.6219 146.446 31.2498
12524 2 11.8026 146.447 29.9648
12521 2 12.7139 148.033 32.5339
12522 2 14.5307 148.033 29.9672
12476 2 15.442 146.446 32.5315
12487 2 17.2588 146.447 29.9648
6010 1 16.3501 148.033 31.2522
12474 2 18.1702 148.033 32.5339
2989 1 21.8063 148.033 31.2522
5972 1 19.0782 146.446 31.2498
12462 2 20.8982 146.446 32.5315
12489 2 19.9869 148.033 29.9672
6000 1 13.622 149.62 31.2537
12523 2 11.8026 149.619 29.9687
9708 2 14.5307 151.205 29.9692
12475 2 15.4421 149.621 32.5353
12477 2 17.2588 149.619 29.9687
3349 1 16.3501 151.207 31.2542
5971 1 19.0782 149.62 31.2537
12459 2 20.8983 149.621 32.5353
326 1 21.8063 151.207 31.2542
9653 2 19.9869 151.205 29.9692
6019 1 11.804 133.74 33.7653
12494 2 13.6242 133.733 35.0468
6017 1 14.5324 135.328 33.7746
5988 1 17.2603 133.74 33.7653
12495 2 16.3526 135.322 35.0561
9262 2 21.8089 135.322 35.0561
12465 2 19.0804 133.733 35.0468
5989 1 19.9887 135.328 33.7746
6020 1 14.5329 138.504 33.7908
6018 1 11.8045 136.916 33.7832
12480 2 13.6248 136.911 35.0646
12478 2 16.3531 138.5 35.0722
5980 1 17.2608 136.916 33.7832
9263 2 21.8094 138.5 35.0722
5978 1 19.9891 138.504 33.7908
12464 2 19.081 136.911 35.0646
6003 1 14.5332 141.68 33.8036
6005 1 11.8049 140.092 33.7977
12479 2 13.6252 140.089 35.079
12481 2 16.3535 141.678 35.0849
5979 1 17.2612 140.092 33.7977
9254 2 21.8097 141.678 35.0849
5981 1 19.9894 141.68 33.8036
12461 2 19.0815 140.089 35.079
6006 1 14.5334 144.857 33.8128
12472 2 13.6255 143.267 35.0899
6004 1 11.8052 143.269 33.8086
12470 2 16.3538 144.856 35.0941
5969 1 17.2614 143.269 33.8086
9255 2 21.81 144.856 35.0941
5967 1 19.9897 144.857 33.8128
12460 2 19.0818 143.267 35.0899
5999 1 11.8054 146.445 33.8161
5997 1 14.5336 148.034 33.8184
12471 2 13.6257 146.445 35.0973
12473 2 16.3539 148.034 35.0997
5968 1 17.2616 146.445 33.8161
5970 1 19.9898 148.034 33.8184
12458 2 19.082 146.445 35.0973
9253 2 21.8102 148.034 35.0997
12469 2 13.6258 149.623 35.1011
5998 1 11.8055 149.622 33.8199
5962 1 17.2617 149.622 33.8199
12457 2 19.0821 149.623 35.1011
12670 2 11.8081 133.72 37.6121
17811 1 13.628 133.713 38.896
6016 1 12.7161 135.316 36.3404
12668 2 14.5366 135.31 37.6214
12659 2 17.2643 133.72 37.6121
18165 1 16.3566 135.304 38.9052
5976 1 15.4438 133.727 36.3312
5974 1 18.1723 135.316 36.3404
5958 1 20.9001 133.727 36.3312
17781 1 19.0843 133.713 38.896
12660 2 19.9928 135.31 37.6214
15352 1 21.8128 135.304 38.9052
12669 2 11.8088 136.9 37.6298
18166 1 13.6288 136.895 38.9136
6001 1 12.7167 138.495 36.3565
12671 2 14.5372 138.491 37.6374
12656 2 17.2651 136.9 37.6298
18167 1 16.3573 138.487 38.9211
5975 1 15.4445 136.906 36.3489
5977 1 18.1729 138.495 36.3565
18137 1 19.0851 136.895 38.9136
5957 1 20.9007 136.906 36.3489
12654 2 19.9935 138.491 37.6374
15350 1 21.8135 138.487 38.9211
12666 2 11.8094 140.081 37.6441
18162 1 13.6294 140.078 38.9278
6002 1 12.7171 141.675 36.3691
12664 2 14.5377 141.672 37.6499
12655 2 17.2656 140.081 37.6441
18160 1 16.3578 141.669 38.9337
5965 1 15.445 140.085 36.3632
5963 1 18.1733 141.675 36.3691
18136 1 19.0857 140.078 38.9278
5956 1 20.9012 140.085 36.3632
12657 2 19.9939 141.672 37.6499
15351 1 21.814 141.669 38.9337
12665 2 11.8098 143.263 37.6549
18161 1 13.6299 143.261 38.9387
5995 1 12.7174 144.854 36.3782
12667 2 14.538 144.853 37.659
12652 2 17.266 143.263 37.6549
18163 1 16.3582 144.852 38.9428
5964 1 15.4454 143.265 36.3741
5966 1 18.1736 144.854 36.3782
18131 1 19.0861 143.261 38.9387
5955 1 20.9016 143.265 36.3741
12650 2 19.9943 144.853 37.659
15348 1 21.8144 144.852 38.9428
12663 2 11.81 146.444 37.6623
18152 1 13.6302 146.443 38.946
5996 1 12.7176 148.034 36.3838
12661 2 14.5382 148.034 37.6646
12651 2 17.2663 146.444 37.6623
18150 1 16.3584 148.035 38.9483
5961 1 15.4456 146.444 36.3815
5959 1 18.1738 148.034 36.3838
18130 1 19.0864 146.443 38.946
5954 1 20.9019 146.444 36.3815
12653 2 19.9945 148.034 37.6646
15349 1 21.8146 148.035 38.9483
12662 2 11.8101 149.625 37.6661
18151 1 13.6303 149.626 38.9498
12649 2 17.2664 149.625 37.6661
5960 1 15.4457 149.624 36.3853
18117 1 19.0865 149.626 38.9498
5953 1 20.902 149.624 36.3853
23791 2 12.7212 135.298 40.1856
17809 1 11.8129 133.699 41.4597
18164 1 14.5415 135.292 41.4689
17761 1 17.2692 133.699 41.4597
23423 2 15.4489 133.706 40.1764
23782 2 18.1775 135.298 40.1856
18133 1 19.9978 135.292 41.4689
23375 2 20.9051 133.706 40.1764
23792 2 12.7219 138.482 40.2015
18158 1 11.8138 136.885 41.4773
18156 1 14.5423 138.478 41.4848
23780 2 15.4497 136.89 40.194
18134 1 17.2701 136.885 41.4773
23778 2 18.1782 138.482 40.2015
18135 1 19.9985 138.478 41.4848
23742 2 20.906 136.89 40.194
23788 2 12.7225 141.666 40.2141
18157 1 11.8145 140.071 41.4915
18159 1 14.5429 141.663 41.4973
23779 2 15.4504 140.074 40.2082
18128 1 17.2707 140.071 41.4915
23781 2 18.1787 141.666 40.2141
18126 1 19.9991 141.663 41.4973
23741 2 20.9066 140.074 40.2082
23789 2 12.7229 144.851 40.2231
18148 1 11.815 143.256 41.5023
18146 1 14.5433 144.849 41.5064
18127 1 17.2712 143.256 41.5023
23772 2 15.4508 143.258 40.219
23770 2 18.1791 144.851 40.2231
18129 1 19.9995 144.849 41.5064
23740 2 20.9071 143.258 40.219
23785 2 12.7231 148.035 40.2287
18147 1 11.8153 146.442 41.5096
18149 1 14.5435 148.035 41.5119
18116 1 17.2715 146.442 41.5096
23771 2 15.4511 146.443 40.2263
23773 2 18.1793 148.035 40.2287
18114 1 19.9997 148.035 41.5119
23733 2 20.9074 146.443 40.2263
18141 1 11.8154 149.628 41.5133
18115 1 17.2717 149.628 41.5133
23758 2 15.4513 149.627 40.2301
23732 2 20.9075 149.627 40.2301
23409 2 13.6342 133.692 42.7395
18154 1 12.7271 135.28 44.0315
23407 2 11.8201 133.678 45.3015
23774 2 14.5487 135.274 45.3108
23775 2 16.3627 135.286 42.7487
17759 1 15.4548 133.685 44.0222
23354 2 17.2764 133.678 45.3015
18132 1 18.1834 135.28 44.0315
23373 2 19.0904 133.692 42.7395
23735 2 20.0049 135.274 45.3108
17711 1 20.911 133.685 44.0222
20970 2 21.819 135.286 42.7487
23776 2 13.635 136.88 42.7571
18155 1 12.728 138.469 44.0475
23764 2 11.821 136.869 45.3192
23762 2 14.5495 138.464 45.3268
23777 2 16.3635 138.473 42.7647
18124 1 15.4557 136.874 44.0399
23736 2 17.2773 136.869 45.3192
18122 1 18.1842 138.469 44.0475
20966 2 21.8198 138.473 42.7647
23739 2 19.0913 136.88 42.7571
18082 1 20.9119 136.874 44.0399
23737 2 20.0058 138.464 45.3268
23768 2 13.6357 140.067 42.7714
18144 1 12.7286 141.658 44.06
23763 2 11.8217 140.059 45.3335
23766 2 16.3641 141.661 42.7772
18123 1 15.4564 140.063 44.0542
23728 2 17.278 140.059 45.3335
23765 2 14.5501 141.655 45.3394
18125 1 18.1848 141.658 44.06
20967 2 21.8204 141.661 42.7772
23738 2 19.092 140.067 42.7714
18081 1 20.9126 140.063 44.0542
23726 2 20.0064 141.655 45.3394
23767 2 13.6362 143.254 42.7822
18145 1 12.729 144.847 44.0691
23753 2 11.8222 143.25 45.3444
23769 2 16.3645 144.848 42.7863
18112 1 15.4569 143.252 44.065
23727 2 17.2785 143.25 45.3444
23751 2 14.5506 144.845 45.3485
18110 1 18.1852 144.847 44.0691
20963 2 21.8208 144.848 42.7863
23731 2 19.0925 143.254 42.7822
18080 1 20.9132 143.252 44.065
23729 2 20.0068 144.845 45.3485
23757 2 13.6365 146.442 42.7895
18140 1 12.7292 148.036 44.0746
23752 2 11.8226 146.441 45.3517
23755 2 16.3648 148.035 42.7918
18111 1 15.4573 146.441 44.0723
23716 2 17.2788 146.441 45.3517
23754 2 14.5508 148.036 45.354
18113 1 18.1855 148.036 44.0746
20964 2 21.821 148.035 42.7918
23730 2 19.0928 146.442 42.7895
18073 1 20.9135 146.441 44.0723
23714 2 20.007 148.036 45.354
23756 2 13.6367 149.629 42.7932
23746 2 11.8227 149.631 45.3554
18098 1 15.4574 149.63 44.076
23715 2 17.279 149.631 45.3554
23717 2 19.0929 149.629 42.7932
18072 1 20.9136 149.63 44.076
18153 1 10.9134 135.268 46.593
23760 2 12.7353 135.261 47.8718
17743 1 11.828 133.657 49.1441
17745 1 13.6411 133.671 46.5837
18118 1 14.5566 135.255 49.1535
18119 1 16.3697 135.268 46.593
17692 1 17.2843 133.657 49.1441
23352 2 15.463 133.664 47.8624
18075 1 20.0129 135.255 49.1535
23734 2 18.1916 135.261 47.8718
17709 1 19.0973 133.671 46.5837
23313 2 20.9192 133.664 47.8624
18104 1 11.8289 136.853 49.1621
18120 1 13.642 136.864 46.6015
18142 1 10.9143 138.46 46.6091
23761 2 12.7361 138.455 47.8879
18076 1 17.2852 136.853 49.1621
18102 1 14.5574 138.45 49.1697
18121 1 16.3705 138.46 46.6091
23724 2 15.4639 136.858 47.8803
18077 1 20.0137 138.45 49.1697
18079 1 19.0982 136.864 46.6015
23687 2 20.9201 136.858 47.8803
23722 2 18.1924 138.455 47.8879
18103 1 11.8296 140.048 49.1765
18108 1 13.6427 140.056 46.6158
18143 1 10.9149 141.652 46.6217
23749 2 12.7368 141.649 47.9006
18068 1 17.2859 140.048 49.1765
18105 1 14.558 141.646 49.1824
18106 1 16.3711 141.652 46.6217
23723 2 15.4646 140.052 47.8947
18066 1 20.0143 141.646 49.1824
18078 1 19.0989 140.056 46.6158
23686 2 20.9208 140.052 47.8947
23725 2 18.193 141.649 47.9006
18093 1 11.8302 143.244 49.1874
18107 1 13.6432 143.248 46.6267
18138 1 10.9153 144.844 46.6308
23750 2 12.7372 144.843 47.9097
18067 1 17.2864 143.244 49.1874
18091 1 14.5585 144.841 49.1915
18109 1 16.3716 144.844 46.6308
23712 2 15.4651 143.246 47.9056
18069 1 20.0147 144.841 49.1915
18071 1 19.0995 143.248 46.6267
23685 2 20.9214 143.246 47.9056
23710 2 18.1934 144.843 47.9097
18092 1 11.8305 146.439 49.1948
18097 1 13.6436 146.44 46.634
18139 1 10.9156 148.036 46.6363
23745 2 12.7374 148.036 47.9152
18056 1 17.2868 146.439 49.1948
18094 1 14.5587 148.037 49.1971
18095 1 16.3718 148.036 46.6363
23711 2 15.4655 146.439 47.9129
18054 1 20.015 148.037 49.1971
18070 1 19.0998 146.44 46.634
23678 2 20.9217 146.439 47.9129
23713 2 18.1937 148.036 47.9152
18086 1 11.8307 149.634 49.1985
18096 1 13.6437 149.632 46.6377
18055 1 17.2869 149.634 49.1985
23699 2 15.4656 149.633 47.9167
18057 1 19.1 149.632 46.6377
23677 2 20.9219 149.633 47.9167
18100 1 12.7442 135.242 51.7129
23759 2 10.9226 135.249 50.4317
23340 2 13.6503 133.65 50.4223
23719 2 16.3789 135.249 50.4317
17690 1 15.4719 133.643 51.7034
18074 1 18.2005 135.242 51.7129
17660 1 20.9281 133.643 51.7034
23311 2 19.1065 133.65 50.4223
18101 1 12.745 138.441 51.7293
23720 2 13.6512 136.847 50.4403
23747 2 10.9234 138.446 50.4481
18064 1 15.4728 136.842 51.7216
23721 2 16.3797 138.446 50.4481
18032 1 20.929 136.842 51.7216
18062 1 18.2012 138.441 51.7293
23684 2 19.1074 136.847 50.4403
18089 1 12.7456 141.64 51.7421
23708 2 13.6519 140.044 50.4549
23748 2 10.924 141.643 50.4608
18063 1 15.4734 140.04 51.7362
23706 2 16.3803 141.643 50.4608
18031 1 20.9297 140.04 51.7362
18065 1 18.2018 141.64 51.7421
23683 2 19.1081 140.044 50.4549
18090 1 12.746 144.838 51.7513
23707 2 13.6524 143.241 50.4658
23743 2 10.9244 144.84 50.47
18052 1 15.474 143.239 51.7472
23709 2 16.3807 144.84 50.47
18030 1 20.9302 143.239 51.7472
18050 1 18.2023 144.838 51.7513
23676 2 19.1086 143.241 50.4658
18085 1 12.7463 148.037 51.7569
23698 2 13.6527 146.438 50.4732
23744 2 10.9247 148.037 50.4755
18051 1 15.4743 146.438 51.7546
23696 2 16.3809 148.037 50.4755
18024 1 20.9305 146.438 51.7546
18053 1 18.2025 148.037 51.7569
23675 2 19.1089 146.438 50.4732
23697 2 13.6529 149.635 50.477
18041 1 15.4745 149.636 51.7583
18023 1 20.9307 149.636 51.7583
23666 2 19.1091 149.635 50.477
18099 1 10.9325 135.23 54.2714
23700 2 12.7553 135.223 55.5486
17680 1 13.6602 133.629 54.2617
23338 2 11.8382 133.636 52.981
18059 1 16.3887 135.23 54.2714
23718 2 14.5668 135.236 52.9907
23300 2 15.483 133.621 55.5388
23302 2 17.2945 133.636 52.981
23679 2 18.2116 135.223 55.5486
23680 2 20.023 135.236 52.9907
17658 1 19.1164 133.629 54.2617
23293 2 20.9393 133.621 55.5388
18060 1 13.661 136.831 54.2801
18087 1 10.9332 138.432 54.288
23701 2 12.756 138.427 55.5653
23704 2 11.8391 136.836 52.9994
18061 1 16.3894 138.432 54.288
23669 2 15.4838 136.825 55.5574
23681 2 17.2953 136.836 52.9994
23702 2 14.5675 138.436 53.0072
18029 1 19.1172 136.831 54.2801
23657 2 20.9401 136.825 55.5574
23667 2 18.2123 138.427 55.5653
23682 2 20.0238 138.436 53.0072
18048 1 13.6616 140.033 54.2949
18088 1 10.9338 141.634 54.3009
23690 2 12.7566 141.63 55.5783
23703 2 11.8397 140.036 53.014
18046 1 16.39 141.634 54.3009
23668 2 15.4845 140.029 55.5722
23673 2 17.296 140.036 53.014
23705 2 14.5681 141.637 53.02
18028 1 19.1179 140.033 54.2949
23656 2 20.9407 140.029 55.5722
23670 2 18.2128 141.63 55.5783
23671 2 20.0244 141.637 53.02
18047 1 13.6621 143.235 54.306
18083 1 10.9342 144.836 54.3101
23691 2 12.757 144.834 55.5876
23694 2 11.8402 143.237 53.0251
18049 1 16.3904 144.836 54.3101
23661 2 15.485 143.232 55.5834
23672 2 17.2965 143.237 53.0251
23692 2 14.5685 144.837 53.0293
18022 1 19.1184 143.235 54.306
23655 2 20.9412 143.232 55.5834
23659 2 18.2133 144.834 55.5876
23674 2 20.0248 144.837 53.0293
18040 1 13.6624 146.436 54.3134
18084 1 10.9344 148.037 54.3157
23688 2 12.7573 148.038 55.5932
23693 2 11.8406 146.437 53.0325
18038 1 16.3907 148.037 54.3157
23660 2 15.4853 146.436 55.5908
23665 2 17.2968 146.437 53.0325
23695 2 14.5688 148.037 53.0348
23663 2 20.025 148.037 53.0348
23662 2 18.2135 148.038 55.5932
23654 2 20.9415 146.436 55.5908
18021 1 19.1187 146.436 54.3134
23689 2 11.8407 149.637 53.0363
18039 1 13.6626 149.638 54.3172
23664 2 17.297 149.637 53.0363
23658 2 15.4854 149.639 55.5946
23653 2 20.9417 149.639 55.5946
18016 1 19.1188 149.638 54.3172
23952 2 10.9445 135.21 58.1055
17678 1 11.849 133.614 56.819
23619 2 13.6722 133.607 58.0956
23945 2 16.4007 135.21 58.1055
18058 1 14.5775 135.217 56.8288
17653 1 17.3053 133.614 56.819
18025 1 20.0338 135.217 56.8288
23589 2 19.1284 133.607 58.0956
23946 2 13.6729 136.814 58.1144
23950 2 10.9452 138.417 58.1224
18044 1 11.8498 136.819 56.8377
23947 2 16.4014 138.417 58.1224
18026 1 17.306 136.819 56.8377
18042 1 14.5782 138.422 56.8456
23917 2 19.1292 136.814 58.1144
18027 1 20.0345 138.422 56.8456
23942 2 13.6736 140.021 58.1294
23951 2 10.9457 141.624 58.1355
18043 1 11.8504 140.025 56.8526
23940 2 16.4019 141.624 58.1355
18019 1 17.3066 140.025 56.8526
18045 1 14.5788 141.627 56.8587
23916 2 19.1298 140.021 58.1294
18017 1 20.035 141.627 56.8587
23941 2 13.674 143.228 58.1407
23948 2 10.9461 144.831 58.1449
18036 1 11.8509 143.23 56.8638
23943 2 16.4023 144.831 58.1449
18018 1 17.3071 143.23 56.8638
18034 1 14.5792 144.833 56.868
23911 2 19.1303 143.228 58.1407
18020 1 20.0354 144.833 56.868
23932 2 13.6743 146.434 58.1482
23949 2 10.9463 148.038 58.1506
18035 1 11.8512 146.435 56.8713
23930 2 16.4026 148.038 58.1506
18015 1 17.3074 146.435 56.8713
18037 1 14.5794 148.038 56.8736
23910 2 19.1306 146.434 58.1482
18013 1 20.0357 148.038 56.8736
23931 2 13.6745 149.641 58.152
18033 1 11.8514 149.64 56.8751
18014 1 17.3076 149.64 56.8751
23897 2 19.1307 149.641 58.152
18311 1 12.767 135.204 59.3853
18310 1 10.9569 135.191 61.9409
17961 1 13.6847 133.585 61.9308
23617 2 11.8619 133.592 60.6513
17975 1 15.4947 133.599 59.3753
18295 1 16.4132 135.191 61.9409
23944 2 14.5904 135.197 60.6614
23569 2 17.3182 133.592 60.6513
18302 1 18.2232 135.204 59.3853
17927 1 20.9509 133.599 59.3753
23913 2 20.0467 135.197 60.6614
17925 1 19.1409 133.585 61.9308
18312 1 12.7676 138.412 59.4023
18296 1 13.6854 136.797 61.95
18306 1 10.9576 138.403 61.9582
23938 2 11.8626 136.802 60.6704
18300 1 15.4954 136.808 59.3943
18297 1 16.4138 138.403 61.9582
23914 2 17.3189 136.802 60.6704
23936 2 14.5911 138.408 60.6785
18262 1 20.9517 136.808 59.3943
18298 1 18.2239 138.412 59.4023
18259 1 19.1416 136.797 61.95
23915 2 20.0473 138.408 60.6785
18308 1 12.7682 141.621 59.4155
18288 1 13.686 140.009 61.9653
18307 1 10.9581 141.615 61.9715
23937 2 11.8632 140.013 60.6856
18299 1 15.496 140.017 59.4094
18286 1 16.4143 141.615 61.9715
23908 2 17.3195 140.013 60.6856
23939 2 14.5916 141.618 60.6918
18261 1 20.9523 140.017 59.4094
18301 1 18.2244 141.621 59.4155
18258 1 19.1422 140.009 61.9653
23906 2 20.0478 141.618 60.6918
18309 1 12.7685 144.83 59.4249
18287 1 13.6864 143.221 61.9767
18303 1 10.9585 144.826 61.981
23928 2 11.8637 143.223 60.697
18292 1 15.4965 143.225 59.4207
18289 1 16.4147 144.826 61.981
23907 2 17.3199 143.223 60.697
23926 2 14.592 144.828 60.7012
18260 1 20.9527 143.225 59.4207
18290 1 18.2248 144.83 59.4249
18251 1 19.1427 143.221 61.9767
23909 2 20.0482 144.828 60.7012
18305 1 12.7688 148.038 59.4306
18277 1 13.6867 146.432 61.9843
18304 1 10.9587 148.038 61.9866
23927 2 11.864 146.433 60.7045
18291 1 15.4968 146.434 59.4282
18275 1 16.415 148.038 61.9866
23896 2 17.3202 146.433 60.7045
23929 2 14.5922 148.038 60.7069
18253 1 20.953 146.434 59.4282
18293 1 18.225 148.038 59.4306
18250 1 19.143 146.432 61.9843
23894 2 20.0485 148.038 60.7069
18276 1 13.6869 149.644 61.9881
23921 2 11.8642 149.643 60.7084
18278 1 15.497 149.642 59.432
23895 2 17.3204 149.643 60.7084
18252 1 20.9532 149.642 59.432
18237 1 19.1431 149.644 61.9881
23933 2 10.9714 135.171 65.77
23934 2 12.7807 135.184 63.2163
17959 1 11.8751 133.57 64.4858
23553 2 13.6991 133.563 65.7597
18294 1 14.6036 135.178 64.4961
23899 2 16.4276 135.171 65.77
17906 1 17.3314 133.57 64.4858
23567 2 15.5084 133.577 63.2061
18255 1 20.0598 135.178 64.4961
23912 2 18.2369 135.184 63.2163
23517 2 19.1554 133.563 65.7597
23519 2 20.9647 133.577 63.2061
18284 1 11.8758 136.786 64.5053
23900 2 13.6999 136.78 65.7792
23922 2 10.9721 138.388 65.7874
23935 2 12.7813 138.398 63.2336
18256 1 17.3321 136.786 64.5053
18282 1 14.6043 138.393 64.5135
23901 2 16.4283 138.388 65.7874
23904 2 15.5091 136.791 63.2255
18257 1 20.0605 138.393 64.5135
23859 2 19.1561 136.78 65.7792
23862 2 20.9654 136.791 63.2255
23902 2 18.2375 138.398 63.2336
18283 1 11.8764 140.001 64.5207
23888 2 13.7005 139.997 65.7947
23923 2 10.9726 141.605 65.8009
23924 2 12.7818 141.611 63.247
18248 1 17.3327 140.001 64.5207
18285 1 14.6048 141.608 64.5269
23886 2 16.4288 141.605 65.8009
23903 2 15.5097 140.005 63.2408
18246 1 20.061 141.608 64.5269
23858 2 19.1567 139.997 65.7947
23861 2 20.9659 140.005 63.2408
23905 2 18.2381 141.611 63.247
18273 1 11.8769 143.216 64.5321
23887 2 13.7009 143.213 65.8062
23918 2 10.973 144.822 65.8105
23925 2 12.7822 144.825 63.2565
18247 1 17.3331 143.216 64.5321
18271 1 14.6052 144.823 64.5364
23889 2 16.4292 144.822 65.8105
23892 2 15.5102 143.218 63.2522
18249 1 20.0614 144.823 64.5364
23851 2 19.1572 143.213 65.8062
23860 2 20.9664 143.218 63.2522
23890 2 18.2385 144.825 63.2565
18272 1 11.8772 146.431 64.5398
23877 2 13.7013 146.43 65.8139
23919 2 10.9733 148.038 65.8163
23920 2 12.7825 148.038 63.2622
18236 1 17.3334 146.431 64.5398
18274 1 14.6054 148.039 64.5421
23875 2 16.4295 148.038 65.8163
23891 2 15.5105 146.432 63.2598
18234 1 20.0617 148.039 64.5421
23850 2 19.1575 146.43 65.8139
23853 2 20.9667 146.432 63.2598
23893 2 18.2387 148.038 63.2622
18266 1 11.8774 149.646 64.5436
23876 2 13.7014 149.647 65.8177
18235 1 17.3336 149.646 64.5436
23878 2 15.5106 149.645 63.2637
23837 2 19.1577 149.647 65.8177
23852 2 20.9669 149.645 63.2637
18280 1 12.7944 135.165 67.0516
23551 2 11.8902 133.548 68.3112
23898 2 14.6188 135.158 68.3216
17904 1 15.5221 133.556 67.0413
23500 2 17.3465 133.548 68.3112
18254 1 18.2506 135.165 67.0516
23855 2 20.075 135.158 68.3216
17865 1 20.9783 133.556 67.0413
18281 1 12.795 138.384 67.0692
23884 2 11.891 136.768 68.3309
18244 1 15.5228 136.775 67.0609
23856 2 17.3472 136.768 68.3309
23882 2 14.6195 138.378 68.3392
18207 1 20.9791 136.775 67.0609
18242 1 18.2513 138.384 67.0692
23857 2 20.0757 138.378 68.3392
18269 1 12.7956 141.603 67.0827
23883 2 11.8917 139.988 68.3465
18243 1 15.5235 139.993 67.0764
23848 2 17.3479 139.988 68.3465
23885 2 14.62 141.598 68.3528
18206 1 20.9797 139.993 67.0764
18245 1 18.2518 141.603 67.0827
23846 2 20.0763 141.598 68.3528
18270 1 12.796 144.821 67.0923
23873 2 11.8922 143.208 68.3581
18232 1 15.5239 143.212 67.088
23847 2 17.3484 143.208 68.3581
23871 2 14.6205 144.818 68.3624
18205 1 20.9802 143.212 67.088
18230 1 18.2523 144.821 67.0923
23849 2 20.0767 144.818 68.3624
18265 1 12.7963 148.039 67.098
23872 2 11.8925 146.428 68.3658
18231 1 15.5243 146.43 67.0956
23836 2 17.3487 146.428 68.3658
23874 2 14.6207 148.038 68.3682
18198 1 20.9805 146.43 67.0956
18233 1 18.2525 148.039 67.098
23834 2 20.077 148.038 68.3682
23866 2 11.8927 149.648 68.3696
18219 1 15.5245 149.649 67.0995
23835 2 17.3489 149.648 68.3696
18197 1 20.9807 149.649 67.0995
18279 1 10.9847 135.152 69.6109
23880 2 12.8099 135.144 70.8682
17890 1 11.8979 133.526 72.1763
17892 1 13.7124 133.541 69.6005
18238 1 14.6265 135.139 72.1867
18239 1 16.4409 135.152 69.6109
17854 1 17.3542 133.526 72.1763
23498 2 15.5376 133.532 70.8577
18200 1 20.0828 135.139 72.1867
23854 2 18.2662 135.144 70.8682
17863 1 19.1686 133.541 69.6005
23468 2 20.9938 133.532 70.8577
18224 1 11.8989 136.751 72.1961
18240 1 13.7132 136.763 69.6202
18267 1 10.9854 138.374 69.6286
23881 2 12.8107 138.368 70.8859
18201 1 17.3551 136.751 72.1961
18222 1 14.6274 138.364 72.2045
18241 1 16.4417 138.374 69.6286
23844 2 15.5384 136.756 70.8775
18202 1 20.0836 138.364 72.2045
18204 1 19.1694 136.763 69.6202
23812 2 20.9947 136.756 70.8775
23842 2 18.2669 138.368 70.8859
18223 1 11.8996 139.977 72.2119
18228 1 13.7139 139.985 69.6359
18268 1 10.986 141.596 69.6422
23869 2 12.8113 141.591 70.8996
18193 1 17.3559 139.977 72.2119
18225 1 14.6281 141.589 72.2182
18226 1 16.4423 141.596 69.6422
23843 2 15.5391 139.979 70.8932
18191 1 20.0843 141.589 72.2182
18203 1 19.1701 139.985 69.6359
23811 2 20.9954 139.979 70.8932
23845 2 18.2675 141.591 70.8996
18214 1 11.9002 143.202 72.2236
18227 1 13.7144 143.207 69.6475
18263 1 10.9865 144.818 69.6519
23870 2 12.8118 144.814 70.9093
18192 1 17.3565 143.202 72.2236
18212 1 14.6286 144.814 72.2279
18229 1 16.4427 144.818 69.6519
23832 2 15.5397 143.203 70.9049
18194 1 20.0848 144.814 72.2279
18196 1 19.1706 143.207 69.6475
23810 2 20.9959 143.203 70.9049
23830 2 18.268 144.814 70.9093
18213 1 11.9006 146.427 72.2313
18218 1 13.7148 146.429 69.6552
18264 1 10.9867 148.039 69.6576
23865 2 12.812 148.037 70.9151
18185 1 17.3569 146.427 72.2313
18215 1 14.6289 148.039 72.2338
18216 1 16.443 148.039 69.6576
23831 2 15.54 146.426 70.9126
18183 1 20.0851 148.039 72.2338
18195 1 19.171 146.429 69.6552
23804 2 20.9963 146.426 70.9126
23833 2 18.2683 148.037 70.9151
18209 1 11.9009 149.652 72.2352
18217 1 13.7149 149.65 69.6591
18184 1 17.3571 149.652 72.2352
23821 2 15.5402 149.649 70.9165
18186 1 19.1712 149.65 69.6591
23803 2 20.9965 149.649 70.9165
18220 1 12.7532 135.127 74.8379
23879 2 10.9994 135.13 73.4001
23486 2 11.8891 133.503 75.864
23488 2 13.727 133.517 73.3896
23838 2 14.6178 135.118 75.8745
23839 2 16.4556 135.13 73.4001
17852 1 15.4807 133.512 74.8274
23461 2 17.3453 133.503 75.864
18199 1 18.2095 135.127 74.8379
23805 2 20.0741 135.118 75.8745
17845 1 20.937 133.512 74.8274
23466 2 19.1832 133.517 73.3896
18221 1 12.7544 138.356 74.8558
23824 2 11.8902 136.733 75.8839
23840 2 13.728 136.744 73.4095
23867 2 11.0002 138.357 73.4179
18189 1 15.4819 136.741 74.8474
23806 2 17.3465 136.733 75.8839
23822 2 14.6189 138.348 75.8924
23841 2 16.4565 138.357 73.4179
18177 1 20.9382 136.741 74.8474
18187 1 18.2106 138.356 74.8558
23807 2 20.0751 138.348 75.8924
23809 2 19.1842 136.744 73.4095
18210 1 12.7553 141.585 74.8695
23823 2 11.8912 139.963 75.8998
23828 2 13.7287 139.97 73.4253
23868 2 11.0009 141.583 73.4317
18188 1 15.483 139.97 74.8631
23799 2 17.3474 139.963 75.8998
23825 2 14.6197 141.578 75.9062
23826 2 16.4572 141.583 73.4317
18176 1 20.9392 139.97 74.8631
18190 1 18.2115 141.585 74.8695
23797 2 20.0759 141.578 75.9062
23808 2 19.185 139.97 73.4253
18211 1 12.7559 144.814 74.8793
23816 2 11.8919 143.193 75.9116
23827 2 13.7293 143.197 73.437
23863 2 11.0014 144.81 73.4414
18181 1 15.4837 143.2 74.8749
23798 2 17.3481 143.193 75.9116
23814 2 14.6203 144.808 75.916
23829 2 16.4577 144.81 73.4414
18175 1 20.94 143.2 74.8749
18179 1 18.2121 144.814 74.8793
23800 2 20.0765 144.808 75.916
23802 2 19.1856 143.197 73.437
18208 1 12.7563 148.044 74.8851
23815 2 11.8924 146.423 75.9194
23820 2 13.7297 146.423 73.4448
23864 2 11.0017 148.036 73.4473
18180 1 15.4843 146.429 74.8827
23795 2 17.3486 146.423 75.9194
23817 2 14.6206 148.038 75.9219
23818 2 16.458 148.036 73.4473
18174 1 20.9405 146.429 74.8827
18182 1 18.2125 148.044 74.8851
23793 2 20.0769 148.038 75.9219
23801 2 19.186 146.423 73.4448
23813 2 11.8926 149.653 75.9233
23819 2 13.7299 149.649 73.4487
18178 1 15.4845 149.659 74.8866
23794 2 17.3489 149.653 75.9233
18173 1 20.9408 149.659 74.8866
23796 2 19.1862 149.649 73.4487
