ITEM: TIMESTEP
0
ITEM: NUMBER OF ATOMS
23952
ITEM: BOX BOUNDS pp pp ss
0.0000000000000000e+00 2.1824953608198122e+01
0.0000000000000000e+00 1.5120771408893131e+02
-4.0801162962028874e+00 7.5931819214235091e+01
ITEM: ATOMS id type x y z
6321 2 0.896713 1.53425 -0.859994
6329 2 2.70766 1.53118 -3.36767
192 1 1.78364 3.09749 -2.30538
6319 2 3.62493 3.10142 -0.86157
178 1 4.51165 1.53103 -2.30381
6291 2 6.35295 1.53425 -0.859994
6330 2 5.43589 3.09679 -3.36924
176 1 7.23988 3.09749 -2.30538
132 1 9.96789 1.53103 -2.30381
6294 2 8.1639 1.53118 -3.36767
6292 2 9.08117 3.10142 -0.86157
9598 2 10.8921 3.09679 -3.36924
6320 2 0.896977 4.6686 -0.864196
6325 2 2.70794 4.6624 -3.37185
188 1 1.78408 6.23045 -2.31165
6322 2 3.62533 6.23578 -0.867873
177 1 4.51194 4.66397 -2.30799
6285 2 6.35322 4.6686 -0.864196
6323 2 5.4363 6.22803 -3.37551
179 1 7.24032 6.23045 -2.31165
131 1 9.96818 4.66397 -2.30799
6293 2 8.16418 4.6624 -3.37185
6283 2 9.08157 6.23578 -0.867873
9599 2 10.8925 6.22803 -3.37551
6310 2 0.897505 7.80297 -0.8726
6324 2 2.70849 7.79368 -3.38022
189 1 1.78481 9.36349 -2.3221
6308 2 3.62599 9.37018 -0.878376
170 1 4.51253 7.79696 -2.31636
6284 2 6.35374 7.80297 -0.8726
6326 2 5.43698 9.35935 -3.38597
168 1 7.24105 9.36349 -2.3221
130 1 9.96877 7.79696 -2.31636
6288 2 8.16473 7.79368 -3.38022
6286 2 9.08222 9.37018 -0.878376
9596 2 10.8932 9.35935 -3.38597
6309 2 0.898294 10.9374 -0.885202
6314 2 2.70931 10.9251 -3.39276
184 1 1.78585 12.4967 -2.33672
6311 2 3.6269 12.5047 -0.893077
169 1 4.51341 10.9301 -2.32889
6271 2 6.35453 10.9374 -0.885202
6312 2 5.43794 12.4908 -3.40059
171 1 7.24208 12.4967 -2.33672
123 1 9.96965 10.9301 -2.32889
6287 2 8.16555 10.9251 -3.39276
6269 2 9.08314 12.5047 -0.893077
9597 2 10.8942 12.4908 -3.40059
6302 2 0.899339 14.072 -0.902
6313 2 2.71041 14.0566 -3.40947
185 1 1.78723 15.6302 -2.35548
6300 2 3.62807 15.6394 -0.911974
156 1 4.5146 14.0634 -2.34559
6270 2 6.35558 14.072 -0.902
6315 2 5.43919 15.6225 -3.41938
154 1 7.24347 15.6302 -2.35548
122 1 9.97084 14.0634 -2.34559
6274 2 8.16665 14.0566 -3.40947
6272 2 9.08431 15.6394 -0.911974
9595 2 10.8954 15.6225 -3.41938
6301 2 0.90062 17.2069 -0.92301
6303 2 2.71183 17.1884 -3.43033
575 1 1.78927 18.7641 -2.37854
6735 2 3.62945 18.7745 -0.935108
155 1 4.51627 17.1971 -2.36644
6253 2 6.35686 17.2069 -0.92301
6736 2 5.44079 18.7545 -3.44232
564 1 7.24551 18.7641 -2.37854
107 1 9.97251 17.1971 -2.36644
6273 2 8.16807 17.1884 -3.43033
6698 2 9.08569 18.7745 -0.935108
10008 2 10.897 18.7545 -3.44232
174 1 2.71156 1.53485 0.363042
6318 2 1.804 3.10608 1.69364
6281 2 4.53202 1.53725 1.69522
175 1 5.43978 3.10287 0.361465
6279 2 7.26024 3.10608 1.69364
129 1 8.1678 1.53485 0.363042
6228 2 9.98826 1.53725 1.69522
3258 1 10.896 3.10287 0.361465
166 1 2.71184 4.67089 0.358837
6306 2 1.80441 6.24374 1.68731
6280 2 4.53229 4.67491 1.691
164 1 5.4402 6.23892 0.355159
6282 2 7.26065 6.24374 1.68731
128 1 8.16808 4.67089 0.358837
6227 2 9.98853 4.67491 1.691
3259 1 10.8964 6.23892 0.355159
165 1 2.71239 7.80696 0.350429
6307 2 1.80509 9.38143 1.67677
6267 2 4.53284 7.81258 1.68257
167 1 5.44088 9.37502 0.344648
6265 2 7.26133 9.38143 1.67677
121 1 8.16862 7.80696 0.350429
6226 2 9.98907 7.81258 1.68257
3254 1 10.8971 9.37502 0.344648
152 1 2.71321 10.9431 0.337817
6298 2 1.80605 12.5192 1.66201
6266 2 4.53366 10.9503 1.66992
150 1 5.44184 12.5112 0.329937
6268 2 7.26229 12.5192 1.66201
120 1 8.16945 10.9431 0.337817
6219 2 9.98989 10.9503 1.66992
3255 1 10.8981 12.5112 0.329937
151 1 2.71431 14.0794 0.321006
6299 2 1.80727 15.6572 1.64301
6252 2 4.53475 14.0882 1.65304
153 1 5.44308 15.6477 0.311018
6250 2 7.26351 15.6572 1.64301
106 1 8.17054 14.0794 0.321006
6218 2 9.99098 14.0882 1.65304
3253 1 10.8993 15.6477 0.311018
141 1 2.71568 17.216 0.29996
6725 2 1.80875 18.7954 1.61976
6251 2 4.5361 17.2262 1.63192
557 1 5.4446 18.7845 0.28783
6697 2 7.26498 18.7954 1.61976
105 1 8.17192 17.216 0.29996
6203 2 9.99233 17.2262 1.63192
3646 1 10.9008 18.7845 0.28783
162 1 0.892815 1.53841 2.96193
160 1 3.62104 3.10808 2.96035
6277 2 2.71119 1.54081 4.263
159 1 1.80074 3.11403 5.54279
126 1 6.34905 1.53841 2.96193
114 1 4.52875 1.54273 5.54437
6278 2 5.43941 3.11129 4.26142
112 1 7.25698 3.11403 5.54279
127 1 9.07728 3.10808 2.96035
60 1 9.98499 1.54273 5.54437
6225 2 8.16743 1.54081 4.263
9568 2 10.8957 3.11129 4.26142
161 1 0.893094 4.67775 2.95771
163 1 3.62146 6.24741 2.95402
6263 2 2.71147 4.68176 4.25878
144 1 1.80117 6.25661 5.53647
118 1 6.34933 4.67775 2.95771
113 1 4.52904 4.68533 5.54016
6261 2 5.43983 6.25223 4.25509
115 1 7.25741 6.25661 5.53647
116 1 9.0777 6.24741 2.95402
59 1 9.98527 4.68533 5.54016
6224 2 8.16771 4.68176 4.25878
9569 2 10.8961 6.25223 4.25509
148 1 0.893654 7.81709 2.94927
146 1 3.62216 9.38677 2.94347
6262 2 2.71203 7.82269 4.25034
145 1 1.80188 9.39918 5.52591
117 1 6.34989 7.81709 2.94927
99 1 4.52961 7.8279 5.53172
6264 2 5.44053 9.39316 4.24453
97 1 7.25812 9.39918 5.52591
119 1 9.0784 9.38677 2.94347
58 1 9.98585 7.8279 5.53172
6217 2 8.16827 7.82269 4.25034
9560 2 10.8968 9.39316 4.24453
147 1 0.894497 10.9565 2.93661
149 1 3.62314 12.5262 2.92869
6248 2 2.71287 10.9636 4.23766
136 1 1.80289 12.5418 5.51111
103 1 6.35073 10.9565 2.93661
98 1 4.53047 10.9705 5.51904
6246 2 5.44152 12.5341 4.22974
100 1 7.25912 12.5418 5.51111
101 1 9.07938 12.5262 2.92869
51 1 9.9867 10.9705 5.51904
6216 2 8.16911 10.9636 4.23766
9561 2 10.8978 12.5341 4.22974
140 1 0.895623 14.096 2.9197
138 1 3.62441 15.6658 2.90965
6247 2 2.714 14.1047 4.22074
137 1 1.80419 15.6844 5.49204
102 1 6.35186 14.096 2.9197
84 1 4.53162 14.1131 5.50211
6249 2 5.44279 15.6752 4.21069
82 1 7.26042 15.6844 5.49204
104 1 9.08065 15.6658 2.90965
50 1 9.98786 14.1131 5.50211
6202 2 8.17024 14.1047 4.22074
9559 2 10.899 15.6752 4.21069
139 1 0.897029 17.2357 2.89853
6237 2 2.71541 17.2458 4.19957
556 1 3.62595 18.8056 2.88635
542 1 1.80578 18.8271 5.4687
85 1 6.35327 17.2357 2.89853
83 1 4.53307 17.2557 5.48091
6684 2 5.44434 18.8164 4.18738
508 1 7.26202 18.8271 5.4687
36 1 9.9893 17.2557 5.48091
6201 2 8.17165 17.2458 4.19957
509 1 9.08219 18.8056 2.88635
9988 2 10.9006 18.8164 4.18738
110 1 2.70846 1.54696 8.12093
6259 2 0.890681 1.54491 6.83482
6257 2 3.61891 3.11701 6.83325
6222 2 6.34692 1.54491 6.83482
111 1 5.43668 3.11987 8.11937
57 1 8.16469 1.54696 8.12093
6223 2 9.07515 3.11701 6.83325
3214 1 10.8929 3.11987 8.11937
95 1 2.70874 4.69277 8.11675
6258 2 0.890966 4.68909 6.83062
6260 2 3.61933 6.26117 6.82694
6214 2 6.3472 4.68909 6.83062
93 1 5.43711 6.26565 8.11307
56 1 8.16498 4.69277 8.11675
6212 2 9.07557 6.26117 6.82694
3215 1 10.8933 6.26565 8.11307
94 1 2.70931 7.83852 8.10834
6244 2 0.891532 7.83324 6.8222
6242 2 3.62004 9.4053 6.81641
6213 2 6.34777 7.83324 6.8222
96 1 5.43782 9.41137 8.10255
49 1 8.16555 7.83852 8.10834
6215 2 9.07628 9.4053 6.81641
3206 1 10.8941 9.41137 8.10255
80 1 2.71017 10.9842 8.0957
6243 2 0.892384 10.9773 6.80955
6245 2 3.62104 12.5494 6.80164
6199 2 6.34862 10.9773 6.80955
78 1 5.43882 12.557 8.08779
48 1 8.1664 10.9842 8.0957
6197 2 9.07728 12.5494 6.80164
3207 1 10.8951 12.557 8.08779
79 1 2.71132 14.1298 8.07882
6236 2 0.893529 14.1214 6.79266
6234 2 3.62233 15.6935 6.78262
6198 2 6.34977 14.1214 6.79266
81 1 5.44013 15.7026 8.06878
35 1 8.16756 14.1298 8.07882
6200 2 9.07857 15.6935 6.78262
3205 1 10.8964 15.7026 8.06878
69 1 2.71277 17.2754 8.05768
6235 2 0.894969 17.2655 6.77151
6683 2 3.62392 18.8376 6.75935
6184 2 6.35121 17.2655 6.77151
493 1 5.44174 18.8482 8.04552
34 1 8.16901 17.2754 8.05768
3613 1 10.898 18.8482 8.04552
6629 2 9.08016 18.8376 6.75935
91 1 0.888425 1.55119 10.695
6206 2 2.70686 1.5533 11.9801
6256 2 1.79872 3.12277 9.40601
89 1 3.61665 3.12569 10.6935
6210 2 4.52673 1.54907 9.40757
54 1 6.34466 1.55119 10.695
6208 2 7.25496 3.12277 9.40601
6207 2 5.43508 3.12858 11.9786
6168 2 9.98297 1.54907 9.40757
6165 2 8.1631 1.5533 11.9801
55 1 9.07289 3.12569 10.6935
9502 2 10.8913 3.12858 11.9786
90 1 0.888703 4.70017 10.6909
6191 2 2.70713 4.70383 11.976
6240 2 1.79913 6.27011 9.39974
92 1 3.61706 6.27463 10.6872
6209 2 4.52701 4.69645 9.4034
46 1 6.34494 4.70017 10.6909
6211 2 7.25537 6.27011 9.39974
6189 2 5.43547 6.27906 11.9724
6167 2 9.98325 4.69645 9.4034
6164 2 8.16336 4.70383 11.976
44 1 9.0733 6.27463 10.6872
9503 2 10.8917 6.27906 11.9724
6241 2 1.79983 9.41738 9.38927
76 1 0.889249 7.84906 10.6825
6190 2 2.70765 7.85425 11.9677
74 1 3.61775 9.42347 10.6768
6195 2 4.52757 7.84376 9.39503
6193 2 7.25607 9.41738 9.38927
45 1 6.34549 7.84906 10.6825
6192 2 5.43613 9.42942 11.962
6166 2 9.9838 7.84376 9.39503
6158 2 8.16389 7.85425 11.9677
47 1 9.07398 9.42347 10.6768
9494 2 10.8924 9.42942 11.962
6232 2 1.80081 12.5645 9.37458
75 1 0.890073 10.9978 10.67
6179 2 2.70844 11.0045 11.9553
77 1 3.61871 12.5722 10.6621
6194 2 4.5284 10.991 9.38246
6196 2 7.25704 12.5645 9.37458
32 1 6.34631 10.9978 10.67
6177 2 5.43705 12.5796 11.9475
6160 2 9.98464 10.991 9.38246
6157 2 8.16467 11.0045 11.9553
30 1 9.07495 12.5722 10.6621
9495 2 10.8933 12.5796 11.9475
6233 2 1.80208 15.7116 9.35567
68 1 0.891185 14.1465 10.6532
6178 2 2.7095 14.1546 11.9386
66 1 3.61997 15.7207 10.6433
6183 2 4.52952 14.1381 9.36565
6181 2 7.25832 15.7116 9.35567
31 1 6.34742 14.1465 10.6532
6180 2 5.43826 15.7296 11.9287
6159 2 9.98576 14.1381 9.36565
6151 2 8.16574 14.1546 11.9386
33 1 9.07621 15.7207 10.6433
9493 2 10.8945 15.7296 11.9287
67 1 0.892597 17.2949 10.6322
6172 2 2.71085 17.3045 11.9178
6663 2 1.80366 18.8586 9.33252
492 1 3.62154 18.8691 10.6202
6182 2 4.53095 17.2851 9.34462
21 1 6.34884 17.2949 10.6322
6628 2 7.25989 18.8586 9.33252
6613 2 5.43977 18.8794 11.9058
6152 2 9.98719 17.2851 9.34462
6150 2 8.16709 17.3045 11.9178
437 1 9.07778 18.8691 10.6202
9926 2 10.896 18.8794 11.9058
38 1 2.70554 1.55979 15.8395
6187 2 0.887307 1.55759 14.5521
88 1 1.79692 3.13154 13.2662
6185 2 3.61552 3.13442 14.5506
42 1 4.52494 1.55547 13.2677
6162 2 6.34355 1.55759 14.5521
39 1 5.43375 3.13741 15.838
40 1 7.25316 3.13154 13.2662
9 1 8.16178 1.55979 15.8395
12 1 9.98118 1.55547 13.2677
6163 2 9.07176 3.13442 14.5506
3142 1 10.89 3.13741 15.838
24 1 2.70577 4.715 15.8355
6186 2 0.887548 4.71123 14.5481
72 1 1.7973 6.28359 13.2601
6188 2 3.61587 6.28801 14.5445
41 1 4.5252 4.70758 13.2637
6155 2 6.34379 4.71123 14.5481
22 1 5.43409 6.29256 15.832
43 1 7.25354 6.28359 13.2601
8 1 8.16201 4.715 15.8355
11 1 9.98144 4.70758 13.2637
6153 2 9.07211 6.28801 14.5445
3143 1 10.8903 6.29256 15.832
23 1 2.70622 7.87007 15.8274
6175 2 0.88802 7.86474 14.5399
6173 2 3.61646 9.44143 14.5343
73 1 1.79793 9.43551 13.2497
28 1 4.52571 7.85957 13.2554
6154 2 6.34426 7.86474 14.5399
26 1 7.25417 9.43551 13.2497
25 1 5.43464 9.44753 15.8218
5 1 8.16245 7.87007 15.8274
10 1 9.98194 7.85957 13.2554
6156 2 9.0727 9.44143 14.5343
3134 1 10.8909 9.44753 15.8218
6174 2 0.888731 11.0181 14.5276
16 1 2.70689 11.0249 15.8152
6176 2 3.6173 12.5946 14.5199
64 1 1.79883 12.5872 13.2353
6148 2 6.34497 11.0181 14.5276
27 1 4.52647 11.0114 13.243
29 1 7.25507 12.5872 13.2353
6146 2 9.07354 12.5946 14.5199
7 1 9.9827 11.0114 13.243
4 1 8.16312 11.0249 15.8152
6169 2 3.6184 15.7476 14.5014
65 1 1.8 15.7387 13.2166
6171 2 0.889696 14.1711 14.5112
15 1 2.7078 14.1795 15.7989
18 1 7.25624 15.7387 13.2166
6147 2 6.34593 14.1711 14.5112
20 1 4.5275 14.163 13.2265
14 1 5.43543 12.6023 15.8076
6149 2 9.07464 15.7476 14.5014
6 1 9.98374 14.163 13.2265
2 1 8.16404 14.1795 15.7989
3135 1 10.8917 12.6023 15.8076
6170 2 0.890934 17.3239 14.4907
13 1 2.70897 17.3337 15.7785
6612 2 3.61978 18.9001 14.4788
471 1 1.80147 18.8899 13.1938
6145 2 6.34717 17.3239 14.4907
19 1 4.52881 17.3143 13.2057
17 1 5.43647 15.7567 15.7892
436 1 7.25771 18.8899 13.1938
3133 1 10.8927 15.7567 15.7892
1 1 8.16521 17.3337 15.7785
3 1 9.98505 17.3143 13.2057
6569 2 9.07602 18.9001 14.4788
382 1 0.886481 1.56416 18.4105
6528 2 1.79628 3.14031 17.122
380 1 3.61467 3.14332 18.4091
6514 2 4.52432 1.56193 17.1235
359 1 6.34272 1.56416 18.4105
6512 2 7.25252 3.14031 17.122
6468 2 9.98056 1.56193 17.1235
360 1 9.07091 3.14332 18.4091
381 1 0.886669 4.72245 18.4066
6524 2 1.79659 6.29698 17.116
6513 2 4.52453 4.71866 17.1195
355 1 6.34291 4.72245 18.4066
6515 2 7.25282 6.29698 17.116
6467 2 9.98077 4.71866 17.1195
375 1 0.887036 7.88059 18.3986
383 1 3.61495 6.30155 18.4031
6506 2 4.52493 7.87524 17.1115
354 1 6.34327 7.88059 18.3986
353 1 9.07119 6.30155 18.4031
6466 2 9.98117 7.87524 17.1115
6525 2 1.79709 9.45345 17.1059
374 1 0.887591 11.0385 18.3866
373 1 3.61541 9.45957 18.3931
6505 2 4.52554 11.0316 17.0994
343 1 6.34383 11.0385 18.3866
6504 2 7.25333 9.45345 17.1059
356 1 9.07165 9.45957 18.3931
6459 2 9.98178 11.0316 17.0994
6520 2 1.79781 12.6097 17.0918
368 1 0.88835 14.196 18.3706
376 1 3.61606 12.6173 18.3791
342 1 6.34459 14.196 18.3706
6492 2 4.52637 14.1876 17.0832
6507 2 7.25405 12.6097 17.0918
341 1 9.0723 12.6173 18.3791
6458 2 9.98261 14.1876 17.0832
6521 2 1.79876 15.7655 17.0736
367 1 0.889333 17.3531 18.3506
366 1 3.61693 15.7746 18.3611
325 1 6.34557 17.3531 18.3506
6491 2 4.52744 17.3433 17.063
6490 2 7.255 15.7655 17.0736
344 1 9.07317 15.7746 18.3611
6443 2 9.98368 17.3433 17.063
6510 2 2.70544 1.56633 19.6941
6498 2 0.886926 1.57077 22.2639
379 1 1.79595 3.14928 20.9793
351 1 4.52401 1.56858 20.9808
6462 2 6.34316 1.57077 22.2639
6511 2 5.43362 3.14624 19.6926
349 1 7.25218 3.14928 20.9793
6465 2 8.16168 1.56633 19.6941
300 1 9.98025 1.56858 20.9808
9786 2 10.8899 3.14624 19.6926
6502 2 2.70561 4.72613 19.6902
6497 2 0.887045 4.73363 22.2601
6496 2 3.61509 3.15222 22.2625
350 1 4.52415 4.72994 20.9769
6454 2 6.34328 4.73363 22.2601
6464 2 8.16184 4.72613 19.6902
299 1 9.98039 4.72994 20.9769
6463 2 9.07133 3.15222 22.2625
6501 2 2.70593 7.88577 19.6823
371 1 1.79615 6.31056 20.9735
6484 2 0.887274 7.89632 22.2524
6499 2 3.61526 6.31501 22.2568
6500 2 5.43387 6.30597 19.6867
339 1 4.52443 7.89113 20.9691
6453 2 6.34351 7.89632 22.2524
352 1 7.25239 6.31056 20.9735
6457 2 8.16217 7.88577 19.6823
298 1 9.98067 7.89113 20.9691
6452 2 9.0715 6.31501 22.2568
9787 2 10.8901 6.30597 19.6867
6488 2 2.70641 11.0451 19.6704
372 1 1.7965 9.47162 20.9637
6483 2 0.887624 11.0587 22.2408
6482 2 3.61555 9.47757 22.2471
6503 2 5.43427 9.46549 19.6769
338 1 4.52485 11.052 20.9573
6439 2 6.34386 11.0587 22.2408
337 1 7.25274 9.47162 20.9637
6456 2 8.16265 11.0451 19.6704
291 1 9.98109 11.052 20.9573
6455 2 9.07179 9.47757 22.2471
9782 2 10.8905 9.46549 19.6769
6487 2 2.70708 14.2042 19.6546
364 1 1.797 12.6324 20.95
6476 2 0.888106 14.2208 22.2253
6485 2 3.61597 12.6398 22.2335
6486 2 5.43484 12.6247 19.663
324 1 4.52543 14.2126 20.9417
6438 2 6.34434 14.2208 22.2253
340 1 7.25324 12.6324 20.95
6442 2 8.16332 14.2042 19.6546
290 1 9.98167 14.2126 20.9417
6437 2 9.0722 12.6398 22.2335
9783 2 10.8911 12.6247 19.663
6477 2 2.70795 17.3627 19.6348
365 1 1.79767 15.7927 20.9324
6475 2 0.88874 17.3823 22.2059
6474 2 3.61652 15.8016 22.2161
6489 2 5.43561 15.7835 19.6452
323 1 4.52619 17.3727 20.9221
6421 2 6.34498 17.3823 22.2059
322 1 7.25391 15.7927 20.9324
6441 2 8.16419 17.3627 19.6348
275 1 9.98243 17.3727 20.9221
6440 2 9.07276 15.8016 22.2161
9781 2 10.8918 15.7835 19.6452
347 1 2.70568 1.57306 23.5502
6450 2 4.52504 1.57527 24.833
297 1 8.16192 1.57306 23.5502
6396 2 9.98128 1.57527 24.833
335 1 2.70577 4.73747 23.5465
6495 2 1.79695 3.15824 24.8316
348 1 5.43383 3.15528 23.5488
6449 2 4.52511 4.74118 24.8293
6448 2 7.25319 3.15824 24.8316
296 1 8.16201 4.73747 23.5465
6395 2 9.98135 4.74118 24.8293
3441 1 10.8901 3.15528 23.5488
334 1 2.70595 7.9017 23.5388
6480 2 1.79705 6.32408 24.826
333 1 5.43397 6.31961 23.5431
6435 2 4.52525 7.90692 24.8218
6451 2 7.25329 6.32408 24.826
289 1 8.16219 7.9017 23.5388
6394 2 9.98148 7.90692 24.8218
3442 1 10.8902 6.31961 23.5431
320 1 2.70623 11.0657 23.5273
6481 2 1.79722 9.4897 24.8165
336 1 5.4342 9.48372 23.5335
6434 2 4.52545 11.0724 24.8104
6433 2 7.25346 9.4897 24.8165
288 1 8.16247 11.0657 23.5273
6387 2 9.98169 11.0724 24.8104
3434 1 10.8904 9.48372 23.5335
319 1 2.70661 14.2292 23.512
6472 2 1.79746 12.655 24.8033
318 1 5.43452 12.6475 23.5201
6420 2 4.52573 14.2375 24.7952
6436 2 7.2537 12.655 24.8033
274 1 8.16285 14.2292 23.512
6386 2 9.98197 14.2375 24.7952
3435 1 10.8908 12.6475 23.5201
309 1 2.70712 17.3923 23.4928
6473 2 1.79779 15.8199 24.7862
321 1 5.43497 15.8109 23.5029
6419 2 4.52612 17.4021 24.7763
6418 2 7.25403 15.8199 24.7862
273 1 8.16336 17.3923 23.4928
6372 2 9.98236 17.4021 24.7763
3433 1 10.8912 15.8109 23.5029
331 1 0.887756 1.57758 26.1189
6446 2 2.70735 1.57981 27.4013
294 1 6.34399 1.57758 26.1189
282 1 4.52651 1.58214 28.6868
234 1 9.98275 1.58214 28.6868
6393 2 8.16359 1.57981 27.4013
330 1 0.887797 4.74504 26.1152
329 1 3.61589 3.16132 26.1175
328 1 1.79839 3.16741 28.6855
6431 2 2.70737 4.74878 27.3977
286 1 6.34404 4.74504 26.1152
281 1 4.5265 4.75265 28.6832
6447 2 5.43547 3.16431 27.4
280 1 7.25463 3.16741 28.6855
295 1 9.07213 3.16132 26.1175
233 1 9.98274 4.75265 28.6832
6392 2 8.1636 4.74878 27.3977
9742 2 10.8917 3.16431 27.4
316 1 0.887878 7.91233 26.1078
332 1 3.61595 6.32871 26.112
312 1 1.79837 6.33785 28.68
6430 2 2.7074 7.91758 27.3903
285 1 6.34412 7.91233 26.1078
267 1 4.52648 7.923 28.6759
6429 2 5.4355 6.3332 27.3945
283 1 7.25461 6.33785 28.68
284 1 9.07219 6.32871 26.112
232 1 9.98272 7.923 28.6759
6385 2 8.16364 7.91758 27.3903
9743 2 10.8917 6.3332 27.3945
315 1 0.888004 11.0793 26.0965
314 1 3.61605 9.49588 26.1026
313 1 1.79836 9.50809 28.6708
6416 2 2.70746 11.0861 27.3792
271 1 6.34424 11.0793 26.0965
266 1 4.52646 11.0931 28.6648
6432 2 5.43554 9.50189 27.3852
265 1 7.25459 9.50809 28.6708
287 1 9.07229 9.49588 26.1026
225 1 9.9827 11.0931 28.6648
6384 2 8.1637 11.0861 27.3792
9734 2 10.8918 9.50189 27.3852
308 1 0.888185 14.246 26.0815
317 1 3.61621 12.6627 26.0895
304 1 1.79833 12.678 28.658
6415 2 2.70754 14.2543 27.3643
270 1 6.34442 14.246 26.0815
253 1 4.52644 14.2628 28.6501
6414 2 5.43562 12.6703 27.3722
268 1 7.25457 12.678 28.658
269 1 9.07244 12.6627 26.0895
224 1 9.98268 14.2628 28.6501
6371 2 8.16378 14.2543 27.3643
9735 2 10.8919 12.6703 27.3722
307 1 0.888433 17.4121 26.0628
306 1 3.61642 15.8291 26.0726
305 1 1.79832 15.8475 28.6414
6405 2 2.70767 17.422 27.3458
254 1 6.34467 17.4121 26.0628
252 1 4.52643 17.4321 28.6318
6417 2 5.43572 15.8382 27.3555
251 1 7.25456 15.8475 28.6414
272 1 9.07266 15.8291 26.0726
213 1 9.98267 17.4321 28.6318
6370 2 8.16391 17.422 27.3458
9733 2 10.892 15.8382 27.3555
278 1 2.7095 1.58674 31.2539
6423 2 1.80148 0.00143566 32.5359
6427 2 0.890107 1.58439 29.9688
6378 2 4.52959 1.58901 32.5355
6390 2 6.34635 1.58439 29.9688
6388 2 7.25772 0.00143566 32.5359
231 1 8.16574 1.58674 31.2539
6348 2 9.98583 1.58901 32.5355
263 1 2.70944 4.76031 31.2503
6424 2 1.80144 3.17657 32.5342
6426 2 0.890076 4.75641 29.9653
6425 2 3.61821 3.17042 29.9675
279 1 5.43759 3.17354 31.2526
6377 2 4.52952 4.7641 32.532
6382 2 6.34631 4.75641 29.9653
6376 2 7.25768 3.17657 32.5342
230 1 8.16568 4.76031 31.2503
6347 2 9.98575 4.7641 32.532
6391 2 9.07445 3.17042 29.9675
3382 1 10.8938 3.17354 31.2526
262 1 2.70933 7.93373 31.2432
6408 2 1.80133 6.3516 32.5289
6412 2 0.890018 7.92829 29.958
6428 2 3.61817 6.34237 29.9621
261 1 5.43751 6.34705 31.2472
6364 2 4.52937 7.93906 32.5249
6381 2 6.34626 7.92829 29.958
6379 2 7.25757 6.3516 32.5289
223 1 8.16557 7.93373 31.2432
6346 2 9.98561 7.93906 32.5249
6380 2 9.07441 6.34237 29.9621
3383 1 10.8938 6.34705 31.2472
249 1 2.70917 11.1069 31.2323
6409 2 1.80115 9.52646 32.52
6411 2 0.889934 11.0999 29.9471
6410 2 3.6181 9.51414 29.953
264 1 5.43738 9.52037 31.2382
6363 2 4.52916 11.1138 32.5141
6368 2 6.34617 11.0999 29.9471
6362 2 7.25739 9.52646 32.52
222 1 8.16541 11.1069 31.2323
6343 2 9.9854 11.1138 32.5141
6383 2 9.07434 9.51414 29.953
3374 1 10.8936 9.52037 31.2382
248 1 2.70897 14.2798 31.2179
6400 2 1.80091 12.7011 32.5074
6404 2 0.889828 14.2712 29.9325
6413 2 3.618 12.6856 29.9403
247 1 5.4372 12.6934 31.2256
6356 2 4.52888 14.2883 32.4998
6367 2 6.34607 14.2712 29.9325
6365 2 7.25715 12.7011 32.5074
212 1 8.16521 14.2798 31.2179
6342 2 9.98512 14.2883 32.4998
6366 2 9.07424 12.6856 29.9403
3375 1 10.8934 12.6934 31.2256
240 1 2.70872 17.4523 31.2
6401 2 1.80059 15.8753 32.4913
6403 2 0.889708 17.4421 29.9144
6402 2 3.61789 15.8567 29.9239
250 1 5.43697 15.8661 31.2094
6355 2 4.52853 17.4623 32.482
6357 2 6.34595 17.4421 29.9144
6354 2 7.25683 15.8753 32.4913
211 1 8.16495 17.4523 31.2
6339 2 9.98477 17.4623 32.482
6369 2 9.07413 15.8567 29.9239
3373 1 10.8932 15.8661 31.2094
259 1 0.892985 1.59138 33.8201
6374 2 2.71335 1.59366 35.1013
276 1 3.62112 0.00303312 33.8205
228 1 6.34922 1.59138 33.8201
6373 2 5.44149 0.00454763 35.1017
227 1 9.07736 0.00303312 33.8205
6345 2 8.16959 1.59366 35.1013
9686 2 10.8977 0.00454763 35.1017
258 1 0.892886 4.76801 33.8166
6360 2 2.71324 4.77183 35.0979
257 1 3.62107 3.17971 33.8188
220 1 6.34912 4.76801 33.8166
6375 2 5.44143 3.18275 35.1
229 1 9.0773 3.17971 33.8188
6344 2 8.16948 4.77183 35.0979
9670 2 10.8977 3.18275 35.1
260 1 3.62092 6.35629 33.8136
245 1 0.892697 7.94453 33.8096
6359 2 2.71302 7.94989 35.0908
6358 2 5.44126 6.36088 35.0948
219 1 6.34894 7.94453 33.8096
6341 2 8.16926 7.94989 35.0908
218 1 9.07716 6.35629 33.8136
9671 2 10.8975 6.36088 35.0948
243 1 3.62069 9.53272 33.8047
6352 2 2.7127 11.1278 35.0802
244 1 0.892417 11.1208 33.7989
6361 2 5.44099 9.53886 35.086
209 1 6.34866 11.1208 33.7989
6340 2 8.16894 11.1278 35.0802
221 1 9.07693 9.53272 33.8047
9662 2 10.8972 9.53886 35.086
246 1 3.62036 12.7089 33.7922
6351 2 2.71227 14.3054 35.0661
239 1 0.892044 14.2969 33.7847
6350 2 5.44061 12.7166 35.0736
208 1 6.34828 14.2969 33.7847
9663 2 10.8969 12.7166 35.0736
207 1 9.0766 12.7089 33.7922
6338 2 8.1685 14.3054 35.0661
237 1 3.61994 15.8848 33.7763
6349 2 2.71172 17.4827 35.0485
238 1 0.891577 17.4726 33.767
6353 2 5.44013 15.8941 35.0578
202 1 6.34782 17.4726 33.767
6337 2 8.16796 17.4827 35.0485
210 1 9.07618 15.8848 33.7763
9661 2 10.8964 15.8941 35.0578
6550 2 0.897654 1.59833 37.6662
12857 1 2.71781 1.60072 38.95
255 1 1.80514 0.00615756 36.3858
6552 2 3.6258 0.00767629 37.6666
6539 2 6.35389 1.59833 37.6662
12856 1 5.44595 0.00929528 38.9503
216 1 4.53324 1.59604 36.3855
226 1 7.26138 0.00615756 36.3858
6538 2 9.08203 0.00767629 37.6666
12822 1 8.17405 1.60072 38.95
198 1 9.98948 1.59604 36.3855
15684 1 10.9022 0.00929528 38.9503
6549 2 0.897508 4.7796 37.6629
12853 1 2.71764 4.78355 38.9466
256 1 1.80507 3.18591 36.3842
6548 2 3.62572 3.18897 37.665
6536 2 6.35375 4.7796 37.6629
12858 1 5.44586 3.19214 38.9487
215 1 4.5331 4.77576 36.3821
214 1 7.26131 3.18591 36.3842
6540 2 9.08195 3.18897 37.665
12821 1 8.17388 4.78355 38.9466
197 1 9.98934 4.77576 36.3821
15682 1 10.9021 3.19214 38.9487
6546 2 0.897231 7.96079 37.6559
12852 1 2.71734 7.96631 38.9396
241 1 1.80487 6.36559 36.379
6551 2 3.62551 6.37021 37.6598
6535 2 6.35347 7.96079 37.6559
12851 1 5.44563 6.37494 38.9436
205 1 4.53285 7.95539 36.3751
217 1 7.26111 6.36559 36.379
6534 2 9.08174 6.37021 37.6598
12816 1 8.17357 7.96631 38.9396
196 1 9.98909 7.95539 36.3751
15683 1 10.9019 6.37494 38.9436
6545 2 0.896818 11.1418 37.6454
12842 1 2.71688 11.149 38.9292
242 1 1.80455 9.54514 36.3702
6544 2 3.62516 9.55133 37.6511
6532 2 6.35306 11.1418 37.6454
12854 1 5.44524 9.55765 38.9348
204 1 4.53247 11.1349 36.3645
203 1 7.26079 9.54514 36.3702
6537 2 9.0814 9.55133 37.6511
12815 1 8.17311 11.149 38.9292
195 1 9.9887 11.1349 36.3645
15680 1 10.9015 9.55765 38.9348
6543 2 0.896266 14.3227 37.6314
12841 1 2.71626 14.3314 38.9152
235 1 1.80411 12.7245 36.3579
6547 2 3.62468 12.7323 37.6388
6531 2 6.3525 14.3227 37.6314
12840 1 5.44471 12.7402 38.9226
201 1 4.53196 14.3141 36.3505
206 1 7.26035 12.7245 36.3579
6530 2 9.08092 12.7323 37.6388
12802 1 8.1725 14.3314 38.9152
194 1 9.98819 14.3141 36.3505
15681 1 10.9009 12.7402 38.9226
6542 2 0.895569 17.5033 37.614
12831 1 2.71548 17.5137 38.8979
236 1 1.80353 15.9036 36.3422
6541 2 3.62406 15.913 37.6231
6529 2 6.35181 17.5033 37.614
12843 1 5.44401 15.9226 38.907
200 1 4.53131 17.4931 36.333
199 1 7.25977 15.9036 36.3422
6533 2 9.08029 15.913 37.6231
12801 1 8.17172 17.5137 38.8979
193 1 9.98755 17.4931 36.333
15679 1 10.9002 15.9226 38.907
18479 2 1.81067 0.0108145 40.2306
12849 1 0.902948 1.60543 41.5135
12855 1 3.6311 0.0124392 41.5139
18466 2 4.53876 1.60302 40.2303
12819 1 6.35919 1.60543 41.5135
18468 2 7.2669 0.0108145 40.2306
12818 1 9.08734 0.0124392 41.5139
18420 2 9.995 1.60302 40.2303
18480 2 1.81057 3.19522 40.229
12848 1 0.902766 4.79139 41.5102
12847 1 3.631 3.19841 41.5123
18465 2 4.53859 4.78742 40.2269
12813 1 6.359 4.79139 41.5102
18464 2 7.26681 3.19522 40.229
12820 1 9.08723 3.19841 41.5123
18419 2 9.99483 4.78742 40.2269
18476 2 1.81033 6.37959 40.2239
12838 1 0.902419 7.9773 41.5033
12850 1 3.63073 6.38435 41.5072
18458 2 4.53827 7.97175 40.22
12812 1 6.35866 7.9773 41.5033
18467 2 7.26657 6.37959 40.2239
12811 1 9.08697 6.38435 41.5072
18418 2 9.9945 7.97175 40.22
18477 2 1.80993 9.56388 40.2152
12837 1 0.901905 11.1631 41.4928
12836 1 3.6303 9.57023 41.4985
18457 2 4.53779 11.156 40.2095
12799 1 6.35814 11.1631 41.4928
18456 2 7.26617 9.56388 40.2152
12814 1 9.08654 9.57023 41.4985
18411 2 9.99403 11.156 40.2095
18472 2 1.80937 12.7481 40.203
12830 1 0.901215 14.3489 41.4789
12839 1 3.6297 12.756 41.4863
12798 1 6.35745 14.3489 41.4789
18444 2 4.53715 14.3401 40.1956
18459 2 7.26561 12.7481 40.203
12797 1 9.08594 12.756 41.4863
18410 2 9.99338 14.3401 40.1956
18473 2 1.80864 15.9321 40.1873
12829 1 0.900343 17.5345 41.4616
12828 1 3.62892 15.9417 41.4707
12781 1 6.35658 17.5345 41.4616
18443 2 4.53634 17.524 40.1783
18442 2 7.26488 15.9321 40.1873
12800 1 9.08516 15.9417 41.4707
18395 2 9.99257 17.524 40.1783
18462 2 2.7242 1.60773 42.7934
12845 1 1.81683 0.0155827 44.0766
18450 2 0.910242 1.61245 45.3556
18461 2 5.45235 0.0139554 42.7938
18460 2 3.63839 0.0170924 45.356
12809 1 4.54491 1.61014 44.0762
18414 2 6.36648 1.61245 45.3556
12817 1 7.27307 0.0155827 44.0766
18417 2 8.18044 1.60773 42.7934
12756 1 10.0012 1.61014 44.0762
18413 2 9.09463 0.0170924 45.356
21298 2 10.9086 0.0139554 42.7938
18454 2 2.72402 4.79527 42.79
12846 1 1.81672 3.2047 44.075
18449 2 0.910049 4.80316 45.3522
18463 2 5.45225 3.2015 42.7922
12808 1 4.54472 4.79926 44.0728
18406 2 6.36629 4.80316 45.3522
18448 2 3.63829 3.20781 45.3544
12807 1 7.27296 3.2047 44.075
18416 2 8.18026 4.79527 42.79
12755 1 10.001 4.79926 44.0728
18415 2 9.09452 3.20781 45.3544
21294 2 10.9085 3.2015 42.7922
18453 2 2.72367 7.98278 42.7831
12834 1 1.81644 6.39381 44.0698
18436 2 0.909681 7.99387 45.3453
18452 2 5.45198 6.38903 42.787
12795 1 4.54435 7.98836 44.0659
18405 2 6.36592 7.99387 45.3453
18451 2 3.63801 6.39852 45.3492
12810 1 7.27268 6.39381 44.0698
18409 2 8.1799 7.98278 42.7831
12754 1 10.0006 7.98836 44.0659
18404 2 9.09424 6.39852 45.3492
21295 2 10.9082 6.38903 42.787
18440 2 2.72314 11.1702 42.7727
12835 1 1.81598 9.5829 44.0611
18435 2 0.909138 11.1846 45.3348
18455 2 5.45155 9.57651 42.7783
12794 1 4.54381 11.1774 44.0555
18391 2 6.36538 11.1846 45.3348
18434 2 3.63755 9.58922 45.3405
12793 1 7.27222 9.5829 44.0611
18408 2 8.17938 11.1702 42.7727
12747 1 10 11.1774 44.0555
18407 2 9.09379 9.58922 45.3405
21290 2 10.9078 9.57651 42.7783
18439 2 2.72245 14.3576 42.7587
12826 1 1.81535 12.7719 44.0489
18428 2 0.908414 14.3752 45.3208
18437 2 3.63692 12.7799 45.3282
18438 2 5.45094 12.7639 42.7661
12780 1 4.54308 14.3664 44.0415
18390 2 6.36465 14.3752 45.3208
12796 1 7.27158 12.7719 44.0489
18394 2 8.17868 14.3576 42.7587
12746 1 9.99932 14.3664 44.0415
18389 2 9.09316 12.7799 45.3282
21291 2 10.9072 12.7639 42.7661
18429 2 2.72157 17.5449 42.7414
12827 1 1.81452 15.9609 44.0333
18427 2 0.907506 17.5659 45.3033
18426 2 3.6361 15.9706 45.3125
18441 2 5.45015 15.9513 42.7505
12779 1 4.54216 17.5554 44.0241
18374 2 6.36374 17.5659 45.3033
12778 1 7.27076 15.9609 44.0333
18393 2 8.1778 17.5449 42.7414
12731 1 9.9984 17.5554 44.0241
18392 2 9.09234 15.9706 45.3125
21289 2 10.9064 15.9513 42.7505
12787 1 0.918176 1.61959 49.1987
12805 1 2.73124 1.61487 46.6379
12844 1 0.00315598 0.0187194 46.6383
18446 2 1.82504 0.0202194 47.9172
12750 1 6.37441 1.61959 49.1987
12803 1 3.64633 0.0218433 49.1991
12804 1 5.45939 0.0187194 46.6383
18402 2 4.55312 1.61717 47.9168
12749 1 9.10257 0.0218433 49.1991
12753 1 8.18748 1.61487 46.6379
18354 2 10.0094 1.61717 47.9168
18412 2 7.28127 0.0202194 47.9172
12786 1 0.917978 4.81511 49.1953
12791 1 2.73104 4.80717 46.6345
12832 1 0.00304593 3.21102 46.6367
18447 2 1.82493 3.21413 47.9156
12742 1 6.37422 4.81511 49.1953
12785 1 3.64622 3.21735 49.1974
12806 1 5.45928 3.21102 46.6367
18401 2 4.55293 4.81109 47.9134
12751 1 9.10246 3.21735 49.1974
12752 1 8.18728 4.80717 46.6345
18353 2 10.0092 4.81109 47.9134
18400 2 7.28117 3.21413 47.9156
12772 1 0.917603 8.01066 49.1883
12790 1 2.73067 7.99948 46.6276
12833 1 0.0027579 6.40333 46.6315
18432 2 1.82464 6.40805 47.9104
12741 1 6.37384 8.01066 49.1883
12788 1 3.64593 6.41288 49.1922
12789 1 5.459 6.40333 46.6315
18387 2 4.55256 8.00502 47.9064
12740 1 9.10217 6.41288 49.1922
12745 1 8.1869 7.99948 46.6276
18352 2 10.0088 8.00502 47.9064
18403 2 7.28088 6.40805 47.9104
12771 1 0.917052 11.2062 49.1777
12776 1 2.73011 11.1918 46.6171
12824 1 0.00229109 9.59564 46.6228
18433 2 1.82419 9.60199 47.9016
12727 1 6.37329 11.2062 49.1777
12770 1 3.64547 9.60845 49.1834
12792 1 5.45853 9.59564 46.6228
18386 2 4.55201 11.199 47.8959
12743 1 9.10171 9.60845 49.1834
12744 1 8.18635 11.1918 46.6171
18345 2 10.0082 11.199 47.8959
18385 2 7.28042 9.60199 47.9016
12764 1 0.916325 14.4019 49.1635
12775 1 2.72937 14.3841 46.603
12825 1 0.00164319 12.788 46.6105
18424 2 1.82355 12.796 47.8893
12726 1 6.37256 14.4019 49.1635
12773 1 3.64483 12.8041 49.171
12774 1 5.45788 12.788 46.6105
18373 2 4.55129 14.393 47.8818
12725 1 9.10107 12.8041 49.171
12730 1 8.18561 14.3841 46.603
18344 2 10.0075 14.393 47.8818
18388 2 7.27979 12.796 47.8893
12763 1 0.915422 17.5976 49.1458
12765 1 2.72844 17.5765 46.5855
12823 1 0.000810368 15.9803 46.5947
18425 2 1.82274 15.99 47.8734
12712 1 6.37166 17.5976 49.1458
12762 1 3.64401 15.9997 49.1551
12777 1 5.45705 15.9803 46.5947
18372 2 4.55038 17.587 47.8641
12728 1 9.10025 15.9997 49.1551
12729 1 8.18468 17.5765 46.5855
18333 2 10.0066 17.587 47.8641
18371 2 7.27898 15.99 47.8734
12783 1 1.83387 0.0249491 51.7589
18398 2 2.74037 1.62189 50.4771
18445 2 0.0122854 0.0233308 50.4775
12738 1 4.56196 1.62432 51.7585
18397 2 5.46852 0.0233308 50.4775
12696 1 10.0182 1.62432 51.7585
12748 1 7.29011 0.0249491 51.7589
18351 2 8.19661 1.62189 50.4771
12784 1 1.83376 3.22369 51.7572
18383 2 2.74018 4.81904 50.4737
18430 2 0.01218 3.22046 50.4758
12737 1 4.56177 4.82308 51.755
18399 2 5.46842 3.22046 50.4758
12695 1 10.018 4.82308 51.755
12736 1 7.29 3.22369 51.7572
18350 2 8.19642 4.81904 50.4737
12768 1 1.83348 6.42248 51.7519
18382 2 2.73982 8.01622 50.4666
18431 2 0.0119005 6.41762 50.4706
12723 1 4.5614 8.02189 51.7479
18381 2 5.46814 6.41762 50.4706
12694 1 10.0176 8.02189 51.7479
12739 1 7.28972 6.42248 51.7519
18343 2 8.19605 8.01622 50.4666
12769 1 1.83303 9.62132 51.743
18369 2 2.73928 11.2135 50.456
18422 2 0.0114491 9.61483 50.4617
12722 1 4.56087 11.2208 51.7372
18384 2 5.46769 9.61483 50.4617
12688 1 10.0171 11.2208 51.7372
12721 1 7.28927 9.62132 51.743
18342 2 8.19552 11.2135 50.456
12760 1 1.83242 12.8202 51.7305
18368 2 2.73857 14.4108 50.4417
18423 2 0.0108284 12.8121 50.4493
12711 1 4.56017 14.4197 51.7229
18367 2 5.46707 12.8121 50.4493
12687 1 10.0164 14.4197 51.7229
12724 1 7.28866 12.8202 51.7305
18332 2 8.19481 14.4108 50.4417
12761 1 1.83164 16.0193 51.7143
18360 2 2.73771 17.6082 50.4238
18421 2 0.0100412 16.0095 50.4332
12710 1 4.55931 17.6189 51.7049
18370 2 5.46628 16.0095 50.4332
12680 1 10.0155 17.6189 51.7049
12709 1 7.28788 16.0193 51.7143
18331 2 8.19394 17.6082 50.4238
12734 1 2.75011 1.62903 54.3173
12782 1 0.0220208 0.0280321 54.3177
18375 2 1.84485 0.0294868 55.5951
18379 2 0.928233 1.6266 53.0364
12733 1 5.47826 0.0280321 54.3177
18336 2 4.57294 1.6313 55.5947
18348 2 6.38447 1.6266 53.0364
18396 2 3.65638 0.0264215 53.0368
12693 1 8.20635 1.62903 54.3173
18318 2 10.0292 1.6313 55.5947
18346 2 7.30109 0.0294868 55.5951
18347 2 9.11262 0.0264215 53.0368
12719 1 2.74993 4.83106 54.3138
12766 1 0.0219202 3.23004 54.316
18376 2 1.84475 3.23313 55.5934
18378 2 0.928047 4.82701 53.0329
12735 1 5.47816 3.23004 54.316
18335 2 4.57276 4.83498 55.5912
18340 2 6.38429 4.82701 53.0329
18377 2 3.65628 3.2268 53.0351
12692 1 8.20616 4.83106 54.3138
18317 2 10.029 4.83498 55.5912
18334 2 7.30099 3.23313 55.5934
18349 2 9.11252 3.2268 53.0351
12718 1 2.74957 8.03316 54.3066
12767 1 0.0216513 6.4321 54.3107
18361 2 1.84449 6.43684 55.588
18365 2 0.927692 8.02746 53.0258
12717 1 5.47789 6.4321 54.3107
18325 2 4.57242 8.03873 55.584
18339 2 6.38393 8.02746 53.0258
18380 2 3.65601 6.42723 53.0298
12686 1 8.20581 8.03316 54.3066
18316 2 10.0287 8.03873 55.584
18337 2 7.30073 6.43684 55.588
18338 2 9.11225 6.42723 53.0298
12707 1 2.74906 11.2353 54.2958
12758 1 0.0212194 9.63424 54.3017
18362 2 1.84407 9.64063 55.579
18364 2 0.927175 11.228 53.015
12720 1 5.47746 9.63424 54.3017
18324 2 4.57192 11.2426 55.573
18329 2 6.38341 11.228 53.015
18363 2 3.65557 9.62772 53.0208
12685 1 8.2053 11.2353 54.2958
18315 2 10.0282 11.2426 55.573
18323 2 7.30031 9.64063 55.579
18341 2 9.11181 9.62772 53.0208
12706 1 2.7484 14.4377 54.2812
12759 1 0.020632 12.8365 54.289
18355 2 1.8435 12.8445 55.5662
18359 2 0.926502 14.4286 53.0005
12705 1 5.47687 12.8365 54.289
18321 2 4.57129 14.4466 55.5584
18328 2 6.38274 14.4286 53.0005
18366 2 3.65498 12.8283 53.0082
12679 1 8.20464 14.4377 54.2812
18314 2 10.0275 14.4466 55.5584
18326 2 7.29974 12.8445 55.5662
18327 2 9.11122 12.8283 53.0082
18358 2 0.925681 17.6295 52.9824
18356 2 1.8428 16.0486 55.5496
12757 1 0.0198992 16.0389 54.2726
12700 1 2.7476 17.6402 54.263
18357 2 3.65423 16.029 52.9919
18322 2 6.38192 17.6295 52.9824
18320 2 4.57052 17.6508 55.5399
12708 1 5.47614 16.0389 54.2726
18330 2 9.11047 16.029 52.9919
18319 2 7.29904 16.0486 55.5496
18313 2 10.0268 17.6508 55.5399
12678 1 8.20384 17.6402 54.263
18665 2 2.76201 1.63598 58.1521
18672 2 0.0339164 0.0325227 58.1525
12715 1 0.938871 1.63372 56.8752
18664 2 5.49015 0.0325227 58.1525
12690 1 6.39511 1.63372 56.8752
12732 1 3.66702 0.0310887 56.8756
18630 2 8.21825 1.63598 58.1521
12689 1 9.12326 0.0310887 56.8756
18661 2 2.76184 4.84294 58.1485
18670 2 0.0338251 3.23945 58.1507
12714 1 0.938693 4.83904 56.8716
18666 2 5.49006 3.23945 58.1507
12683 1 6.39493 4.83904 56.8716
12713 1 3.66692 3.23637 56.8738
18629 2 8.21808 4.84294 58.1485
12691 1 9.12316 3.23637 56.8738
18660 2 2.76151 8.04999 58.1411
18671 2 0.0335737 6.44645 58.1453
12703 1 0.938356 8.04444 56.8643
18659 2 5.48981 6.44645 58.1453
12682 1 6.39459 8.04444 56.8643
12716 1 3.66666 6.44173 56.8684
18624 2 8.21775 8.04999 58.1411
12681 1 9.1229 6.44173 56.8684
18650 2 2.76103 11.2572 58.1301
18668 2 0.0331698 9.65356 58.1361
12702 1 0.937869 11.25 56.8533
18662 2 5.48941 9.65356 58.1361
12676 1 6.39411 11.25 56.8533
12701 1 3.66625 9.64718 56.8593
18623 2 8.21727 11.2572 58.1301
12684 1 9.12249 9.64718 56.8593
18649 2 2.76043 14.4645 58.1152
18669 2 0.0326258 12.8608 58.1231
12699 1 0.937243 14.4556 56.8386
18648 2 5.48886 12.8608 58.1231
12675 1 6.39348 14.4556 56.8386
12704 1 3.66569 12.8528 56.8464
18610 2 8.21666 14.4645 58.1152
12674 1 9.12193 12.8528 56.8464
18639 2 2.7597 17.6721 58.0965
18667 2 0.0319579 16.0682 58.1063
12698 1 0.936497 17.6615 56.82
18651 2 5.4882 16.0682 58.1063
12673 1 6.39274 17.6615 56.82
12697 1 3.665 16.0585 56.8298
18609 2 8.21594 17.6721 58.0965
12677 1 9.12124 16.0585 56.8298
13031 1 1.85637 0.0341188 59.4325
13014 1 2.77441 1.64306 61.9881
13030 1 0.0463149 0.0371346 61.9886
18657 2 0.951678 1.64063 60.7084
13018 1 4.58447 1.6384 59.4321
13013 1 5.50255 0.0371346 61.9886
18627 2 6.40792 1.64063 60.7084
18663 2 3.67982 0.0355248 60.7089
12972 1 10.0407 1.6384 59.4321
13020 1 7.31261 0.0341188 59.4325
12969 1 8.23065 1.64306 61.9881
18626 2 9.13606 0.0355248 60.7089
13032 1 1.85628 3.2427 59.4307
13006 1 2.77424 4.85498 61.9844
13026 1 0.0462281 3.24901 61.9868
18656 2 0.95151 4.85088 60.7048
13017 1 4.5843 4.84702 59.4285
13015 1 5.50247 3.24901 61.9868
18621 2 6.40775 4.85088 60.7048
18655 2 3.67973 3.24574 60.7071
12971 1 10.0405 4.84702 59.4285
13016 1 7.31252 3.2427 59.4307
12968 1 8.23048 4.85498 61.9844
18628 2 9.13597 3.24574 60.7071
13028 1 1.85603 6.45136 59.4252
13005 1 2.77392 8.067 61.977
13027 1 0.045983 6.46098 61.9812
18646 2 0.951189 8.06123 60.6973
13010 1 4.58397 8.05573 59.4211
13004 1 5.50222 6.46098 61.9812
18620 2 6.40743 8.06123 60.6973
18658 2 3.67949 6.45604 60.7015
12970 1 10.0402 8.05573 59.4211
13019 1 7.31227 6.45136 59.4252
12961 1 8.23016 8.067 61.977
18619 2 9.13573 6.45604 60.7015
13029 1 1.85563 9.66013 59.416
12992 1 2.77346 11.2792 61.9657
13022 1 0.0455894 9.67306 61.9718
18645 2 0.950726 11.2717 60.6861
13009 1 4.5835 11.2646 59.4099
13007 1 5.50183 9.67306 61.9718
18607 2 6.40696 11.2717 60.6861
18644 2 3.67909 9.66646 60.6922
12963 1 10.0397 11.2646 59.4099
13008 1 7.31187 9.66013 59.416
12960 1 8.2297 11.2792 61.9657
18622 2 9.13533 9.66646 60.6922
13024 1 1.8551 12.869 59.4029
12991 1 2.77288 14.4915 61.9505
13023 1 0.045063 12.8853 61.9586
18638 2 0.950136 14.4824 60.671
12996 1 4.5829 14.4736 59.395
12990 1 5.5013 12.8853 61.9586
18606 2 6.40637 14.4824 60.671
18647 2 3.67856 12.877 60.679
12962 1 10.0391 14.4736 59.395
13011 1 7.31134 12.869 59.4029
12946 1 8.22911 14.4915 61.9505
18605 2 9.1348 12.877 60.679
13025 1 1.85444 16.0782 59.386
12981 1 2.77219 17.7041 61.9314
13021 1 0.0444255 16.0978 61.9414
18637 2 0.949443 17.6933 60.652
12995 1 4.5822 17.6828 59.3761
12993 1 5.50066 16.0978 61.9414
18589 2 6.40568 17.6933 60.652
18636 2 3.67792 16.0878 60.662
12947 1 10.0384 17.6828 59.3761
12994 1 7.31068 16.0782 59.386
12945 1 8.22843 17.7041 61.9314
18608 2 9.13416 16.0878 60.662
13002 1 0.964889 1.64778 64.5436
18613 2 2.78896 1.64975 65.8177
18652 2 0.0608623 0.0413734 65.8182
18653 2 1.87007 0.0384847 63.2642
12966 1 6.42113 1.64778 64.5436
13012 1 3.69303 0.0402031 64.5441
18612 2 5.5171 0.0413735 65.8182
18617 2 4.59816 1.64523 63.2637
12965 1 9.14927 0.0402031 64.5441
18561 2 8.2452 1.64975 65.8177
18564 2 10.0544 1.64523 63.2637
18625 2 7.32631 0.0384847 63.2642
13001 1 0.964723 4.86299 64.5399
18599 2 2.78879 4.86655 65.8139
18640 2 0.0607777 3.25814 65.8163
18654 2 1.86998 3.25199 63.2623
12958 1 6.42096 4.86299 64.5399
13000 1 3.69295 3.25537 64.5422
18614 2 5.51702 3.25814 65.8163
18616 2 4.598 4.85877 63.26
12967 1 9.14918 3.25537 64.5422
18560 2 8.24503 4.86655 65.8139
18563 2 10.0542 4.85877 63.26
18615 2 7.32622 3.25199 63.2623
12988 1 0.964399 8.07831 64.5323
18598 2 2.78847 8.08348 65.8063
18641 2 0.0605296 6.475 65.8106
18642 2 1.86974 6.46558 63.2567
12957 1 6.42064 8.07831 64.5323
13003 1 3.6927 6.47063 64.5365
18597 2 5.51677 6.475 65.8106
18603 2 4.59768 8.07242 63.2525
12956 1 9.14894 6.47063 64.5365
18553 2 8.2447 8.08348 65.8063
18562 2 10.0539 8.07242 63.2525
18618 2 7.32598 6.46558 63.2567
12987 1 0.963931 11.2938 64.5209
18584 2 2.78799 11.3006 65.7948
18632 2 0.060127 9.69201 65.8011
18643 2 1.86935 9.6793 63.2473
12943 1 6.42017 11.2938 64.5209
12986 1 3.6923 9.68603 64.5271
18600 2 5.51637 9.69201 65.8011
18602 2 4.59722 11.2862 63.2411
12959 1 9.14854 9.68603 64.5271
18552 2 8.24423 11.3006 65.7948
18555 2 10.0535 11.2862 63.2411
18601 2 7.32558 9.6793 63.2473
12980 1 0.963338 14.5095 64.5055
18583 2 2.78739 14.5179 65.7794
18633 2 0.0595846 12.9092 65.7876
18634 2 1.86882 12.8932 63.2339
12942 1 6.41958 14.5095 64.5055
12989 1 3.69177 12.9016 64.5137
18582 2 5.51582 12.9092 65.7876
18588 2 4.59663 14.5002 63.2258
12941 1 9.14801 12.9016 64.5137
18538 2 8.24362 14.5179 65.7794
18554 2 10.0529 14.5002 63.2258
18604 2 7.32506 12.8932 63.2339
12979 1 0.962647 17.7254 64.4861
18573 2 2.78668 17.7355 65.7599
18631 2 0.0589236 16.1267 65.7701
18635 2 1.86818 16.1073 63.2167
12926 1 6.41889 17.7254 64.4861
12978 1 3.69112 16.1174 64.4963
18585 2 5.51516 16.1267 65.7701
18587 2 4.59594 17.7145 63.2065
12944 1 9.14736 16.1174 64.4963
18537 2 8.24291 17.7355 65.7599
18539 2 10.0522 17.7145 63.2065
18586 2 7.32442 16.1073 63.2167
12998 1 1.88388 0.0436521 67.0999
18595 2 0.98019 1.65405 68.3696
12954 1 4.61198 1.65286 67.0995
18558 2 6.43643 1.65405 68.3696
18611 2 3.70833 0.0440624 68.3701
12906 1 10.0682 1.65286 67.0995
12964 1 7.34012 0.0436521 67.0999
18557 2 9.16457 0.0440624 68.3701
12999 1 1.88379 3.2621 67.098
18594 2 0.980017 4.87409 68.3658
12953 1 4.61181 4.87135 67.0956
18550 2 6.43626 4.87409 68.3658
18593 2 3.70824 3.26406 68.3682
12905 1 10.068 4.87135 67.0956
12952 1 7.34003 3.2621 67.098
18559 2 9.16448 3.26406 68.3682
12984 1 1.88354 6.48064 67.0923
18580 2 0.979675 8.09426 68.3581
12939 1 4.61147 8.08997 67.088
18549 2 6.43591 8.09426 68.3581
18596 2 3.70799 6.48416 68.3624
12904 1 10.0677 8.08997 67.088
12955 1 7.33978 6.48064 67.0923
18548 2 9.16422 6.48416 68.3624
12985 1 1.88313 9.69934 67.0827
18579 2 0.979175 11.3146 68.3465
12938 1 4.61098 11.3088 67.0764
18535 2 6.43541 11.3146 68.3465
18578 2 3.70756 9.70442 68.3528
12897 1 10.0672 11.3088 67.0764
12937 1 7.33937 9.69934 67.0827
18551 2 9.1638 9.70442 68.3528
12976 1 1.88257 12.9182 67.0692
18572 2 0.978533 14.5352 68.3309
12925 1 4.61036 14.5277 67.0609
18534 2 6.43477 14.5352 68.3309
18581 2 3.70699 12.9249 68.3392
12896 1 10.0666 14.5277 67.0609
12940 1 7.33881 12.9182 67.0692
18533 2 9.16323 12.9249 68.3392
12977 1 1.88189 16.1373 67.0516
18571 2 0.977771 17.7561 68.3112
12924 1 4.60963 17.747 67.0413
18520 2 6.43401 17.7561 68.3112
18570 2 3.70628 16.1456 68.3216
12885 1 10.0659 17.747 67.0413
12923 1 7.33812 16.1373 67.0516
18536 2 9.16252 16.1456 68.3216
12931 1 0.988375 1.66181 72.2352
12950 1 2.80246 1.6573 69.6591
12997 1 0.0743644 0.046446 69.6596
18591 2 1.89965 0.0460302 70.917
12900 1 6.44461 1.66181 72.2352
12948 1 3.71652 0.0492743 72.2357
12949 1 5.5306 0.046446 69.6596
18546 2 4.62775 1.6576 70.9165
12899 1 9.17276 0.0492743 72.2357
12903 1 8.2587 1.6573 69.6591
18504 2 10.084 1.6576 70.9165
18556 2 7.35589 0.0460302 70.917
12930 1 0.988171 4.88694 72.2313
12935 1 2.80228 4.87906 69.6552
12982 1 0.0742728 3.26817 69.6576
18592 2 1.89956 3.2692 70.9151
12892 1 6.44441 4.88694 72.2313
12929 1 3.71642 3.27436 72.2338
12951 1 5.53051 3.26817 69.6576
18545 2 4.62756 4.88082 70.9126
12901 1 9.17266 3.27436 72.2338
12902 1 8.25852 4.87906 69.6552
18503 2 10.0838 4.88082 70.9126
18544 2 7.3558 3.2692 70.9151
12917 1 0.987767 8.1122 72.2236
12934 1 2.80192 8.10096 69.6475
12983 1 0.0740003 6.48999 69.6519
18576 2 1.89928 6.49248 70.9093
12891 1 6.44401 8.1122 72.2236
12932 1 3.71611 6.49955 72.2279
12933 1 5.53024 6.48999 69.6519
18531 2 4.6272 8.10418 70.9049
12890 1 9.17235 6.49955 72.2279
12895 1 8.25816 8.10096 69.6475
18502 2 10.0834 8.10418 70.9049
18547 2 7.35552 6.49248 70.9093
12916 1 0.987168 11.3376 72.2119
12921 1 2.80139 11.323 69.6359
12974 1 0.0735537 9.71197 69.6422
18577 2 1.89883 9.71594 70.8996
12881 1 6.44341 11.3376 72.2119
12915 1 3.71561 9.7249 72.2182
12936 1 5.52979 9.71197 69.6422
18530 2 4.62666 11.3278 70.8932
12893 1 9.17185 9.7249 72.2182
12894 1 8.25763 11.323 69.6359
18496 2 10.0829 11.3278 70.8932
18529 2 7.35507 9.71594 70.8996
12911 1 0.986387 14.5633 72.1961
12920 1 2.80071 14.5453 69.6202
12975 1 0.0729455 12.9342 69.6286
18568 2 1.89821 12.9396 70.8859
12880 1 6.44263 14.5633 72.1961
12918 1 3.71492 12.9504 72.2045
12919 1 5.52918 12.9342 69.6286
18519 2 4.62596 14.5516 70.8775
12879 1 9.17116 12.9504 72.2045
12884 1 8.25694 14.5453 69.6202
18495 2 10.0822 14.5516 70.8775
18532 2 7.35445 12.9396 70.8859
12910 1 0.985443 17.7892 72.1763
12912 1 2.79989 17.7679 69.6005
12973 1 0.0721948 16.1566 69.6109
18569 2 1.89744 16.1636 70.8682
12874 1 6.44168 17.7892 72.1763
12909 1 3.71405 16.1762 72.1867
12922 1 5.52843 16.1566 69.6109
18518 2 4.62512 17.7757 70.8577
12882 1 9.17029 16.1762 72.1867
12883 1 8.25613 17.7679 69.6005
18488 2 10.0814 17.7757 70.8577
18517 2 7.35368 16.1636 70.8682
12927 1 1.84396 0.0567013 74.8871
18523 2 0.980136 1.66752 75.9233
18542 2 2.81744 1.66064 73.4487
18590 2 0.0893456 0.0475069 73.4492
12888 1 4.57204 1.67141 74.8866
18498 2 6.43637 1.66752 75.9233
18540 2 3.70829 0.0525429 75.9238
18541 2 5.54558 0.0475069 73.4492
12870 1 10.0283 1.67141 74.8866
12898 1 7.30019 0.0567013 74.8871
18497 2 9.16452 0.0525429 75.9238
18501 2 8.27368 1.66064 73.4487
12928 1 1.84382 3.28614 74.8851
18522 2 0.979898 4.89754 75.9194
18527 2 2.81724 4.88698 73.4448
18574 2 0.0892453 3.27379 73.4473
12887 1 4.57178 4.90088 74.8827
18491 2 6.43614 4.89754 75.9194
18521 2 3.70817 3.28252 75.9219
18543 2 5.54548 3.27379 73.4473
12869 1 10.028 4.90088 74.8827
12886 1 7.30006 3.28614 74.8851
18499 2 9.1644 3.28252 75.9219
18500 2 8.27348 4.88698 73.4448
12913 1 1.84343 6.51562 74.8793
18511 2 0.979421 8.12767 75.9116
18526 2 2.81684 8.11348 73.437
18575 2 0.0889455 6.5002 73.4414
12877 1 4.57126 8.13038 74.8749
18490 2 6.43566 8.12767 75.9116
18524 2 3.70781 6.51258 75.916
18525 2 5.54518 6.5002 73.4414
12868 1 10.0275 8.13038 74.8749
12889 1 7.29967 6.51562 74.8793
18489 2 9.16405 6.51258 75.916
18494 2 8.27308 8.11348 73.437
12914 1 1.84278 9.74515 74.8695
18510 2 0.978709 11.358 75.8998
18515 2 2.81625 11.3402 73.4253
18566 2 0.0884495 9.72681 73.4317
12876 1 4.57048 11.3599 74.8631
18484 2 6.43495 11.358 75.8998
18509 2 3.70721 9.74279 75.9062
18528 2 5.54469 9.72681 73.4317
12867 1 10.0267 11.3599 74.8631
12875 1 7.29902 9.74515 74.8695
18492 2 9.16345 9.74279 75.9062
18493 2 8.27249 11.3402 73.4253
12907 1 1.84188 12.9747 74.8558
18507 2 0.977769 14.5884 75.8839
18514 2 2.81547 14.5672 73.4095
18567 2 0.0877641 12.9537 73.4179
12873 1 4.56947 14.5895 74.8474
18483 2 6.43401 14.5884 75.8839
18512 2 3.70639 12.9732 75.8924
18513 2 5.544 12.9537 73.4179
12866 1 10.0257 14.5895 74.8474
12878 1 7.29812 12.9747 74.8558
18482 2 9.16262 12.9732 75.8924
18487 2 8.27171 14.5672 73.4095
12908 1 1.84076 16.2042 74.8379
18506 2 0.976618 17.8191 75.864
18508 2 2.81453 17.7946 73.3896
18565 2 0.086902 16.1809 73.4001
12872 1 4.56824 17.8189 74.8274
18481 2 6.43286 17.8191 75.864
18505 2 3.70534 16.2037 75.8745
18516 2 5.54314 16.1809 73.4001
12865 1 10.0245 17.8189 74.8274
12871 1 7.297 16.2042 74.8379
18485 2 9.16158 16.2037 75.8745
18486 2 8.27077 17.7946 73.3896
6729 2 0.902099 20.3422 -0.948255
6737 2 2.7136 20.3207 -3.45534
576 1 1.79199 21.8988 -2.40582
6727 2 3.63103 21.9101 -0.962428
562 1 4.51868 20.3313 -2.39168
6699 2 6.35834 20.3422 -0.948255
6738 2 5.44273 21.8872 -3.46936
560 1 7.24823 21.8988 -2.40582
516 1 9.97492 20.3313 -2.39168
6702 2 8.16984 20.3207 -3.45534
6700 2 9.08727 21.9101 -0.962428
10006 2 10.899 21.8872 -3.46936
6728 2 0.903779 23.4782 -0.977614
6733 2 2.71571 23.454 -3.48438
572 1 1.79525 25.0344 -2.43711
6730 2 3.63281 25.0465 -0.993795
561 1 4.52167 23.4665 -2.42097
6693 2 6.36002 23.4782 -0.977614
6731 2 5.44499 25.021 -3.50037
563 1 7.25149 25.0344 -2.43711
515 1 9.97791 23.4665 -2.42097
6701 2 8.17194 23.454 -3.48438
6691 2 9.08905 25.0465 -0.993795
10007 2 10.9012 25.021 -3.50037
6718 2 0.905637 26.615 -1.01095
6732 2 2.71812 26.5883 -3.51731
573 1 1.7991 28.1714 -2.47228
6716 2 3.63474 28.1838 -1.02905
554 1 4.52522 26.6027 -2.45423
6692 2 6.36188 26.615 -1.01095
6734 2 5.44755 28.156 -3.53517
552 1 7.25533 28.1714 -2.47228
514 1 9.98146 26.6027 -2.45423
6696 2 8.17436 26.5883 -3.51731
6694 2 9.09098 28.1838 -1.02905
10004 2 10.9038 28.156 -3.53517
6717 2 0.907639 29.753 -1.04807
6722 2 2.72082 29.7242 -3.55392
568 1 1.80355 31.3101 -2.5111
6719 2 3.6368 31.3225 -1.06797
553 1 4.52937 29.7405 -2.49126
6679 2 6.36388 29.753 -1.04807
6720 2 5.4504 31.2928 -3.57352
555 1 7.25979 31.3101 -2.5111
507 1 9.9856 29.7405 -2.49126
6695 2 8.17706 29.7242 -3.55392
6677 2 9.09304 31.3225 -1.06797
10005 2 10.9066 31.2928 -3.57352
6710 2 0.909745 32.8925 -1.08869
6721 2 2.72381 32.8619 -3.59392
569 1 1.80864 34.4508 -2.55323
540 1 4.53414 32.8801 -2.53178
6678 2 6.36598 32.8925 -1.08869
6708 2 3.63894 34.4629 -1.1102
6723 2 5.45352 34.4316 -3.61506
538 1 7.26488 34.4508 -2.55323
506 1 9.99038 32.8801 -2.53178
6682 2 8.18005 32.8619 -3.59392
6680 2 9.09518 34.4629 -1.1102
10003 2 10.9098 34.4316 -3.61506
6709 2 0.911916 36.0338 -1.13241
6711 2 2.72705 36.002 -3.63688
959 1 1.81434 37.5939 -2.5982
7152 2 0.000642023 37.5731 -3.65931
539 1 4.53954 36.022 -2.57539
6661 2 6.36815 36.0338 -1.13241
7143 2 3.64113 37.6053 -1.15527
7144 2 5.45688 37.5731 -3.65931
948 1 7.27058 37.5939 -2.5982
491 1 9.99578 36.022 -2.57539
6681 2 8.18329 36.002 -3.63688
7106 2 9.09737 37.6053 -1.15527
558 1 2.71734 20.353 0.274643
6726 2 1.81047 21.934 1.5923
6689 2 4.53769 20.3646 1.60655
559 1 5.44639 21.9218 0.260421
6687 2 7.2667 21.934 1.5923
513 1 8.17358 20.353 0.274643
6636 2 9.99393 20.3646 1.60655
3642 1 10.9026 21.9218 0.260421
550 1 2.71927 23.4907 0.24518
6714 2 1.81242 25.0731 1.56072
6688 2 4.53953 23.5034 1.57701
548 1 5.44844 25.0598 0.228935
6690 2 7.26866 25.0731 1.56072
512 1 8.1755 23.4907 0.24518
6635 2 9.99577 23.5034 1.57701
3643 1 10.9047 25.0598 0.228935
549 1 2.72144 26.6291 0.211708
6715 2 1.81458 28.213 1.5252
6675 2 4.54159 26.6429 1.54344
551 1 5.45073 28.1987 0.193524
6673 2 7.27082 28.213 1.5252
505 1 8.17768 26.6291 0.211708
6634 2 9.99783 26.6429 1.54344
3638 1 10.907 28.1987 0.193524
536 1 2.72384 29.7686 0.174413
6706 2 1.81692 31.3539 1.48595
6674 2 4.54385 29.7833 1.50602
534 1 5.45323 31.3389 0.154414
6676 2 7.27316 31.3539 1.48595
504 1 8.18007 29.7686 0.174413
6627 2 10.0001 29.7833 1.50602
3639 1 10.9095 31.3389 0.154414
535 1 2.72643 32.9095 0.133574
6707 2 1.81939 34.4961 1.44331
6660 2 4.54626 32.9248 1.46503
537 1 5.4559 34.4806 0.111946
490 1 8.18266 32.9095 0.133574
6626 2 10.0025 32.9248 1.46503
6658 2 7.27563 34.4961 1.44331
3637 1 10.9121 34.4806 0.111946
525 1 2.72917 36.0521 0.0895941
958 1 0.00246625 37.6241 0.0665913
7133 2 1.82196 37.6398 1.39774
6659 2 4.54879 36.0677 1.42086
941 1 5.4587 37.6241 0.0665913
489 1 8.18541 36.0521 0.0895941
6611 2 10.005 36.0677 1.42086
7105 2 7.2782 37.6398 1.39774
546 1 0.89871 20.3756 2.8731
544 1 3.62777 21.9457 2.8588
6685 2 2.7171 20.3871 4.17415
543 1 1.80767 21.97 5.44111
510 1 6.35495 20.3756 2.8731
498 1 4.53481 20.3985 5.45544
6686 2 5.44617 21.9579 4.15986
496 1 7.26391 21.97 5.44111
511 1 9.08401 21.9457 2.8588
444 1 9.99105 20.3985 5.45544
6633 2 8.17334 20.3871 4.17415
9976 2 10.9024 21.9579 4.15986
545 1 0.900659 23.516 2.84346
547 1 3.62985 25.0863 2.82711
6671 2 2.71906 23.5287 4.14454
528 1 1.80986 25.113 5.40935
502 1 6.3569 23.516 2.84346
497 1 4.53685 23.5415 5.42575
6669 2 5.44826 25.0996 4.12819
499 1 7.2661 25.113 5.40935
500 1 9.08609 25.0863 2.82711
443 1 9.99309 23.5415 5.42575
6632 2 8.1753 23.5287 4.14454
9977 2 10.9045 25.0996 4.12819
532 1 0.902865 26.6569 2.80976
530 1 3.63218 28.2276 2.79143
6670 2 2.72129 26.6707 4.11085
529 1 1.81233 28.2564 5.37353
501 1 6.3591 26.6569 2.80976
483 1 4.53918 26.6847 5.39193
6672 2 5.45062 28.2419 4.09253
481 1 7.26856 28.2564 5.37353
503 1 9.08841 28.2276 2.79143
442 1 9.99541 26.6847 5.39193
6625 2 8.17753 26.6707 4.11085
9968 2 10.9069 28.2419 4.09253
531 1 0.905303 29.7985 2.77215
533 1 3.63472 31.3697 2.75196
6656 2 2.72376 29.8132 4.07326
520 1 1.81506 31.4003 5.33386
487 1 6.36154 29.7985 2.77215
482 1 4.54178 29.8283 5.35416
6654 2 5.4532 31.3847 4.05308
484 1 7.27129 31.4003 5.33386
485 1 9.09096 31.3697 2.75196
435 1 9.99802 29.8283 5.35416
6624 2 8.18 29.8132 4.07326
9969 2 10.9094 31.3847 4.05308
524 1 0.90794 32.9411 2.73091
522 1 3.63744 34.5128 2.70905
6655 2 2.72645 32.9565 4.03203
521 1 1.81801 34.5447 5.29064
486 1 6.36418 32.9411 2.73091
468 1 4.54463 32.9724 5.31267
6657 2 5.45598 34.5284 4.01017
466 1 7.27425 34.5447 5.29064
488 1 9.09368 34.5128 2.70905
434 1 10.0009 32.9724 5.31267
6610 2 8.18269 32.9565 4.03203
9967 2 10.9122 34.5284 4.01017
523 1 0.910733 36.0849 2.68643
6645 2 2.7293 36.1007 3.98755
926 1 1.82114 37.69 5.24431
7132 2 0.00265909 37.6732 3.96424
469 1 6.36697 36.0849 2.68643
467 1 4.54768 36.1172 5.26783
940 1 3.64029 37.6573 2.66314
7092 2 5.4589 37.6732 3.96424
420 1 10.0039 36.1172 5.26783
6609 2 8.18554 36.1007 3.98755
893 1 9.09653 37.6573 2.66314
892 1 7.27738 37.69 5.24431
494 1 2.71454 20.421 8.03229
6667 2 0.896709 20.4097 6.74612
6665 2 3.62581 21.9818 6.73185
6630 2 6.35295 20.4097 6.74612
495 1 5.44366 21.9937 8.01801
3598 1 10.8999 21.9937 8.01801
441 1 8.17078 20.421 8.03229
6631 2 9.08205 21.9818 6.73185
479 1 2.71662 23.5664 8.00268
6666 2 0.898752 23.5539 6.71654
6668 2 3.62801 25.126 6.7002
6622 2 6.35499 23.5539 6.71654
477 1 5.44591 25.1392 7.98631
3599 1 10.9021 25.1392 7.98631
440 1 8.17286 23.5664 8.00268
6620 2 9.08424 25.126 6.7002
478 1 2.71903 26.7119 7.96893
6652 2 0.901097 26.6982 6.68285
6649 2 1.81032 28.2985 9.23813
6650 2 3.6305 28.2704 6.66451
6621 2 6.35734 26.6982 6.68285
480 1 5.44847 28.2846 7.95054
6601 2 7.26656 28.2985 9.23813
3590 1 10.9047 28.2846 7.95054
433 1 8.17527 26.7119 7.96893
6623 2 9.08674 28.2704 6.66451
464 1 2.72176 29.8574 7.93118
6651 2 0.903732 29.8427 6.64521
6640 2 1.8132 31.4448 9.19869
6653 2 3.63327 31.4151 6.62498
6602 2 4.53984 29.8717 9.21888
6607 2 6.35997 29.8427 6.64521
462 1 5.45135 31.4301 7.91087
6604 2 7.26944 31.4448 9.19869
3591 1 10.9076 31.4301 7.91087
432 1 8.17799 29.8574 7.93118
6568 2 9.99608 29.8717 9.21888
6605 2 9.08951 31.4151 6.62498
463 1 2.72478 33.0029 7.88964
6644 2 0.906632 32.9875 6.60386
6641 2 1.81638 34.5911 9.15563
6642 2 3.63629 34.5601 6.5819
6591 2 4.54287 33.018 9.17759
6606 2 6.36287 32.9875 6.60386
465 1 5.45451 34.5758 7.86755
6589 2 7.27262 34.5911 9.15563
3589 1 10.9107 34.5758 7.86755
419 1 8.18101 33.0029 7.88964
6567 2 9.99911 33.018 9.17759
6608 2 9.09253 34.5601 6.5819
453 1 2.72806 36.1487 7.84465
6643 2 0.909758 36.1328 6.55915
925 1 0.00165809 37.7217 7.821
7071 2 1.81983 37.7374 9.1093
6590 2 4.5462 36.1642 9.13284
6592 2 6.366 36.1328 6.55915
877 1 5.4579 37.7217 7.821
7091 2 3.63951 37.7057 6.53568
418 1 8.18429 36.1487 7.84465
6560 2 10.0024 36.1642 9.13284
7036 2 7.27607 37.7374 9.1093
7037 2 9.09575 37.7057 6.53568
6664 2 1.80555 22.0054 9.30517
475 1 0.894326 20.4432 10.607
6614 2 2.71252 20.4541 11.8928
473 1 3.62343 22.0172 10.5929
6618 2 4.53268 20.432 9.31937
6616 2 7.26179 22.0054 9.30517
438 1 6.35056 20.4432 10.607
6615 2 5.44159 22.0288 11.8787
6576 2 9.98892 20.432 9.31937
6573 2 8.16876 20.4541 11.8928
439 1 9.07967 22.0172 10.5929
9910 2 10.8978 22.0288 11.8787
6648 2 1.80777 25.152 9.27367
474 1 0.896387 23.5911 10.5777
6599 2 2.71451 23.6033 11.8636
476 1 3.62567 25.165 10.5614
6617 2 4.53474 23.5787 9.28994
6619 2 7.26401 25.152 9.27367
430 1 6.35263 23.5911 10.5777
6597 2 5.44376 25.1778 11.8475
6575 2 9.99097 23.5787 9.28994
6572 2 8.17075 23.6033 11.8636
428 1 9.0819 25.165 10.5614
9911 2 10.9 25.1778 11.8475
460 1 0.898794 26.7388 10.5441
6598 2 2.71686 26.7522 11.8304
458 1 3.62825 28.3125 10.5259
6603 2 4.53712 26.7253 9.2564
429 1 6.35503 26.7388 10.5441
6600 2 5.44628 28.3264 11.8123
6574 2 9.99336 26.7253 9.2564
6566 2 8.17309 26.7522 11.8304
431 1 9.08449 28.3125 10.5259
9902 2 10.9025 28.3264 11.8123
459 1 0.901556 29.8862 10.5066
6587 2 2.71956 29.9005 11.7932
461 1 3.63119 31.4597 10.4864
416 1 6.35779 29.8862 10.5066
6585 2 5.44917 31.4744 11.7732
6565 2 8.1758 29.9005 11.7932
414 1 9.08743 31.4597 10.4864
9903 2 10.9054 31.4744 11.7732
452 1 0.904666 33.0332 10.4652
6586 2 2.72264 33.0483 11.7522
450 1 3.63447 34.6065 10.4432
415 1 6.3609 33.0332 10.4652
6588 2 5.45243 34.622 11.7303
6559 2 8.17888 33.0483 11.7522
417 1 9.0907 34.6065 10.4432
9901 2 10.9087 34.622 11.7303
451 1 0.908103 36.1798 10.4203
6580 2 2.72607 36.1955 11.7076
405 1 6.36434 36.1798 10.4203
876 1 3.63805 37.7531 10.3966
7021 2 5.45603 37.769 11.6841
6558 2 8.18231 36.1955 11.7076
10334 2 10.9123 37.769 11.6841
821 1 9.09429 37.7531 10.3966
422 1 2.71043 20.4874 15.754
6595 2 0.892466 20.4762 14.466
472 1 1.80326 22.0406 13.1668
421 1 5.43778 18.9106 15.7667
426 1 4.53044 20.4653 13.1808
6570 2 6.3487 20.4762 14.466
424 1 7.2595 22.0406 13.1668
3542 1 10.894 18.9106 15.7667
393 1 8.16667 20.4874 15.754
396 1 9.98668 20.4653 13.1808
408 1 2.71221 23.6405 15.7254
6594 2 0.894322 23.628 14.4373
6593 2 3.62147 22.0522 14.4521
456 1 1.80539 25.1908 13.1358
423 1 5.4394 22.064 15.7402
425 1 4.5324 23.6158 13.1518
6563 2 6.35056 23.628 14.4373
427 1 7.26163 25.1908 13.1358
3526 1 10.8956 22.064 15.7402
392 1 8.16845 23.6405 15.7254
395 1 9.98864 23.6158 13.1518
6571 2 9.07771 22.0522 14.4521
407 1 2.71435 26.7928 15.6929
6583 2 0.896533 26.7791 14.4045
6596 2 3.6235 25.2036 14.4214
457 1 1.8079 28.3404 13.1006
406 1 5.44135 25.2167 15.7097
412 1 4.53472 26.7657 13.1187
6562 2 6.35277 26.7791 14.4045
410 1 7.26414 28.3404 13.1006
3527 1 10.8976 25.2167 15.7097
389 1 8.17058 26.7928 15.6929
394 1 9.99096 26.7657 13.1187
6561 2 9.07974 25.2036 14.4214
6581 2 3.6259 28.3544 14.3866
6582 2 0.899129 29.9294 14.3678
400 1 2.71688 29.9441 15.6564
448 1 1.8108 31.4893 13.0616
6556 2 6.35537 29.9294 14.3678
411 1 4.53742 29.915 13.0816
409 1 5.44368 28.3686 15.6751
413 1 7.26704 31.4893 13.0616
3518 1 10.8999 28.3686 15.6751
6564 2 9.08214 28.3544 14.3866
391 1 9.99366 29.915 13.0816
388 1 8.17312 29.9441 15.6564
6584 2 3.6287 31.5043 14.348
6579 2 0.902137 33.0788 14.3272
399 1 2.71985 33.0943 15.616
449 1 1.8141 34.6374 13.0187
6555 2 6.35838 33.0788 14.3272
404 1 4.54052 33.0635 13.0406
398 1 5.44643 31.5193 15.6367
402 1 7.27034 34.6374 13.0187
6554 2 9.08494 31.5043 14.348
3519 1 10.9027 31.5193 15.6367
390 1 9.99676 33.0635 13.0406
386 1 8.17609 33.0943 15.616
6577 2 3.63192 34.6532 14.3056
6578 2 0.905572 36.2272 14.283
397 1 2.72329 36.2432 15.5719
7020 2 3.63557 37.801 14.2597
855 1 1.81778 37.7847 12.9724
401 1 5.44963 34.6689 15.5944
403 1 4.54401 36.2112 12.996
6553 2 6.36181 36.2272 14.283
820 1 7.27402 37.7847 12.9724
385 1 8.17953 36.2432 15.5719
3517 1 10.9059 34.6689 15.5944
387 1 10.0003 36.2112 12.996
6557 2 9.08816 34.6532 14.3056
6977 2 9.0918 37.801 14.2597
6935 2 1.79996 18.9209 17.0514
766 1 0.89057 20.5096 18.3266
768 1 3.61804 18.9315 18.3391
6922 2 4.52879 20.4984 17.0388
743 1 6.34681 20.5096 18.3266
6924 2 7.2562 18.9209 17.0514
742 1 9.07428 18.9315 18.3391
6876 2 9.98502 20.4984 17.0388
6936 2 1.80145 22.0757 17.0252
765 1 0.892097 23.6654 18.2986
764 1 3.61941 22.0876 18.3131
6921 2 4.53043 23.6528 17.0106
739 1 6.34834 23.6654 18.2986
6920 2 7.25769 22.0757 17.0252
744 1 9.07565 22.0876 18.3131
6875 2 9.98667 23.6528 17.0106
6932 2 1.80326 25.2297 16.995
759 1 0.893963 26.8202 18.2668
767 1 3.6211 25.2429 18.2832
6914 2 4.53242 26.8063 16.9784
738 1 6.3502 26.8202 18.2668
6923 2 7.2595 25.2297 16.995
737 1 9.07734 25.2429 18.2832
6874 2 9.98866 26.8063 16.9784
6933 2 1.80544 28.3827 16.9609
758 1 0.896223 29.9738 18.231
757 1 3.62316 28.3971 18.2494
6913 2 4.5348 29.9588 16.9424
727 1 6.35246 29.9738 18.231
6912 2 7.26168 28.3827 16.9609
740 1 9.0794 28.3971 18.2494
6867 2 9.99104 29.9588 16.9424
6928 2 1.80803 31.5346 16.9229
752 1 0.89894 33.126 18.1915
760 1 3.62564 31.5501 18.2117
726 1 6.35518 33.126 18.1915
6900 2 4.53762 33.1101 16.9025
6915 2 7.26427 31.5346 16.9229
725 1 9.08188 31.5501 18.2117
6866 2 9.99386 33.1101 16.9025
6929 2 1.81109 34.6851 16.8812
751 1 0.902178 36.2764 18.1482
750 1 3.62861 34.7014 18.1703
709 1 6.35842 36.2764 18.1482
6899 2 4.54093 36.2599 16.8589
6898 2 7.26733 34.6851 16.8812
728 1 9.08485 34.7014 18.1703
6851 2 9.99717 36.2599 16.8589
6918 2 2.70905 20.5207 19.6111
762 1 1.79852 18.9524 20.9108
6906 2 0.889555 20.5432 22.1827
6916 2 3.61724 18.9629 22.1948
6917 2 5.43659 18.9418 19.6234
735 1 4.52715 20.5321 20.8986
6870 2 6.34579 20.5432 22.1827
741 1 7.25476 18.9524 20.9108
6873 2 8.16529 20.5207 19.6111
684 1 9.98339 20.5321 20.8986
6869 2 9.07348 18.9629 22.1948
10198 2 10.8928 18.9418 19.6234
6910 2 2.71041 23.6778 19.5835
763 1 1.79961 22.1115 20.8854
6905 2 0.890587 23.7032 22.1558
6904 2 3.61816 22.1233 22.1697
6919 2 5.43781 22.0994 19.5978
734 1 4.52837 23.6906 20.8713
6862 2 6.34683 23.7032 22.1558
733 1 7.25585 22.1115 20.8854
6872 2 8.16665 23.6778 19.5835
683 1 9.98461 23.6906 20.8713
6871 2 9.0744 22.1233 22.1697
10194 2 10.8941 22.0994 19.5978
6909 2 2.7121 26.834 19.552
755 1 1.80096 25.2695 20.8562
6892 2 0.891891 26.8622 22.1251
6907 2 3.61932 25.2829 22.1409
6908 2 5.43933 25.256 19.5682
723 1 4.52988 26.8481 20.8402
6861 2 6.34813 26.8622 22.1251
736 1 7.2572 25.2695 20.8562
6865 2 8.16833 26.834 19.552
682 1 9.98612 26.8481 20.8402
6860 2 9.07556 25.2829 22.1409
10195 2 10.8956 25.256 19.5682
6896 2 2.71416 29.9889 19.5168
756 1 1.80265 28.4264 20.8232
6891 2 0.893536 30.0197 22.0908
6890 2 3.62079 28.4411 22.1084
6911 2 5.44119 28.4116 19.5349
722 1 4.53176 30.0042 20.8053
6847 2 6.34977 30.0197 22.0908
721 1 7.25889 28.4264 20.8232
6864 2 8.17039 29.9889 19.5168
675 1 9.988 30.0042 20.8053
6863 2 9.07702 28.4411 22.1084
10190 2 10.8974 28.4116 19.5349
6895 2 2.71667 33.1422 19.4778
748 1 1.80475 31.5817 20.7865
6884 2 0.895611 33.1756 22.0528
6893 2 3.62263 31.5979 22.0723
6894 2 5.44347 31.5658 19.4977
708 1 4.5341 33.1587 20.7668
6846 2 6.35185 33.1756 22.0528
724 1 7.26099 31.5817 20.7865
6850 2 8.17291 33.1422 19.4778
674 1 9.99033 33.1587 20.7668
6845 2 9.07887 31.5979 22.0723
10191 2 10.8997 31.5658 19.4977
6885 2 2.71971 36.2938 19.4351
749 1 1.80734 34.7352 20.7461
6883 2 0.898225 36.3294 22.0112
6882 2 3.62496 34.7528 22.0325
6897 2 5.44624 34.7183 19.4569
707 1 4.53698 36.3112 20.7245
6829 2 6.35446 36.3294 22.0112
706 1 7.26358 34.7352 20.7461
6849 2 8.17595 36.2938 19.4351
659 1 9.99322 36.3112 20.7245
6848 2 9.0812 34.7528 22.0325
10189 2 10.9025 34.7183 19.4569
731 1 2.70778 20.5547 23.4699
6902 2 1.79823 18.9841 24.7654
730 1 5.43555 18.9736 23.4818
6858 2 4.52662 20.566 24.7537
6868 2 7.25447 18.9841 24.7654
681 1 8.16402 20.5547 23.4699
6804 2 9.98286 20.566 24.7537
3833 1 10.8918 18.9736 23.4818
719 1 2.70863 23.7162 23.4433
6903 2 1.79881 22.1476 24.741
732 1 5.4363 22.1356 23.4571
6857 2 4.52728 23.729 24.7274
6856 2 7.25505 22.1476 24.741
680 1 8.16487 23.7162 23.4433
6803 2 9.98352 23.729 24.7274
3825 1 10.8925 22.1356 23.4571
718 1 2.70973 26.8766 23.413
6888 2 1.79957 25.3102 24.7129
717 1 5.43726 25.2966 23.4286
6843 2 4.52816 26.891 24.6975
6859 2 7.25581 25.3102 24.7129
673 1 8.16597 26.8766 23.413
6802 2 9.98439 26.891 24.6975
3826 1 10.8935 25.2966 23.4286
704 1 2.71114 30.0356 23.3792
6889 2 1.80057 28.4714 24.6813
720 1 5.43851 28.4563 23.3965
6842 2 4.52931 30.0515 24.6642
6841 2 7.25681 28.4714 24.6813
672 1 8.16738 30.0356 23.3792
6795 2 9.98555 30.0515 24.6642
3818 1 10.8947 28.4563 23.3965
692 1 0.891962 33.2281 25.9159
703 1 2.71297 33.1927 23.3417
6880 2 1.8019 31.6311 24.6462
654 1 6.3482 33.2281 25.9159
702 1 5.44011 31.6144 23.3609
6828 2 4.53084 33.2103 24.6273
6844 2 7.25814 31.6311 24.6462
658 1 8.16921 33.1927 23.3417
6794 2 9.98708 33.2103 24.6273
3819 1 10.8964 31.6144 23.3609
691 1 0.893661 36.3862 25.8762
693 1 2.71533 36.3477 23.3007
6881 2 1.80366 34.7888 24.6076
690 1 3.62086 34.8075 25.8965
638 1 6.3499 36.3862 25.8762
705 1 5.44219 34.7705 23.3216
6827 2 4.53287 36.3668 24.5869
6826 2 7.2599 34.7888 24.6076
656 1 9.0771 34.8075 25.8965
657 1 8.17157 36.3477 23.3007
6780 2 9.98911 36.3668 24.5869
3817 1 10.8984 34.7705 23.3216
715 1 0.888771 20.5776 26.0404
729 1 3.61671 18.995 26.052
711 1 1.79832 19.0165 28.6214
6854 2 2.70786 20.589 27.3237
678 1 6.34501 20.5776 26.0404
666 1 4.52645 20.6008 28.61
6853 2 5.43587 19.0056 27.3352
676 1 7.25456 19.0165 28.6214
677 1 9.07295 18.995 26.052
618 1 9.98269 20.6008 28.61
6801 2 8.1641 20.589 27.3237
10165 2 10.8921 19.0056 27.3352
714 1 0.889233 23.7422 26.0145
713 1 3.6171 22.16 26.0279
712 1 1.79836 22.1848 28.5978
6839 2 2.70813 23.7552 27.2981
670 1 6.34547 23.7422 26.0145
665 1 4.52652 23.7686 28.5847
6855 2 5.4361 22.1722 27.3113
664 1 7.25459 22.1848 28.5978
679 1 9.07334 22.16 26.0279
617 1 9.98275 23.7686 28.5847
6800 2 8.16437 23.7552 27.2981
10150 2 10.8923 22.1722 27.3113
700 1 0.889866 26.9057 25.9851
716 1 3.61764 25.3241 26.0002
696 1 1.79846 25.3522 28.5708
6838 2 2.70854 26.9204 27.2691
669 1 6.3461 26.9057 25.9851
651 1 4.52667 26.9354 28.5561
6837 2 5.43644 25.338 27.284
667 1 7.2547 25.3522 28.5708
668 1 9.07388 25.3241 26.0002
616 1 9.98291 26.9354 28.5561
6793 2 8.16478 26.9204 27.2691
10151 2 10.8927 25.338 27.284
699 1 0.890743 30.0678 25.9522
698 1 3.61839 28.487 25.969
697 1 1.79868 28.5184 28.5405
6824 2 2.70915 30.0842 27.2366
655 1 6.34698 30.0678 25.9522
650 1 4.52698 30.1009 28.5242
6840 2 5.43694 28.5025 27.2533
649 1 7.25492 28.5184 28.5405
671 1 9.07463 28.487 25.969
609 1 9.98322 30.1009 28.5242
6792 2 8.16539 30.0842 27.2366
10142 2 10.8932 28.5025 27.2533
701 1 3.61942 31.6482 25.9345
688 1 1.7991 31.6831 28.507
6823 2 2.71006 33.2463 27.2009
637 1 4.52753 33.2648 28.489
6822 2 5.43768 31.6655 27.2192
652 1 7.25534 31.6831 28.507
653 1 9.07566 31.6482 25.9345
608 1 9.98377 33.2648 28.489
6779 2 8.16629 33.2463 27.2009
10143 2 10.8939 31.6655 27.2192
689 1 1.79981 34.8459 28.4703
6813 2 2.71138 36.4061 27.1619
636 1 4.52845 36.4265 28.4507
6825 2 5.43878 34.8265 27.1818
635 1 7.25605 34.8459 28.4703
597 1 9.98469 36.4265 28.4507
6778 2 8.16762 36.4061 27.1619
10141 2 10.895 34.8265 27.1818
662 1 2.70843 20.6242 31.1786
6831 2 1.80022 19.0492 32.4718
6835 2 0.889585 20.6123 29.8928
6852 2 3.61776 19.0273 29.904
661 1 5.43669 19.0383 31.1897
6786 2 4.52813 20.6359 32.4608
6798 2 6.34582 20.6123 29.8928
6796 2 7.25646 19.0492 32.4718
615 1 8.16466 20.6242 31.1786
6756 2 9.98436 20.6359 32.4608
6797 2 9.074 19.0273 29.904
3782 1 10.8929 19.0383 31.1897
647 1 2.70811 23.7954 31.1538
6832 2 1.79978 22.2224 32.4489
6834 2 0.889481 23.7818 29.8678
6833 2 3.61765 22.1972 29.8807
663 1 5.43639 22.2099 31.1666
6785 2 4.52767 23.8088 32.4363
6790 2 6.34572 23.7818 29.8678
6784 2 7.25602 22.2224 32.4489
614 1 8.16435 23.7954 31.1538
6755 2 9.98391 23.8088 32.4363
6799 2 9.07389 22.1972 29.8807
3766 1 10.8926 22.2099 31.1666
646 1 2.70781 26.9657 31.1259
6816 2 1.79931 25.395 32.4228
6820 2 0.889429 26.9504 29.8394
6836 2 3.61756 25.3662 29.854
645 1 5.43608 25.3807 31.1403
6772 2 4.52718 26.9809 32.4086
6789 2 6.34567 26.9504 29.8394
6787 2 7.25555 25.395 32.4228
607 1 8.16405 26.9657 31.1259
6754 2 9.98342 26.9809 32.4086
6788 2 9.0738 25.3662 29.854
3767 1 10.8923 25.3807 31.1403
633 1 2.70755 30.1349 31.0948
6817 2 1.79882 28.5666 32.3935
6819 2 0.889483 30.1177 29.8079
6818 2 3.61756 28.5342 29.8241
648 1 5.43579 28.5505 31.1107
6771 2 4.52671 30.152 32.3778
6776 2 6.34572 30.1177 29.8079
6770 2 7.25506 28.5666 32.3935
606 1 8.16379 30.1349 31.0948
6751 2 9.98295 30.152 32.3778
6791 2 9.0738 28.5342 29.8241
3758 1 10.892 28.5505 31.1107
632 1 2.70742 33.3027 31.0607
6808 2 1.79837 31.7371 32.3612
6812 2 0.889723 33.2835 29.7733
6821 2 3.61769 31.7008 29.791
631 1 5.43558 31.719 31.0781
6764 2 4.5263 33.3218 32.344
6775 2 6.34596 33.2835 29.7733
6773 2 7.25461 31.7371 32.3612
596 1 8.16366 33.3027 31.0607
6750 2 9.98254 33.3218 32.344
6774 2 9.07393 31.7008 29.791
3759 1 10.8918 31.719 31.0781
624 1 2.70751 36.4685 31.0237
6809 2 1.79803 34.9062 32.326
6811 2 0.890267 36.4473 29.7355
6810 2 3.61807 34.8657 29.7548
634 1 5.43555 34.8859 31.0426
6763 2 4.52605 36.49 32.3074
6765 2 6.34651 36.4473 29.7355
6762 2 7.25427 34.9062 32.326
595 1 8.16375 36.4685 31.0237
6747 2 9.98229 36.49 32.3074
6777 2 9.07431 34.8657 29.7548
3757 1 10.8918 34.8859 31.0426
643 1 0.891016 20.6478 33.746
6782 2 2.71107 20.6597 35.0276
660 1 3.61943 19.0603 33.7569
612 1 6.34725 20.6478 33.746
6781 2 5.43953 19.0713 35.0385
611 1 9.07567 19.0603 33.7569
6753 2 8.16731 20.6597 35.0276
10094 2 10.8958 19.0713 35.0385
642 1 0.890367 23.8225 33.7217
6768 2 2.71031 23.8361 35.0035
641 1 3.61882 22.2352 33.7343
604 1 6.34661 23.8225 33.7217
6783 2 5.43882 22.2479 35.0159
613 1 9.07506 22.2352 33.7343
6752 2 8.16655 23.8361 35.0035
10078 2 10.8951 22.2479 35.0159
644 1 3.61813 25.4096 33.7084
629 1 0.889643 26.9965 33.6943
6767 2 2.70945 27.0119 34.9762
6766 2 5.43801 25.4241 34.9902
603 1 6.34588 26.9965 33.6943
6749 2 8.16569 27.0119 34.9762
602 1 9.07437 25.4096 33.7084
10079 2 10.8942 25.4241 34.9902
627 1 3.61738 28.5831 33.6795
6760 2 2.70851 30.187 34.946
628 1 0.888871 30.1695 33.6639
6769 2 5.4371 28.5995 34.9614
593 1 6.34511 30.1695 33.6639
6748 2 8.16474 30.187 34.946
605 1 9.07362 28.5831 33.6795
10070 2 10.8933 28.5995 34.9614
630 1 3.6166 31.7557 33.6476
6759 2 2.70752 33.3611 34.9129
623 1 0.888095 33.3415 33.6306
6758 2 5.43614 31.7742 34.9298
592 1 6.34433 33.3415 33.6306
6746 2 8.16376 33.3611 34.9129
591 1 9.07284 31.7557 33.6476
10071 2 10.8924 31.7742 34.9298
621 1 3.61585 34.927 33.613
6757 2 2.70655 36.534 34.8771
622 1 0.88739 36.512 33.5946
6761 2 5.43515 34.9477 34.8953
586 1 6.34363 36.512 33.5946
6745 2 8.16279 36.534 34.8771
594 1 9.07209 34.927 33.613
10069 2 10.8914 34.9477 34.8953
6958 2 0.89472 20.6837 37.5932
13217 1 2.71452 20.6958 38.8772
639 1 1.80282 19.0824 36.323
6960 2 3.62328 19.0935 37.604
6947 2 6.35096 20.6837 37.5932
13216 1 5.44314 19.1048 38.888
600 1 4.53052 20.6717 36.3122
610 1 7.25905 19.0824 36.323
6946 2 9.07952 19.0935 37.604
13182 1 8.17076 20.6958 38.8772
582 1 9.98676 20.6717 36.3122
16044 1 10.8994 19.1048 38.888
6957 2 0.893715 23.8636 37.5693
13213 1 2.71338 23.8776 38.8534
640 1 1.80196 22.2609 36.3006
6956 2 3.62236 22.2737 37.5817
6944 2 6.34995 23.8636 37.5693
13218 1 5.44209 22.2867 38.8657
599 1 4.52959 23.8499 36.2883
598 1 7.2582 22.2609 36.3006
6948 2 9.07859 22.2737 37.5817
13181 1 8.16962 23.8776 38.8534
581 1 9.98583 23.8499 36.2883
16042 1 10.8983 22.2867 38.8657
6954 2 0.892555 27.0432 37.5423
13212 1 2.71205 27.0591 38.8265
625 1 1.80096 25.4388 36.2751
6959 2 3.62127 25.4535 37.5562
6943 2 6.34879 27.0432 37.5423
13211 1 5.44086 25.4684 38.8403
589 1 4.52852 27.0276 36.2612
601 1 7.2572 25.4388 36.2751
6942 2 9.07751 25.4535 37.5562
13176 1 8.16829 27.0591 38.8265
580 1 9.98476 27.0276 36.2612
16043 1 10.8971 25.4684 38.8403
6953 2 0.891244 30.2224 37.5123
13202 1 2.71053 30.2404 38.7967
626 1 1.79982 28.6163 36.2466
6952 2 3.62004 28.6329 37.5277
6940 2 6.34748 30.2224 37.5123
13214 1 5.43943 28.6498 38.812
588 1 4.52732 30.2048 36.2312
587 1 7.25606 28.6163 36.2466
6945 2 9.07628 28.6329 37.5277
13175 1 8.16676 30.2404 38.7967
579 1 9.98356 30.2048 36.2312
16040 1 10.8957 28.6498 38.812
6951 2 0.889795 33.401 37.4796
13201 1 2.70881 33.4213 38.7642
619 1 1.79855 31.793 36.2152
6955 2 3.61865 31.8118 37.4963
6939 2 6.34603 33.401 37.4796
13200 1 5.43781 31.8309 38.7808
585 1 4.526 33.3811 36.1985
590 1 7.25479 31.793 36.2152
6938 2 9.07489 31.8118 37.4963
13162 1 8.16504 33.4213 38.7642
578 1 9.98224 33.3811 36.1985
16041 1 10.894 31.8309 38.7808
6950 2 0.888239 36.579 37.4443
13191 1 2.7069 36.602 38.7291
620 1 1.79719 34.969 36.1811
6949 2 3.61715 34.9901 37.4623
6937 2 6.34448 36.579 37.4443
13203 1 5.43599 35.0117 38.7469
584 1 4.52461 36.5566 36.1632
583 1 7.25343 34.969 36.1811
6941 2 9.07339 34.9901 37.4623
13161 1 8.16314 36.602 38.7291
577 1 9.98084 36.5566 36.1632
16039 1 10.8922 35.0117 38.7469
18839 2 1.80774 19.116 40.1683
13209 1 0.899276 20.72 41.441
13215 1 3.62795 19.1273 41.4517
18826 2 4.53535 20.7078 40.1576
13179 1 6.35551 20.72 41.441
18828 2 7.26398 19.116 40.1683
13178 1 9.08419 19.1273 41.4517
18780 2 9.99159 20.7078 40.1576
18840 2 1.80666 22.2996 40.1461
13208 1 0.898003 23.9055 41.4171
13207 1 3.62679 22.3128 41.4294
18825 2 4.53417 23.8914 40.1337
13173 1 6.35424 23.9055 41.4171
18824 2 7.2629 22.2996 40.1461
13180 1 9.08302 22.3128 41.4294
18779 2 9.99041 23.8914 40.1337
18836 2 1.80539 25.4832 40.1206
13198 1 0.896513 27.0908 41.3901
13210 1 3.62541 25.4982 41.404
18818 2 4.5328 27.0749 40.1068
13172 1 6.35275 27.0908 41.3901
18827 2 7.26163 25.4832 40.1206
13171 1 9.08164 25.4982 41.404
18778 2 9.98904 27.0749 40.1068
18837 2 1.80393 28.6665 40.0922
13197 1 0.894793 30.2763 41.3602
13196 1 3.6238 28.6835 41.3756
18817 2 4.53124 30.2581 40.0768
13159 1 6.35103 30.2763 41.3602
18816 2 7.26017 28.6665 40.0922
13174 1 9.08004 28.6835 41.3756
18771 2 9.98748 30.2581 40.0768
18832 2 1.80226 31.8497 40.0608
13190 1 0.892832 33.4618 41.3275
13199 1 3.62196 31.869 41.3442
13158 1 6.34907 33.4618 41.3275
18804 2 4.52948 33.4413 40.0441
18819 2 7.2585 31.8497 40.0608
13157 1 9.0782 31.869 41.3442
18770 2 9.98571 33.4413 40.0441
18833 2 1.8004 35.0329 40.0268
13189 1 0.890622 36.6476 41.2922
18789 2 2.71199 36.67 42.5705
13188 1 3.61988 35.0547 41.3102
13141 1 6.34686 36.6476 41.2922
18801 2 5.44121 35.0758 42.5888
18803 2 4.52752 36.6244 40.0087
18802 2 7.25664 35.0329 40.0268
13160 1 9.07612 35.0547 41.3102
18753 2 8.16823 36.67 42.5705
18755 2 9.98376 36.6244 40.0087
21649 2 10.8974 35.0758 42.5888
18822 2 2.7205 20.7322 42.7207
13205 1 1.8135 19.1499 44.0142
18810 2 0.906407 20.7566 45.2825
18820 2 3.6351 19.1613 45.2933
18821 2 5.44917 19.1385 42.7314
13169 1 4.54104 20.7444 44.0034
18774 2 6.36265 20.7566 45.2825
13177 1 7.26974 19.1499 44.0142
18777 2 8.17673 20.7322 42.7207
13116 1 9.99728 20.7444 44.0034
18773 2 9.09134 19.1613 45.2933
21658 2 10.9054 19.1385 42.7314
18814 2 2.71923 23.9194 42.6967
13206 1 1.81228 22.3389 43.9918
18809 2 0.90511 23.9475 45.2582
18808 2 3.6339 22.352 45.2708
18823 2 5.44801 22.3258 42.7091
13168 1 4.53971 23.9335 43.9794
18766 2 6.36135 23.9475 45.2582
13167 1 7.26852 22.3389 43.9918
18776 2 8.17546 23.9194 42.6967
13115 1 9.99595 23.9335 43.9794
18775 2 9.09014 22.352 45.2708
21654 2 10.9042 22.3258 42.7091
18813 2 2.71775 27.1067 42.6696
13194 1 1.81084 25.5281 43.9661
18796 2 0.903609 27.1386 45.2308
18811 2 3.6325 25.543 45.2449
18812 2 5.44663 25.513 42.6835
13155 1 4.53815 27.1227 43.9521
18765 2 6.35985 27.1386 45.2308
13170 1 7.26708 25.5281 43.9661
18769 2 8.17398 27.1067 42.6696
13114 1 9.99439 27.1227 43.9521
18764 2 9.08874 25.543 45.2449
21655 2 10.9029 25.513 42.6835
18800 2 2.71605 30.2941 42.6394
13195 1 1.80917 28.7174 43.9374
18795 2 0.901896 30.3301 45.2001
18794 2 3.6309 28.7343 45.2158
18815 2 5.44504 28.7003 42.6549
13154 1 4.53637 30.3123 43.9219
18751 2 6.35813 30.3301 45.2001
13153 1 7.26541 28.7174 43.9374
18768 2 8.17229 30.2941 42.6394
13107 1 9.9926 30.3123 43.9219
18767 2 9.08714 28.7343 45.2158
21650 2 10.9013 28.7003 42.6549
18799 2 2.71413 33.4818 42.6064
13186 1 1.80726 31.9072 43.9056
18788 2 0.89997 33.5223 45.1664
18797 2 3.62908 31.9261 45.1836
18798 2 5.44324 31.8879 42.6232
13140 1 4.53433 33.5024 43.8886
18750 2 6.35621 33.5223 45.1664
13156 1 7.2635 31.9072 43.9056
18754 2 8.17037 33.4818 42.6064
13106 1 9.99057 33.5024 43.8886
18749 2 9.08532 31.9261 45.1836
21651 2 10.8995 31.8879 42.6232
13187 1 1.8051 35.0977 43.871
18787 2 0.897829 36.7154 45.1296
18786 2 3.62705 35.1187 45.1484
13139 1 4.53203 36.6933 43.8526
18734 2 6.35407 36.7154 45.1296
13138 1 7.26133 35.0977 43.871
13091 1 9.98827 36.6933 43.8526
18752 2 9.08328 35.1187 45.1484
13147 1 0.914342 20.7936 49.1245
13165 1 2.72732 20.769 46.5646
18806 2 1.82175 19.1841 47.854
13110 1 6.37058 20.7936 49.1245
13163 1 3.64302 19.1956 49.1356
13164 1 5.45603 19.1727 46.5755
18762 2 4.5493 20.7812 47.843
13109 1 9.09926 19.1956 49.1356
13113 1 8.18356 20.769 46.5646
18714 2 10.0055 20.7812 47.843
18772 2 7.27799 19.1841 47.854
16024 1 10.9123 19.1727 46.5755
13146 1 0.913086 23.9899 49.0997
13151 1 2.726 23.9616 46.5402
18807 2 1.82057 22.3784 47.8311
13102 1 6.36932 23.9899 49.0997
13145 1 3.64186 22.3917 49.1126
13166 1 5.45481 22.3653 46.5528
18761 2 4.54804 23.9757 47.8184
13111 1 9.09809 22.3917 49.1126
13112 1 8.18224 23.9616 46.5402
18713 2 10.0043 23.9757 47.8184
18760 2 7.27681 22.3784 47.8311
16012 1 10.911 22.3653 46.5528
13132 1 0.911652 27.1866 49.0715
13150 1 2.72447 27.1547 46.5126
18792 2 1.81922 25.573 47.8048
13101 1 6.36789 27.1866 49.0715
13148 1 3.64051 25.5882 49.086
13149 1 5.45338 25.5581 46.5268
18747 2 4.54659 27.1705 47.7904
13100 1 9.09675 25.5882 49.086
13105 1 8.18071 27.1547 46.5126
18712 2 10.0028 27.1705 47.7904
18763 2 7.27546 25.573 47.8048
16013 1 10.9096 25.5581 46.5268
13131 1 0.910041 30.3842 49.0398
13136 1 2.72273 30.3483 46.4817
18793 2 1.81768 28.7682 47.7752
13087 1 6.36628 30.3842 49.0398
13130 1 3.63899 28.7853 49.0561
13152 1 5.45175 28.7514 46.4975
18746 2 4.54496 30.366 47.7591
18745 2 7.27392 28.7682 47.7752
13103 1 9.09523 28.7853 49.0561
13104 1 8.17897 30.3483 46.4817
18705 2 10.0012 30.366 47.7591
16004 1 10.908 28.7514 46.4975
13124 1 0.908255 33.5829 49.0046
13135 1 2.72076 33.5428 46.4476
18784 2 1.81596 31.9641 47.7422
13133 1 3.63729 31.9834 49.0226
13086 1 6.36449 33.5829 49.0046
13134 1 5.44989 31.9454 46.465
18733 2 4.54315 33.5625 47.7244
18748 2 7.27219 31.9641 47.7422
13085 1 9.09353 31.9834 49.0226
13090 1 8.177 33.5428 46.4476
18704 2 9.99938 33.5625 47.7244
16005 1 10.9061 31.9454 46.465
13123 1 0.9063 36.7834 48.966
13125 1 2.71857 36.7387 46.4104
18785 2 1.81405 35.1612 47.7058
13122 1 3.63542 35.1829 48.9858
13072 1 6.36254 36.7834 48.966
13137 1 5.44781 35.1405 46.4294
18732 2 4.54116 36.7604 47.6864
18731 2 7.27029 35.1612 47.7058
13088 1 9.09166 35.1829 48.9858
13089 1 8.17481 36.7387 46.4104
18693 2 9.9974 36.7604 47.6864
16003 1 10.9041 35.1405 46.4294
13143 1 1.83071 19.2185 51.6945
18758 2 2.73668 20.8059 50.4023
18805 2 0.00909117 19.207 50.4135
13098 1 4.5583 20.8183 51.6833
18757 2 5.46533 19.207 50.4135
13056 1 10.0145 20.8183 51.6833
13108 1 7.28694 19.2185 51.6945
18711 2 8.19291 20.8059 50.4023
13144 1 1.82962 22.4181 51.6711
18743 2 2.73549 24.0039 50.3773
18790 2 0.00798215 22.4048 50.3903
13097 1 4.55715 24.0181 51.658
18759 2 5.46422 22.4048 50.3903
13055 1 10.0134 24.0181 51.658
13096 1 7.28586 22.4181 51.6711
18710 2 8.19173 24.0039 50.3773
13128 1 1.8284 25.6182 51.644
18742 2 2.73415 27.2024 50.3487
18791 2 0.00671894 25.6031 50.3634
13083 1 4.55585 27.2185 51.629
18741 2 5.46296 25.6031 50.3634
13054 1 10.0121 27.2185 51.629
13099 1 7.28463 25.6182 51.644
18703 2 8.19039 27.2024 50.3487
13129 1 1.82704 28.8191 51.6132
18729 2 2.73267 30.4018 50.3164
18782 2 0.00530762 28.802 50.333
13082 1 4.55443 30.4199 51.5964
18744 2 5.46155 28.802 50.333
13048 1 10.0107 30.4199 51.5964
13081 1 7.28328 28.8191 51.6132
18702 2 8.18891 30.4018 50.3164
13120 1 1.82556 32.021 51.5787
18728 2 2.73105 33.6023 50.2806
18783 2 0.00375624 32.0019 50.299
13071 1 4.55289 33.6226 51.56
18727 2 5.45999 32.0019 50.299
13047 1 10.0091 33.6226 51.56
13084 1 7.28179 32.021 51.5787
18692 2 8.18729 33.6023 50.2806
13121 1 1.82396 35.2246 51.5404
18720 2 2.72931 36.8045 50.2411
18781 2 0.00207537 35.2032 50.2613
13070 1 4.55125 36.8272 51.5198
18730 2 5.45831 35.2032 50.2613
13040 1 10.0075 36.8272 51.5198
13069 1 7.2802 35.2246 51.5404
18691 2 8.18555 36.8045 50.2411
13094 1 2.74667 20.843 54.2409
13142 1 0.0190334 19.2416 54.2524
18735 2 1.84197 19.253 55.5293
18739 2 0.924723 20.8306 52.9605
13093 1 5.47527 19.2416 54.2524
18696 2 4.56964 20.8553 55.5177
18708 2 6.38096 20.8306 52.9605
18756 2 3.65334 19.23 52.9719
13053 1 8.20291 20.843 54.2409
18678 2 10.0259 20.8553 55.5177
18706 2 7.29821 19.253 55.5293
18707 2 9.10958 19.23 52.9719
13079 1 2.74564 24.0463 54.2151
13126 1 0.0180489 22.4446 54.2285
18736 2 1.84104 22.4577 55.5051
18738 2 0.923638 24.0321 52.935
13095 1 5.47429 22.4446 54.2285
18695 2 4.56866 24.0603 55.4915
18700 2 6.37988 24.0321 52.935
18737 2 3.65231 22.4313 52.9482
13052 1 8.20187 24.0463 54.2151
18677 2 10.0249 24.0603 55.4915
18694 2 7.29728 22.4577 55.5051
18709 2 9.10855 22.4313 52.9482
13078 1 2.7445 27.2503 54.1854
13127 1 0.0169614 25.6482 54.2007
18721 2 1.84002 25.663 55.477
18725 2 0.922441 27.2342 52.9056
13077 1 5.4732 25.6482 54.2007
18685 2 4.56761 27.2659 55.4614
18699 2 6.37868 27.2342 52.9056
18740 2 3.65117 25.6331 52.9208
13046 1 8.20074 27.2503 54.1854
18676 2 10.0238 27.2659 55.4614
18697 2 7.29626 25.663 55.477
18698 2 9.10741 25.6331 52.9208
13067 1 2.74329 30.4553 54.1517
13118 1 0.0157875 28.8526 54.169
18722 2 1.83894 28.869 55.4448
18724 2 0.921143 30.4373 52.8724
13080 1 5.47203 28.8526 54.169
18684 2 4.5665 30.4725 55.4273
18689 2 6.37738 30.4373 52.8724
18723 2 3.64992 28.8356 52.8895
13045 1 8.19953 30.4553 54.1517
18675 2 10.0227 30.4725 55.4273
18683 2 7.29518 28.869 55.4448
18701 2 9.10616 28.8356 52.8895
13066 1 2.74202 33.6616 54.114
13119 1 0.0145444 32.0582 54.1334
18715 2 1.83781 32.0762 55.4086
18719 2 0.919759 33.6416 52.8354
18726 2 3.64858 32.0393 52.8544
18688 2 6.376 33.6416 52.8354
13065 1 5.47078 32.0582 54.1334
18681 2 4.56535 33.6803 55.3889
18687 2 9.10482 32.0393 52.8544
18686 2 7.29405 32.0762 55.4086
18674 2 10.0216 33.6803 55.3889
13039 1 8.19826 33.6616 54.114
18718 2 0.918302 36.8478 52.7943
18716 2 1.83664 35.2849 55.3682
13117 1 0.0132476 35.2655 54.0936
13060 1 2.7407 36.8699 54.0721
18717 2 3.64716 35.2444 52.8153
18682 2 6.37454 36.8478 52.7943
18680 2 4.56416 36.89 55.3463
13068 1 5.46949 35.2655 54.0936
18690 2 9.1034 35.2444 52.8153
18679 2 7.29287 35.2849 55.3682
18673 2 10.0204 36.89 55.3463
13038 1 8.19694 36.8699 54.0721
19025 2 2.75889 20.88 58.0738
19032 2 0.0311865 19.276 58.0856
13075 1 0.935651 20.8678 56.7975
19024 2 5.48742 19.276 58.0856
13050 1 6.39189 20.8678 56.7975
13092 1 3.6642 19.2646 56.8093
18990 2 8.21513 20.88 58.0738
13049 1 9.12044 19.2646 56.8093
19021 2 2.75801 24.0883 58.0471
19030 2 0.0303351 22.4841 58.0609
13074 1 0.934726 24.0745 56.7711
19026 2 5.48657 22.4841 58.0609
13043 1 6.39096 24.0745 56.7711
13073 1 3.66332 22.471 56.7848
18989 2 8.21424 24.0883 58.0471
13051 1 9.11955 22.471 56.7848
19020 2 2.75708 27.2973 58.0163
19031 2 0.0294283 25.6927 58.0322
13063 1 0.933747 27.2819 56.7406
19019 2 5.48567 25.6927 58.0322
13042 1 6.38999 27.2819 56.7406
13076 1 3.66236 25.6781 56.7564
18984 2 8.21332 27.2973 58.0163
13041 1 9.1186 25.6781 56.7564
19010 2 2.75613 30.5072 57.9812
19028 2 0.0284892 28.9022 57.9992
13062 1 0.932735 30.4903 56.706
13369 1 4.57887 30.5249 59.2595
19022 2 5.48473 28.9022 57.9992
13036 1 6.38897 30.4903 56.706
13061 1 3.66136 28.8859 56.7238
13323 1 10.0351 30.5249 59.2595
18983 2 8.21237 30.5072 57.9812
13044 1 9.1176 28.8859 56.7238
13384 1 1.85033 32.1311 59.24
19009 2 2.75517 33.7184 57.9417
19029 2 0.027535 32.1126 57.962
13059 1 0.931708 33.7 56.667
13356 1 4.57803 33.7377 59.2194
19008 2 5.48377 32.1126 57.962
13035 1 6.38795 33.7 56.667
13064 1 3.66034 32.0949 56.6871
13322 1 10.0343 33.7377 59.2194
13371 1 7.30657 32.1311 59.24
18970 2 8.21141 33.7184 57.9417
13034 1 9.11658 32.0949 56.6871
13385 1 1.8495 35.3446 59.1976
18999 2 2.7542 36.9311 57.8976
19027 2 0.02657 35.3245 57.9202
13058 1 0.930673 36.9115 56.6236
13355 1 4.57721 36.952 59.1746
19011 2 5.48281 35.3245 57.9202
13033 1 6.38691 36.9115 56.6236
13057 1 3.65931 35.3055 56.6459
13307 1 10.0334 36.952 59.1746
13354 1 7.30574 35.3446 59.1976
18969 2 8.21044 36.9311 57.8976
13037 1 9.11555 35.3055 56.6459
13391 1 1.8537 19.2876 59.3652
13374 1 2.77144 20.9171 61.9081
13390 1 0.0437046 19.3106 61.9203
19017 2 0.948673 20.9046 60.6289
13378 1 4.58142 20.8924 59.3532
13373 1 5.49994 19.3106 61.9203
18987 2 6.40491 20.9046 60.6289
19023 2 3.67719 19.2989 60.641
13332 1 10.0377 20.8924 59.3532
13380 1 7.30994 19.2876 59.3652
13329 1 8.22768 20.9171 61.9081
18986 2 9.13342 19.2989 60.641
13392 1 1.85288 22.4974 59.3403
13366 1 2.77066 24.1305 61.8807
13386 1 0.0429321 22.5237 61.895
19016 2 0.947854 24.1163 60.6017
13377 1 4.58058 24.1025 59.3263
13375 1 5.49917 22.5237 61.895
18981 2 6.40409 24.1163 60.6017
19015 2 3.67639 22.5104 60.6159
13331 1 10.0368 24.1025 59.3263
13376 1 7.30912 22.4974 59.3403
13328 1 8.22689 24.1305 61.8807
18988 2 9.13263 22.5104 60.6159
13388 1 1.85204 25.7078 59.3112
13365 1 2.76987 27.3444 61.8489
13387 1 0.042142 25.7374 61.8653
19006 2 0.947016 27.3286 60.5702
13370 1 4.57972 27.3132 59.2951
13364 1 5.49838 25.7374 61.8653
18980 2 6.40325 27.3286 60.5702
19018 2 3.67556 25.7223 60.5865
13330 1 10.036 27.3132 59.2951
13379 1 7.30827 25.7078 59.3112
13321 1 8.22611 27.3444 61.8489
18979 2 9.13179 25.7223 60.5865
13389 1 1.85118 28.9189 59.2778
13352 1 2.76911 30.5591 61.8125
13382 1 0.0413647 28.9516 61.8313
19005 2 0.946179 30.5417 60.5343
13367 1 5.4976 28.9516 61.8313
18967 2 6.40242 30.5417 60.5343
19004 2 3.67472 28.935 60.5528
13368 1 7.30741 28.9189 59.2778
13320 1 8.22535 30.5591 61.8125
18982 2 9.13095 28.935 60.5528
13351 1 2.76838 33.7747 61.7715
13383 1 0.0406196 32.1668 61.7926
18998 2 0.94535 33.7558 60.4938
13350 1 5.49686 32.1668 61.7926
18966 2 6.40159 33.7558 60.4938
19007 2 3.67388 32.1486 60.5146
13306 1 8.22462 33.7747 61.7715
18965 2 9.13012 32.1486 60.5146
13341 1 2.76766 36.9915 61.7256
13381 1 0.0399017 35.3829 61.7491
18997 2 0.944511 36.9712 60.4486
13353 1 5.49614 35.3829 61.7491
18949 2 6.40075 36.9712 60.4486
18996 2 3.67305 35.3633 60.4718
13305 1 8.2239 36.9915 61.7256
18968 2 9.12929 35.3633 60.4718
13362 1 0.961889 20.9417 64.4626
18973 2 2.78589 20.9534 65.7362
19012 2 0.0581713 19.3444 65.7486
19013 2 1.86745 19.3217 63.1954
13326 1 6.41813 20.9417 64.4626
13372 1 3.69039 19.3335 64.4749
18972 2 5.51441 19.3444 65.7486
18977 2 4.59518 20.9291 63.1831
13325 1 9.14663 19.3335 64.4749
18921 2 8.24213 20.9534 65.7362
18924 2 10.0514 20.9291 63.1831
18985 2 7.32369 19.3217 63.1954
13361 1 0.961101 24.1583 64.4347
18959 2 2.78506 24.1716 65.7082
19000 2 0.0573596 22.5625 65.7228
19014 2 1.86667 22.5365 63.1699
13318 1 6.41734 24.1583 64.4347
13360 1 3.68962 22.5499 64.4492
18974 2 5.5136 22.5625 65.7228
18976 2 4.59439 24.1441 63.1555
13327 1 9.14585 22.5499 64.4492
18920 2 8.2413 24.1716 65.7082
18923 2 10.0506 24.1441 63.1555
18975 2 7.32291 22.5365 63.1699
13348 1 0.960317 27.3754 64.4024
18958 2 2.78422 27.3903 65.6757
19001 2 0.0565219 25.7809 65.6925
19002 2 1.86586 25.7518 63.14
13317 1 6.41656 27.3754 64.4024
13363 1 3.68883 25.7668 64.4191
18957 2 5.51276 25.7809 65.6925
18963 2 4.59358 27.3596 63.1235
13316 1 9.14506 25.7668 64.4191
18913 2 8.24046 27.3903 65.6757
18922 2 10.0498 27.3596 63.1235
18978 2 7.3221 25.7518 63.14
13347 1 0.959564 30.593 64.3654
18944 2 2.7834 30.6095 65.6386
18992 2 0.0556872 28.9998 65.6578
19003 2 1.86506 28.9676 63.1057
13303 1 6.4158 30.593 64.3654
13346 1 3.68805 28.9842 64.3845
18960 2 5.51193 28.9998 65.6578
18962 2 4.59279 30.5757 63.0868
13319 1 9.14429 28.9842 64.3845
18912 2 8.23963 30.6095 65.6386
18915 2 10.049 30.5757 63.0868
18961 2 7.3213 28.9676 63.1057
13340 1 0.958853 33.8113 64.3237
18943 2 2.78259 33.8291 65.5967
18993 2 0.0548709 32.2192 65.6183
18994 2 1.86428 32.1841 63.0668
13302 1 6.41509 33.8113 64.3237
13349 1 3.68732 32.2021 64.3452
18942 2 5.51111 32.2192 65.6183
18948 2 4.59201 33.7926 63.0455
13301 1 9.14356 32.2021 64.3452
18898 2 8.23882 33.8291 65.5967
18914 2 10.0482 33.7926 63.0455
18964 2 7.32052 32.1841 63.0668
13339 1 0.958141 37.0303 64.277
18933 2 2.78176 37.0492 65.55
18991 2 0.0540624 35.4391 65.574
18995 2 1.8635 35.4014 63.0231
13286 1 6.41438 37.0303 64.277
13338 1 3.68661 35.4207 64.3009
18945 2 5.5103 35.4391 65.574
18947 2 4.59122 37.0105 62.9994
13304 1 9.14285 35.4207 64.3009
18897 2 8.238 37.0492 65.55
18899 2 10.0475 37.0105 62.9994
18946 2 7.31974 35.4014 63.0231
13358 1 1.88111 19.3567 67.0299
18955 2 0.976918 20.9773 68.2873
13314 1 4.60881 20.9665 67.0175
18918 2 6.43316 20.9773 68.2873
18971 2 3.70547 19.3666 68.2998
13266 1 10.0651 20.9665 67.0175
13324 1 7.33735 19.3567 67.0299
18917 2 9.16171 19.3666 68.2998
13359 1 1.88027 22.5764 67.004
18954 2 0.976009 24.1988 68.2591
13313 1 4.60796 24.1864 66.9893
18910 2 6.43225 24.1988 68.2591
18953 2 3.70459 22.588 68.2737
13265 1 10.0642 24.1864 66.9893
13312 1 7.33651 22.5764 67.004
18919 2 9.16083 22.588 68.2737
13344 1 1.87941 25.7965 66.9736
18940 2 0.975075 27.4207 68.2263
13299 1 4.6071 27.4066 66.9567
18909 2 6.43131 27.4207 68.2263
18956 2 3.70366 25.8097 68.2432
13264 1 10.0633 27.4066 66.9567
13315 1 7.33565 25.7965 66.9736
18908 2 9.1599 25.8097 68.2432
13345 1 1.87856 29.0168 66.9386
18939 2 0.97414 30.6428 68.1888
13298 1 4.60626 30.6271 66.9193
18895 2 6.43038 30.6428 68.1888
18938 2 3.70273 29.0317 68.2082
13257 1 10.0625 30.6271 66.9193
13297 1 7.33479 29.0168 66.9386
18911 2 9.15896 29.0317 68.2082
13336 1 1.87773 32.2375 66.8988
18932 2 0.973207 33.8652 68.1466
13285 1 4.60544 33.8479 66.8771
18894 2 6.42945 33.8652 68.1466
18941 2 3.70179 32.254 68.1683
13256 1 10.0617 33.8479 66.8771
13300 1 7.33397 32.2375 66.8988
18893 2 9.15803 32.254 68.1683
13337 1 1.87691 35.4584 66.8542
18931 2 0.972241 37.0877 68.0996
13284 1 4.60466 37.0687 66.83
18880 2 6.42848 37.0877 68.0996
18930 2 3.70085 35.4765 68.1237
13245 1 10.0609 37.0687 66.83
13283 1 7.33315 35.4584 66.8542
18896 2 9.15709 35.4765 68.1237
13291 1 0.984367 21.0152 72.1521
13310 1 2.79898 20.9907 69.5765
13357 1 0.0713281 19.3793 69.589
18951 2 1.89654 19.3879 70.8462
13260 1 6.44061 21.0152 72.1521
13308 1 3.71304 19.4022 72.1647
13309 1 5.52757 19.3793 69.589
18906 2 4.62417 21.0002 70.8337
13259 1 9.16928 19.4022 72.1647
13263 1 8.25522 20.9907 69.5765
18864 2 10.0804 21.0002 70.8337
18916 2 7.35278 19.3879 70.8462
13290 1 0.983197 24.2415 72.1236
13295 1 2.79801 24.2138 69.5481
13342 1 0.0703796 22.6022 69.5629
18952 2 1.89555 22.6126 70.82
13252 1 6.43944 24.2415 72.1236
13289 1 3.71191 22.6284 72.1384
13311 1 5.52662 22.6022 69.5629
18905 2 4.62314 24.225 70.8053
13261 1 9.16815 22.6284 72.1384
13262 1 8.25424 24.2138 69.5481
18863 2 10.0794 24.225 70.8053
18904 2 7.35178 22.6126 70.82
13277 1 0.981983 27.4678 72.0906
13294 1 2.79701 27.437 69.5152
13343 1 0.0693881 25.8254 69.5322
18936 2 1.89449 25.8376 70.7894
13251 1 6.43822 27.4678 72.0906
13292 1 3.71071 25.8546 72.1077
13293 1 5.52563 25.8254 69.5322
18891 2 4.62207 27.4501 70.7723
13250 1 9.16695 25.8546 72.1077
13255 1 8.25325 27.437 69.5152
18862 2 10.0783 27.4501 70.7723
18907 2 7.35073 25.8376 70.7894
13276 1 0.980773 30.694 72.0528
13281 1 2.79602 30.6604 69.4776
13334 1 0.0683908 29.0487 69.497
18937 2 1.89341 29.0628 70.7541
13241 1 6.43701 30.694 72.0528
13275 1 3.70949 29.0809 72.0723
13296 1 5.52463 29.0487 69.497
18890 2 4.62098 30.6754 70.7347
13253 1 9.16573 29.0809 72.0723
13254 1 8.25226 30.6604 69.4776
18856 2 10.0772 30.6754 70.7347
18889 2 7.34965 29.0628 70.7541
13271 1 0.979599 33.9199 72.0103
13280 1 2.79505 33.8838 69.4351
13335 1 0.0674115 32.2721 69.457
18928 2 1.89232 32.2881 70.7141
13240 1 6.43584 33.9199 72.0103
13278 1 3.7083 32.307 72.0322
13279 1 5.52365 32.2721 69.457
18879 2 4.6199 33.9007 70.6924
13239 1 9.16454 32.307 72.0322
13244 1 8.25129 33.8838 69.4351
18855 2 10.0761 33.9007 70.6924
18892 2 7.34856 32.2881 70.7141
13270 1 0.978457 37.1451 71.9631
13272 1 2.79407 37.107 69.3879
13333 1 0.0664444 35.4954 69.4121
18929 2 1.89122 35.5133 70.6694
13234 1 6.4347 37.1451 71.9631
13269 1 3.70715 35.5326 71.9873
13282 1 5.52268 35.4954 69.4121
18878 2 4.61878 37.1257 70.6453
13242 1 9.16338 35.5326 71.9873
13243 1 8.25031 37.107 69.3879
18848 2 10.075 37.1257 70.6453
18877 2 7.34746 35.5133 70.6694
13287 1 1.83944 19.4336 74.8159
18883 2 0.975286 21.0499 75.8398
18902 2 2.81344 21.0224 73.3655
18950 2 0.0858837 19.4085 73.3781
13248 1 4.56684 21.0482 74.8033
18858 2 6.43152 21.0499 75.8398
18900 2 3.70409 19.4345 75.8524
18901 2 5.54212 19.4085 73.3781
13230 1 10.0231 21.0482 74.8033
13258 1 7.29568 19.4336 74.8159
18857 2 9.16033 19.4345 75.8524
18861 2 8.26968 21.0224 73.3655
13288 1 1.83798 22.6627 74.7896
18882 2 0.973824 24.2807 75.8113
18887 2 2.81225 24.2505 73.337
18934 2 0.0847394 22.6364 73.3518
13247 1 4.56535 24.2772 74.7748
18851 2 6.43006 24.2807 75.8113
18881 2 3.70269 22.6653 75.8261
18903 2 5.54098 22.6364 73.3518
13229 1 10.0216 24.2772 74.7748
13246 1 7.29422 22.6627 74.7896
18859 2 9.15892 22.6653 75.8261
18860 2 8.26849 24.2505 73.337
13273 1 1.83648 25.8914 74.7589
18871 2 0.972304 27.5115 75.7784
18886 2 2.81099 27.4789 73.304
18935 2 0.0835088 25.8647 73.3211
13237 1 4.56386 27.5056 74.7418
18850 2 6.42854 27.5115 75.7784
18884 2 3.70119 25.8961 75.7954
18885 2 5.53975 25.8647 73.3211
13228 1 10.0201 27.5056 74.7418
13249 1 7.29272 25.8914 74.7589
18849 2 9.15742 25.8961 75.7954
18854 2 8.26723 27.4789 73.304
13274 1 1.83504 29.1195 74.7236
18870 2 0.970813 30.742 75.7409
18875 2 2.80972 30.7074 73.2663
18926 2 0.0822364 29.0931 73.2857
13236 1 4.56251 30.7332 74.7042
18844 2 6.42705 30.742 75.7409
18869 2 3.69967 29.1268 75.7602
18888 2 5.53847 29.0931 73.2857
13227 1 10.0187 30.7332 74.7042
13235 1 7.29128 29.1195 74.7236
18852 2 9.15591 29.1268 75.7602
18853 2 8.26595 30.7074 73.2663
13267 1 1.83381 32.3467 74.6836
18867 2 0.969437 33.9719 75.6989
18874 2 2.80844 33.9357 73.224
18927 2 0.0809598 32.3216 73.2458
13233 1 4.56143 33.9599 74.6619
18843 2 6.42568 33.9719 75.6989
18872 2 3.69823 32.357 75.7204
18873 2 5.5372 32.3216 73.2458
13226 1 10.0177 33.9599 74.6619
13238 1 7.29004 32.3467 74.6836
18842 2 9.15446 32.357 75.7204
18847 2 8.26468 33.9357 73.224
13268 1 1.83291 35.5728 74.639
18866 2 0.968231 37.2007 75.6524
18868 2 2.80717 37.1635 73.1771
18925 2 0.079691 35.5497 73.2011
13232 1 4.56073 37.1853 74.615
18841 2 6.42447 37.2007 75.6524
18865 2 3.69693 35.5865 75.6761
18876 2 5.53593 35.5497 73.2011
13225 1 10.017 37.1853 74.615
13231 1 7.28915 35.5728 74.639
18845 2 9.15317 35.5865 75.6761
18846 2 8.26341 37.1635 73.1771
7137 2 0.914115 39.1775 -1.17868
7145 2 2.73052 39.145 -3.68226
960 1 1.82058 40.74 -2.64538
7150 2 0.00419819 40.7177 -3.70564
946 1 4.54552 39.1666 -2.62156
7107 2 6.37035 39.1775 -1.17868
7135 2 3.64333 40.7503 -1.20255
7146 2 5.46044 40.7177 -3.70564
900 1 10.0018 39.1666 -2.62156
7110 2 8.18676 39.145 -3.68226
944 1 7.27682 40.74 -2.64538
7108 2 9.09957 40.7503 -1.20255
7136 2 0.916314 42.3238 -1.22678
7141 2 2.73415 42.2913 -3.72935
956 1 1.82727 43.8894 -2.694
7151 2 0.00790441 43.8659 -3.75329
945 1 4.552 42.3143 -2.66957
7101 2 6.37255 42.3238 -1.22678
7138 2 3.64553 43.8982 -1.25126
7139 2 5.46414 43.8659 -3.75329
899 1 10.0082 42.3143 -2.66957
7109 2 8.19039 42.2913 -3.72935
947 1 7.2835 43.8894 -2.694
7099 2 9.10177 43.8982 -1.25126
7126 2 0.9185 45.4733 -1.27587
7140 2 2.73792 45.4415 -3.77732
957 1 1.83423 47.0423 -2.7431
7148 2 0.0117075 47.0182 -3.80133
938 1 4.55884 45.4654 -2.71856
7100 2 6.37474 45.4733 -1.27587
7124 2 3.64771 47.0494 -1.30046
7142 2 5.46795 47.0182 -3.80133
898 1 10.0151 45.4654 -2.71856
7104 2 8.19415 45.4415 -3.77732
936 1 7.29047 47.0423 -2.7431
7102 2 9.10394 47.0494 -1.30046
7125 2 0.92067 48.6263 -1.32491
7130 2 2.74175 48.5959 -3.82517
952 1 1.84131 50.1991 -2.79162
7149 2 0.0155506 50.1748 -3.84872
937 1 4.56589 48.6202 -2.76751
7087 2 6.37691 48.6263 -1.32491
7127 2 3.64987 50.2043 -1.34907
7128 2 5.47179 50.1748 -3.84872
891 1 10.0221 48.6202 -2.76751
7103 2 8.19799 48.5959 -3.82517
939 1 7.29755 50.1991 -2.79162
7085 2 9.10611 50.2043 -1.34907
7118 2 0.92283 51.7831 -1.37279
7129 2 2.74559 51.7548 -3.87182
953 1 1.84829 53.3596 -2.83834
7147 2 0.0193729 53.3359 -3.89433
924 1 4.57294 51.7789 -2.81528
7086 2 6.37907 51.7831 -1.37279
7116 2 3.65203 53.363 -1.39591
7131 2 5.47561 53.3359 -3.89433
890 1 10.0292 51.7789 -2.81528
7090 2 8.20183 51.7548 -3.87182
922 1 7.30453 53.3596 -2.83834
7088 2 9.10826 53.363 -1.39591
7117 2 0.924981 54.9439 -1.41827
7119 2 2.74937 54.9182 -3.91609
1343 1 1.85497 56.5239 -2.88205
7560 2 0.0231031 56.5015 -3.93697
923 1 4.5798 54.9413 -2.86065
7069 2 6.38122 54.9439 -1.41827
7551 2 3.65417 56.5257 -1.43974
7552 2 5.47934 56.5015 -3.93697
875 1 10.036 54.9413 -2.86065
7089 2 8.20561 54.9182 -3.91609
1332 1 7.31121 56.5239 -2.88205
7514 2 9.11041 56.5257 -1.43974
942 1 2.73202 39.1968 0.0430212
954 1 0.00536064 40.77 0.0189779
7134 2 1.82458 40.7855 1.34987
7097 2 4.55139 39.2124 1.37405
943 1 5.4616 40.77 0.0189779
897 1 8.18826 39.1968 0.0430212
7044 2 10.0076 39.2124 1.37405
7095 2 7.28082 40.7855 1.34987
934 1 2.73495 42.3439 -0.00543419
955 1 0.00830212 43.9184 -0.0301001
7122 2 1.82721 43.9335 1.30048
7096 2 4.55401 42.3592 1.32531
931 1 3.6462 43.9517 2.56498
932 1 5.46454 43.9184 -0.0301001
896 1 8.19119 42.3439 -0.00543419
7043 2 10.0103 42.3592 1.32531
884 1 9.10243 43.9517 2.56498
7098 2 7.28344 43.9335 1.30048
916 1 0.919556 45.5266 2.53975
933 1 2.7379 45.4937 -0.054895
950 1 0.0112531 47.0698 -0.0796853
7123 2 1.82981 47.0841 1.25052
885 1 6.37579 45.5266 2.53975
7083 2 4.55663 45.5084 1.27551
914 1 3.64915 47.1021 2.51449
935 1 5.46749 47.0698 -0.0796853
889 1 8.19414 45.4937 -0.054895
7042 2 10.0129 45.5084 1.27551
887 1 9.10539 47.1021 2.51449
7081 2 7.28605 47.0841 1.25052
915 1 0.922486 48.6783 2.48936
920 1 2.74084 48.6467 -0.104329
951 1 0.0141819 50.2244 -0.128679
7114 2 1.83237 50.2376 1.2011
871 1 6.37872 48.6783 2.48936
7082 2 4.55921 48.6604 1.22567
917 1 3.65205 50.2551 2.46451
918 1 5.47042 50.2244 -0.128679
888 1 8.19708 48.6467 -0.104329
7035 2 10.0155 48.6604 1.22567
869 1 9.10829 50.2551 2.46451
7084 2 7.28861 50.2376 1.2011
908 1 0.92535 51.8327 2.4401
919 1 2.74375 51.803 -0.15258
949 1 0.0170596 53.3824 -0.175878
7115 2 1.83487 53.3943 1.15342
870 1 6.38159 51.8327 2.4401
7068 2 4.56175 51.8155 1.17697
906 1 3.65487 53.4109 2.41627
921 1 5.4733 53.3824 -0.175878
874 1 8.19999 51.803 -0.15258
7034 2 10.018 51.8155 1.17697
872 1 9.11111 53.4109 2.41627
7066 2 7.29111 53.3943 1.15342
907 1 0.928123 54.9898 2.39321
909 1 2.74659 54.9626 -0.198414
1342 1 0.0198515 56.5437 -0.220032
7541 2 1.8373 56.5542 1.10876
853 1 6.38436 54.9898 2.39321
7067 2 4.56422 54.9738 1.13064
1324 1 3.65759 56.5695 2.37108
1325 1 5.47609 56.5437 -0.220032
873 1 8.20283 54.9626 -0.198414
7019 2 10.0205 54.9738 1.13064
1277 1 9.11382 56.5695 2.37108
7513 2 7.29354 56.5542 1.10876
930 1 0.913635 39.2302 2.63925
7093 2 2.73228 39.2461 3.94033
927 1 1.82439 40.8364 5.19545
7120 2 0.00567179 40.8193 3.9159
894 1 6.36987 39.2302 2.63925
928 1 3.64323 40.8035 2.61485
882 1 4.55087 39.263 5.22015
7094 2 5.46191 40.8193 3.9159
895 1 9.09947 40.8035 2.61485
828 1 10.0071 39.263 5.22015
7041 2 8.18852 39.2461 3.94033
880 1 7.28062 40.8364 5.19545
929 1 0.916592 42.3773 2.59006
7079 2 2.73531 42.393 3.89106
912 1 1.82768 43.9841 5.14485
7121 2 0.00872029 43.9671 3.86592
886 1 6.37283 42.3773 2.59006
881 1 4.55415 42.41 5.17032
7077 2 5.46496 43.9671 3.86592
827 1 10.0104 42.41 5.17032
7040 2 8.19155 42.393 3.89106
883 1 7.28392 43.9841 5.14485
7078 2 2.73836 45.5417 3.84061
913 1 1.83096 47.1335 5.09348
7112 2 0.0117535 47.1169 3.81526
867 1 4.55744 45.5586 5.1192
7080 2 5.46799 47.1169 3.81526
826 1 10.0137 45.5586 5.1192
7033 2 8.1946 45.5417 3.84061
865 1 7.28719 47.1335 5.09348
7064 2 2.74137 48.6926 3.79002
904 1 1.83417 50.2848 5.04247
7113 2 0.014731 50.269 3.76504
866 1 4.56069 48.7089 5.06785
7062 2 5.47097 50.269 3.76504
819 1 10.0169 48.7089 5.06785
7032 2 8.19761 48.6926 3.79002
868 1 7.29041 50.2848 5.04247
7063 2 2.74431 51.846 3.74048
905 1 1.83728 53.4382 4.99352
7111 2 0.0176239 53.4236 3.7165
852 1 4.56385 51.8613 5.01749
7065 2 5.47386 53.4236 3.7165
818 1 10.0201 51.8613 5.01749
7018 2 8.20055 51.846 3.74048
850 1 7.29352 53.4382 4.99352
7053 2 2.74715 55.0018 3.69327
1310 1 1.84027 56.5941 4.94722
7540 2 0.0204081 56.5808 3.67095
851 1 4.56691 55.0158 4.9699
7500 2 5.47665 56.5808 3.67095
804 1 10.0231 55.0158 4.9699
7017 2 8.20339 55.0018 3.69327
1276 1 7.29651 56.5941 4.94722
878 1 2.73154 39.2949 7.79667
7075 2 0.913056 39.2787 6.51157
910 1 0.00521725 40.8681 7.77175
7072 2 1.82349 40.8839 9.06023
7026 2 4.54976 39.3106 9.08507
7038 2 6.36929 39.2787 6.51157
879 1 5.46146 40.8681 7.77175
7073 2 3.64287 40.852 6.48691
825 1 8.18778 39.2949 7.79667
6984 2 10.006 39.3106 9.08507
7024 2 7.27973 40.8839 9.06023
7039 2 9.09911 40.852 6.48691
863 1 2.73515 42.4416 7.74634
7074 2 0.91646 42.4256 6.46179
911 1 0.00886442 44.0153 7.72055
7056 2 1.82727 44.0308 9.00914
7025 2 4.55349 42.4572 9.03489
7030 2 6.3727 42.4256 6.46179
861 1 5.4651 44.0153 7.72055
7076 2 3.6463 43.9994 6.43632
824 1 8.19139 42.4416 7.74634
6983 2 10.0097 42.4572 9.03489
7027 2 7.28351 44.0308 9.00914
7028 2 9.10254 43.9994 6.43632
862 1 2.73881 45.5893 7.6945
7060 2 0.919895 45.5736 6.41064
902 1 0.0125124 47.1636 7.66835
7057 2 1.83108 47.1784 8.95693
7011 2 4.5573 45.6045 8.9831
7029 2 6.37613 45.5736 6.41064
864 1 5.46875 47.1636 7.66835
7058 2 3.64972 47.1482 6.38488
817 1 8.19505 45.5893 7.6945
6982 2 10.0135 45.6045 8.9831
7009 2 7.28732 47.1784 8.95693
7031 2 9.10596 47.1482 6.38488
848 1 2.74243 48.7382 7.64223
7059 2 0.923289 48.7232 6.35919
903 1 0.0160796 50.3132 7.61632
7048 2 1.83485 50.3271 8.90477
7010 2 4.5611 48.7526 8.93076
7015 2 6.37953 48.7232 6.35919
846 1 5.47232 50.3132 7.61632
7061 2 3.65307 50.2987 6.33372
816 1 8.19867 48.7382 7.64223
6976 2 10.0173 48.7526 8.93076
7012 2 7.29109 50.3271 8.90477
7013 2 9.10931 50.2987 6.33372
847 1 2.74596 51.8886 7.59084
7052 2 0.926575 51.8746 6.30868
901 1 0.0195407 53.4645 7.5659
7049 2 1.83851 53.4773 8.85397
6999 2 4.56482 51.902 8.87912
7014 2 6.38281 51.8746 6.30868
849 1 5.47578 53.4645 7.5659
7050 2 3.65633 53.4511 6.28418
803 1 8.2022 51.8886 7.59084
6975 2 10.0211 51.902 8.87912
6997 2 7.29475 53.4773 8.85397
7016 2 9.11257 53.4511 6.28418
837 1 2.74933 55.041 7.54166
7051 2 0.92979 55.0281 6.26039
1309 1 0.0228325 56.6179 7.5183
7479 2 1.84202 56.6293 8.80598
6998 2 4.56841 55.0531 8.82953
7000 2 6.38603 55.0281 6.26039
1261 1 5.47907 56.6179 7.5183
7499 2 3.65945 56.6057 6.23751
802 1 8.20557 55.041 7.54166
6968 2 10.0246 55.0531 8.82953
7444 2 7.29826 56.6293 8.80598
7445 2 9.11568 56.6057 6.23751
859 1 0.911818 39.3263 10.3722
7022 2 2.72982 39.3423 11.6598
7054 2 0.00368225 40.9156 11.6349
822 1 6.36806 39.3263 10.3722
857 1 3.64188 40.8996 10.3472
7023 2 5.45992 40.9156 11.6349
6981 2 8.18606 39.3423 11.6598
823 1 9.09812 40.8996 10.3472
858 1 0.915738 42.4728 10.3216
7007 2 2.73383 42.4888 11.6094
7055 2 0.00778881 44.0619 11.5834
814 1 6.37198 42.4728 10.3216
860 1 3.64586 44.0461 10.2955
7005 2 5.46403 44.0619 11.5834
6980 2 8.19007 42.4888 11.6094
812 1 9.1021 44.0461 10.2955
844 1 0.919766 45.6195 10.2691
7006 2 2.73801 45.6351 11.5571
7046 2 0.0120059 47.2084 11.5305
813 1 6.376 45.6195 10.2691
842 1 3.64991 47.1931 10.2425
7008 2 5.46824 47.2084 11.5305
6974 2 8.19425 45.6351 11.5571
815 1 9.10614 47.1931 10.2425
843 1 0.923796 48.7669 10.2159
6995 2 2.74224 48.7818 11.5038
7047 2 0.0162281 50.3553 11.4772
800 1 6.38003 48.7669 10.2159
845 1 3.65391 50.3409 10.1894
6993 2 5.47247 50.3553 11.4772
6973 2 8.19848 48.7818 11.5038
798 1 9.11014 50.3409 10.1894
836 1 0.927747 51.9153 10.1633
6994 2 2.74643 51.9291 11.4509
7045 2 0.0203669 53.5032 11.425
799 1 6.38399 51.9153 10.1633
834 1 3.65778 53.49 10.1376
6996 2 5.47661 53.5032 11.425
6967 2 8.20267 51.9291 11.4509
801 1 9.11402 53.49 10.1376
835 1 0.931544 55.0651 10.1126
6988 2 2.7505 55.0776 11.3998
7478 2 0.0243612 56.6524 11.3754
789 1 6.38778 55.0651 10.1126
1260 1 3.66149 56.6407 10.0884
7429 2 5.4806 56.6524 11.3754
6966 2 8.20674 55.0776 11.3998
1205 1 9.11773 56.6407 10.0884
806 1 2.7272 39.3908 15.5244
7003 2 0.909424 39.3746 14.2355
856 1 1.82181 40.9313 12.9229
805 1 5.4533 37.8172 15.5486
810 1 4.54788 39.3581 12.948
6978 2 6.36566 39.3746 14.2355
7001 2 3.63961 40.9479 14.2106
3926 1 10.9095 37.8172 15.5486
777 1 8.18344 39.3908 15.5244
780 1 10.0041 39.3581 12.948
808 1 7.27805 40.9313 12.9229
6979 2 9.09585 40.9479 14.2106
792 1 2.73155 42.537 15.4737
838 1 0.0012035 40.964 15.4994
7002 2 0.913651 42.5209 14.185
840 1 1.82611 44.0773 12.871
807 1 5.45744 40.964 15.4994
809 1 4.55206 42.5043 12.8972
6971 2 6.36989 42.5209 14.185
7004 2 3.644 44.0938 14.1589
776 1 8.18779 42.537 15.4737
779 1 10.0083 42.5043 12.8972
811 1 7.28235 44.0773 12.871
6969 2 9.10024 44.0938 14.1589
791 1 2.73627 45.682 15.4204
839 1 0.00575088 44.1096 15.4473
6991 2 0.918169 45.6665 14.1323
841 1 1.83056 47.223 12.8173
790 1 5.46199 44.1096 15.4473
796 1 4.55644 45.6501 12.8443
6970 2 6.37441 45.6665 14.1323
6989 2 3.64862 47.2391 14.1053
773 1 8.1925 45.682 15.4204
778 1 10.0127 45.6501 12.8443
6972 2 9.10486 47.2391 14.1053
794 1 7.2868 47.223 12.8173
832 1 1.83504 50.3689 12.763
784 1 2.74122 48.8262 15.3654
830 1 0.0106026 47.2542 15.3931
6990 2 0.922857 48.8116 14.0781
831 1 0.0156103 50.3982 15.3376
793 1 5.46684 47.2542 15.3931
795 1 4.56092 48.7959 12.7901
6964 2 6.3791 48.8116 14.0781
6992 2 3.65334 50.3842 14.0509
782 1 5.47185 50.3982 15.3376
797 1 7.29128 50.3689 12.763
772 1 8.19745 48.8262 15.3654
775 1 10.0172 48.7959 12.7901
6962 2 9.10958 50.3842 14.0509
833 1 1.83944 53.5156 12.7096
6987 2 0.927584 51.9568 14.0238
783 1 2.74624 51.9702 15.3099
829 1 0.0206233 53.5423 15.2825
6963 2 6.38382 51.9568 14.0238
788 1 4.56537 51.9421 12.7361
6985 2 3.65805 53.5296 13.9971
785 1 5.47686 53.5423 15.2825
6965 2 9.11429 53.5296 13.9971
774 1 10.0216 51.9421 12.7361
770 1 8.20248 51.9702 15.3099
786 1 7.29567 53.5156 12.7096
6986 2 0.932247 55.1027 13.971
781 1 2.75122 55.1146 15.2555
1239 1 1.84368 56.6635 12.6586
1238 1 0.0255481 56.6871 15.2294
6961 2 6.38849 55.1027 13.971
787 1 4.5697 55.0894 12.6837
1189 1 5.48179 56.6871 15.2294
7428 2 3.66266 56.676 13.9457
1204 1 7.29992 56.6635 12.6586
771 1 10.0259 55.0894 12.6837
769 1 8.20746 55.1146 15.2555
7385 2 9.1189 56.676 13.9457
7343 2 1.81466 37.8342 16.8358
1150 1 0.905989 39.425 18.1013
1152 1 3.63213 37.851 18.1252
7330 2 4.54476 39.408 16.8119
1127 1 6.36223 39.425 18.1013
7332 2 7.2709 37.8342 16.8358
1126 1 9.08837 37.851 18.1252
7284 2 10.001 39.408 16.8119
7344 2 1.81875 40.9815 16.7871
1149 1 0.910394 42.5715 18.051
1148 1 3.63624 40.9985 18.0765
7329 2 4.5491 42.5546 16.7616
1123 1 6.36663 42.5715 18.051
7328 2 7.27499 40.9815 16.7871
1128 1 9.09248 40.9985 18.0765
7283 2 10.0053 42.5546 16.7616
7340 2 1.82333 44.1272 16.7354
1143 1 0.915356 45.716 17.9977
7322 2 4.5539 45.6995 16.7087
1122 1 6.37159 45.716 17.9977
1151 1 3.64093 44.144 18.0247
7331 2 7.27957 44.1272 16.7354
1121 1 9.09717 44.144 18.0247
7282 2 10.0101 45.6995 16.7087
7341 2 1.82833 47.2715 16.6814
1142 1 0.920765 48.8588 17.942
7304 2 2.73819 48.8777 19.2307
7321 2 4.55905 48.8432 16.6537
1111 1 6.377 48.8588 17.942
1141 1 3.64613 47.2876 17.9701
1124 1 9.10237 47.2876 17.9701
7272 2 8.19443 48.8777 19.2307
7275 2 10.0153 48.8432 16.6537
7320 2 7.28456 47.2715 16.6814
7336 2 1.83359 50.4148 16.6259
7335 2 0.0130297 50.4483 19.2023
1136 1 0.926439 52.0005 17.885
7303 2 2.74418 52.0186 19.1736
1110 1 6.38268 52.0005 17.885
1144 1 3.6517 50.4297 17.9136
7302 2 5.46927 50.4483 19.2023
7308 2 4.56439 51.9862 16.598
7323 2 7.28983 50.4148 16.6259
1109 1 9.10794 50.4297 17.9136
7258 2 8.20042 52.0186 19.1736
7274 2 10.0206 51.9862 16.598
7337 2 1.83896 53.5577 16.5704
7333 2 0.019157 53.5887 19.1449
1135 1 0.932196 55.1419 17.8284
7293 2 2.75041 55.1586 19.1165
7751 2 1.84433 56.701 16.5167
1093 1 6.38843 55.1419 17.8284
1134 1 3.65743 53.5712 17.8565
7305 2 5.4754 53.5887 19.1449
7307 2 4.56977 55.1293 16.5431
1112 1 9.11367 53.5712 17.8565
7257 2 8.20664 55.1586 19.1165
7259 2 10.026 55.1293 16.5431
7306 2 7.2952 53.5577 16.5704
7740 2 7.30057 56.701 16.5167
7326 2 2.72335 39.4432 19.3888
1146 1 1.81054 37.8865 20.702
7314 2 0.901501 39.4807 21.966
7324 2 3.62789 37.9054 21.989
7325 2 5.44957 37.8688 19.4124
1119 1 4.54051 39.4613 20.6786
7278 2 6.35774 39.4807 21.966
1125 1 7.26678 37.8865 20.702
7281 2 8.17959 39.4432 19.3888
1068 1 9.99675 39.4613 20.6786
7277 2 9.08413 37.9054 21.989
10606 2 10.9058 37.8688 19.4124
7318 2 2.72766 42.5904 19.3391
1147 1 1.81444 41.0353 20.6543
7313 2 0.905564 42.6291 21.9172
7312 2 3.63155 41.0553 21.942
7327 2 5.45354 41.0171 19.3644
1118 1 4.54479 42.6087 20.6291
7270 2 6.3618 42.6291 21.9172
1117 1 7.27067 41.0353 20.6543
7280 2 8.1839 42.5904 19.3391
1067 1 10.001 42.6087 20.6291
7279 2 9.08778 41.0553 21.942
10602 2 10.9098 41.0171 19.3644
7339 2 0.00194679 44.1631 19.313
7317 2 2.73263 45.7352 19.2862
1139 1 1.8191 44.1813 20.603
7300 2 0.910507 45.7743 21.8648
7315 2 3.63604 44.2021 21.8914
7316 2 5.45819 44.1631 19.313
1107 1 4.54985 45.7532 20.5761
7269 2 6.36675 45.7743 21.8648
7273 2 8.18887 45.7352 19.2862
1066 1 10.0061 45.7532 20.5761
1120 1 7.27534 44.1813 20.603
7268 2 9.09228 44.2021 21.8914
7334 2 0.00722902 47.3067 19.2587
1140 1 1.82454 47.3244 20.5485
7299 2 0.916347 48.9163 21.8092
7319 2 5.46347 47.3067 19.2587
1106 1 4.55563 48.895 20.5201
7255 2 6.37259 48.9163 21.8092
7298 2 3.64144 47.3457 21.8374
1059 1 10.0119 48.895 20.5201
1105 1 7.28077 47.3244 20.5485
7271 2 9.09768 47.3457 21.8374
1132 1 1.83063 50.4649 20.4911
7292 2 0.922972 52.0553 21.7508
1092 1 4.56198 52.0344 20.4617
7254 2 6.37921 52.0553 21.7508
7301 2 3.64769 50.4861 21.7803
1058 1 10.0182 52.0344 20.4617
1108 1 7.28687 50.4649 20.4911
7253 2 9.10393 50.4861 21.7803
1133 1 1.83717 53.6036 20.4322
7291 2 0.930146 55.1923 21.6913
1091 1 4.56865 55.1726 20.4027
7237 2 6.38638 55.1923 21.6913
7290 2 3.65463 53.624 21.7211
1043 1 10.0249 55.1726 20.4027
1090 1 7.29341 53.6036 20.4322
7256 2 9.11086 53.624 21.7211
1099 1 0.89602 39.5414 25.8331
1115 1 2.71839 39.5 23.256
7310 2 1.80601 37.9441 24.5654
1113 1 3.62286 37.9642 25.8551
1062 1 6.35226 39.5414 25.8331
1114 1 5.44488 37.9242 23.2788
7266 2 4.53557 39.5206 24.543
7276 2 7.26225 37.9441 24.5654
1061 1 9.0791 37.9642 25.8551
1065 1 8.17462 39.5 23.256
7212 2 9.99181 39.5206 24.543
4217 1 10.9011 37.9242 23.2788
1098 1 0.899267 42.6931 25.7863
1103 1 2.72229 42.6491 23.2077
7311 2 1.80911 41.0963 24.5197
1097 1 3.62564 41.1177 25.8102
1054 1 6.35551 42.6931 25.7863
1116 1 5.44834 41.075 23.2323
7265 2 4.53913 42.6711 24.4955
7264 2 7.26535 41.0963 24.5197
1063 1 9.08187 41.1177 25.8102
1064 1 8.17853 42.6491 23.2077
7211 2 9.99537 42.6711 24.4955
4209 1 10.9046 41.075 23.2323
1084 1 0.903663 45.8405 25.7356
1102 1 2.72719 45.7945 23.1556
7296 2 1.81318 44.245 24.4703
1100 1 3.62942 44.2674 25.7615
1053 1 6.3599 45.8405 25.7356
1101 1 5.45273 44.2222 23.1821
7251 2 4.54375 45.8178 24.4442
7267 2 7.26942 44.245 24.4703
1052 1 9.08566 44.2674 25.7615
1057 1 8.18343 45.7945 23.1556
7210 2 9.99999 45.8178 24.4442
4210 1 10.909 44.2222 23.1821
1083 1 0.909454 48.9829 25.6806
1088 1 2.73316 48.9359 23.0997
1130 1 0.00192407 47.3657 23.1281
7297 2 1.81839 47.3895 24.417
1082 1 3.63449 47.4124 25.7087
1039 1 6.36569 48.9829 25.6806
1104 1 5.45816 47.3657 23.1281
7250 2 4.54959 48.9601 24.3889
7249 2 7.27463 47.3895 24.417
1055 1 9.09073 47.4124 25.7087
1056 1 8.1894 48.9359 23.0997
7203 2 10.0058 48.9601 24.3889
1076 1 0.916758 52.1199 25.6212
1087 1 2.74012 52.0736 23.0404
1131 1 0.00840964 50.5052 23.0704
7288 2 1.82487 50.5296 24.3598
1038 1 6.373 52.1199 25.6212
1085 1 3.64104 50.5521 25.6515
1086 1 5.46465 50.5052 23.0704
7236 2 4.55669 52.098 24.3299
1037 1 9.09728 50.5521 25.6515
1042 1 8.19636 52.0736 23.0404
7202 2 10.0129 52.098 24.3299
7252 2 7.28111 50.5296 24.3598
1075 1 0.925413 55.2518 25.5576
1077 1 2.74779 55.2085 22.9788
1129 1 0.0157674 53.6413 23.0098
7289 2 1.83254 53.6655 24.2993
1022 1 6.38165 55.2518 25.5576
1074 1 3.64906 53.6864 25.5898
1089 1 5.47201 53.6413 23.0098
7235 2 4.56485 55.2321 24.2681
1040 1 9.1053 53.6864 25.5898
1041 1 8.20403 55.2085 22.9788
7188 2 10.0211 55.2321 24.2681
7234 2 7.28878 53.6655 24.2993
1095 1 1.80099 38.0064 28.4304
7262 2 2.71332 39.5632 27.1194
1050 1 4.52993 39.5855 28.4092
7261 2 5.44038 37.9851 27.1411
1060 1 7.25722 38.0064 28.4304
1002 1 9.98617 39.5855 28.4092
7209 2 8.16956 39.5632 27.1194
10573 2 10.8966 37.9851 27.1411
1096 1 1.80284 41.1637 28.3871
7247 2 2.71609 42.7169 27.0735
1049 1 4.53223 42.7409 28.3642
7263 2 5.4427 41.1405 27.0969
1048 1 7.25908 41.1637 28.3871
1001 1 9.98847 42.7409 28.3642
7208 2 8.17233 42.7169 27.0735
10558 2 10.8989 41.1405 27.0969
1080 1 1.80567 44.317 28.3403
7246 2 2.72001 45.8662 27.0237
1035 1 4.5357 45.8918 28.3154
7245 2 5.44601 44.2921 27.0491
1051 1 7.26191 44.317 28.3403
1000 1 9.99194 45.8918 28.3154
7201 2 8.17625 45.8662 27.0237
10559 2 10.9022 44.2921 27.0491
1081 1 1.80989 47.4652 28.2895
7232 2 2.72541 49.0103 26.9696
1034 1 4.54077 49.037 28.2623
7248 2 5.45063 47.4389 26.9972
1033 1 7.26613 47.4652 28.2895
993 1 9.99701 49.037 28.2623
7200 2 8.18165 49.0103 26.9696
10550 2 10.9069 47.4389 26.9972
1072 1 1.81592 50.607 28.2338
7231 2 2.73257 52.1484 26.9108
7287 2 0.000636623 50.5801 26.9408
1021 1 4.54787 52.1751 28.2039
7230 2 5.45688 50.5801 26.9408
1036 1 7.27216 50.607 28.2338
992 1 10.0041 52.1751 28.2039
7187 2 8.1888 52.1484 26.9108
1073 1 1.82413 53.7413 28.1725
7221 2 2.74154 55.2805 26.8473
7285 2 0.00871861 53.7152 26.8796
1020 1 4.55717 55.3055 28.1396
7233 2 5.46496 53.7152 26.8796
981 1 10.0134 55.3055 28.1396
1019 1 7.28037 53.7413 28.1725
7186 2 8.19778 55.2805 26.8473
1046 1 2.708 39.632 30.9837
7239 2 1.79791 38.0733 32.288
7243 2 0.891288 39.6085 29.6946
7260 2 3.61882 38.0282 29.7154
1045 1 5.43581 38.0506 31.004
7194 2 4.5261 39.656 32.2678
7206 2 6.34753 39.6085 29.6946
7204 2 7.25415 38.0733 32.288
999 1 8.16424 39.632 30.9837
7164 2 9.98234 39.656 32.2678
7205 2 9.07506 38.0282 29.7154
4166 1 10.892 38.0506 31.004
1031 1 2.70912 42.7923 30.9406
7240 2 1.79819 41.238 32.247
7242 2 0.893035 42.7663 29.6504
7241 2 3.62017 41.1879 29.6729
1047 1 5.43658 41.2126 30.9625
7193 2 4.52667 42.8191 32.2253
7198 2 6.34927 42.7663 29.6504
7192 2 7.25442 41.238 32.247
998 1 8.16536 42.7923 30.9406
7163 2 9.98291 42.8191 32.2253
7207 2 9.07641 41.1879 29.6729
4150 1 10.8928 41.2126 30.9625
1030 1 2.71126 45.9483 30.8941
7224 2 1.79912 44.3993 32.2028
7228 2 0.895855 45.9198 29.6025
7244 2 3.6224 44.3437 29.6269
1029 1 5.43816 44.3709 30.9178
7180 2 4.52808 45.9783 32.1795
7197 2 6.35209 45.9198 29.6025
7195 2 7.25536 44.3993 32.2028
991 1 8.1675 45.9483 30.8941
7162 2 9.98432 45.9783 32.1795
7196 2 9.07864 44.3437 29.6269
4151 1 10.8944 44.3709 30.9178
1017 1 2.71496 49.0986 30.8435
7225 2 1.80113 47.556 32.1551
7227 2 0.900221 49.0676 29.5503
7226 2 3.62593 47.4945 29.577
1032 1 5.44099 47.5243 30.8693
7179 2 4.53084 49.1321 32.1296
7184 2 6.35646 49.0676 29.5503
7178 2 7.25737 47.556 32.1551
990 1 8.1712 49.0986 30.8435
7159 2 9.98708 49.1321 32.1296
7199 2 9.08217 47.4945 29.577
4142 1 10.8972 47.5243 30.8693
1016 1 2.72095 52.241 30.7876
7216 2 1.80483 50.7064 32.1029
7220 2 0.906708 52.2082 29.4928
7229 2 3.63128 50.6389 29.5223
1015 1 5.44574 50.6709 30.8163
7172 2 4.5357 52.2784 32.0746
7183 2 6.36295 52.2082 29.4928
7181 2 7.26107 50.7064 32.1029
980 1 8.17719 52.241 30.7876
7158 2 9.99194 52.2784 32.0746
7182 2 9.08752 50.6389 29.5223
4143 1 10.902 50.6709 30.8163
1008 1 2.73002 55.3732 30.7249
7217 2 1.81112 53.8478 32.0445
7219 2 0.91584 55.3403 29.429
1018 1 5.45318 53.8085 30.7573
7171 2 4.5437 55.4143 32.0123
7173 2 6.37208 55.3403 29.429
7218 2 3.63904 53.7754 29.4617
7170 2 7.26736 53.8478 32.0445
979 1 8.18626 55.3732 30.7249
7155 2 9.99994 55.4143 32.0123
7185 2 9.09528 53.7754 29.4617
4141 1 10.9094 53.8085 30.7573
1027 1 0.886873 39.6807 33.5559
7190 2 2.70568 39.7054 34.8386
1044 1 3.61522 38.0966 33.5756
996 1 6.34311 39.6807 33.5559
7189 2 5.43421 38.1199 34.8582
995 1 9.07146 38.0966 33.5756
7161 2 8.16192 39.7054 34.8386
10502 2 10.8905 38.1199 34.8582
1026 1 0.886733 42.8469 33.5145
7176 2 2.70508 42.8747 34.7974
1025 1 3.61486 41.2642 33.5356
988 1 6.34297 42.8469 33.5145
7191 2 5.43346 41.2904 34.8184
997 1 9.0711 41.2642 33.5356
7160 2 8.16132 42.8747 34.7974
10486 2 10.8897 41.2904 34.8184
1013 1 0.887275 46.0096 33.4702
7175 2 2.70497 46.0411 34.7534
1028 1 3.61501 44.4287 33.4927
987 1 6.34351 46.0096 33.4702
7174 2 5.43306 44.4583 34.7758
986 1 9.07125 44.4287 33.4927
7157 2 8.16121 46.0411 34.7534
10487 2 10.8893 44.4583 34.7758
1011 1 3.61607 47.5893 33.4468
1012 1 0.889015 49.1675 33.4224
7168 2 2.70577 49.2032 34.7058
7177 2 5.43334 47.6228 34.7301
977 1 6.34525 49.1675 33.4224
7156 2 8.16201 49.2032 34.7058
989 1 9.07231 47.5893 33.4468
10478 2 10.8896 47.6228 34.7301
1014 1 3.6187 50.7439 33.397
7167 2 2.70819 52.3589 34.6536
1007 1 0.892813 52.3182 33.3703
7166 2 5.43484 50.7821 34.6804
976 1 6.34905 52.3182 33.3703
7154 2 8.16443 52.3589 34.6536
975 1 9.07494 50.7439 33.397
10479 2 10.8911 50.7821 34.6804
1005 1 3.624 53.8898 33.3421
7165 2 2.71345 55.5042 34.5943
1006 1 0.899994 55.4582 33.3121
1004 1 1.79401 53.9854 35.9234
7169 2 5.43848 53.9332 34.625
970 1 6.35623 55.4582 33.3121
968 1 4.52399 55.5623 35.8968
967 1 7.25025 53.9854 35.9234
7153 2 8.16968 55.5042 34.5943
978 1 9.08024 53.8898 33.3421
10477 2 10.8947 53.9332 34.625
961 1 9.98023 55.5623 35.8968
7366 2 0.886621 39.7561 37.4063
13577 1 2.70481 39.7823 38.6916
1023 1 1.79578 38.144 36.1446
7368 2 3.61555 38.1677 37.4256
7355 2 6.34286 39.7561 37.4063
13576 1 5.434 38.1922 38.7106
984 1 4.5232 39.731 36.1253
994 1 7.25202 38.144 36.1446
7354 2 9.07179 38.1677 37.4256
13542 1 8.16105 39.7823 38.6916
966 1 9.97944 39.731 36.1253
16404 1 10.8902 38.1922 38.7106
7365 2 0.885022 42.9322 37.3659
13573 1 2.70258 42.9623 38.6518
1024 1 1.7944 41.3176 36.1055
7364 2 3.61393 41.3443 37.3865
7352 2 6.34126 42.9322 37.3659
13578 1 5.43184 41.3723 38.672
983 1 4.52188 42.9038 36.0851
982 1 7.25064 41.3176 36.1055
7356 2 9.07017 41.3443 37.3865
13541 1 8.15882 42.9623 38.6518
965 1 9.97812 42.9038 36.0851
16402 1 10.8881 41.3723 38.672
7362 2 0.883576 46.1069 37.3229
13572 1 2.70024 46.142 38.6098
1009 1 1.79318 44.4895 36.0641
7367 2 3.61239 44.5198 37.3448
7351 2 6.33981 46.1069 37.3229
13571 1 5.42954 44.5522 38.6311
973 1 4.52082 46.0746 36.0425
985 1 7.24942 44.4895 36.0641
7350 2 9.06863 44.5198 37.3448
13536 1 8.15648 46.142 38.6098
964 1 9.97706 46.0746 36.0425
16403 1 10.8858 44.5522 38.6311
7361 2 0.882517 49.2792 37.2768
13562 1 2.6978 49.3217 38.5656
1010 1 1.79236 47.659 36.0202
7360 2 3.6111 47.6934 37.3003
7348 2 6.33876 49.2792 37.2768
13574 1 5.42716 47.7319 38.588
972 1 4.52034 49.2425 35.9972
971 1 7.2486 47.659 36.0202
7353 2 9.06733 47.6934 37.3003
13535 1 8.15404 49.3217 38.5656
963 1 9.97658 49.2425 35.9972
16400 1 10.8834 47.7319 38.588
7359 2 0.882295 52.4478 37.2267
13561 1 2.69512 52.5019 38.5193
1003 1 1.79236 50.825 35.9734
7363 2 3.61038 50.8641 37.2524
7347 2 6.33853 52.4478 37.2267
13560 1 5.42464 50.9116 38.5427
969 1 4.52102 52.406 35.9489
974 1 7.2486 50.825 35.9734
7346 2 9.06662 50.8641 37.2524
13522 1 8.15136 52.5019 38.5193
962 1 9.97726 52.406 35.9489
16401 1 10.8809 50.9116 38.5427
7358 2 0.883858 55.6093 37.17
13551 1 2.69123 55.6847 38.4713
7357 2 3.61088 54.0297 37.1994
7345 2 6.3401 55.6093 37.17
13563 1 5.42161 54.0927 38.4954
7349 2 9.06712 54.0297 37.1994
13521 1 8.14747 55.6847 38.4713
16399 1 10.8778 54.0927 38.4954
19199 2 1.79836 38.216 39.9901
19182 2 2.70963 39.859 42.5319
13569 1 0.888149 39.834 41.2544
13575 1 3.61754 38.2407 41.2736
19186 2 4.5254 39.8075 39.9708
19181 2 5.43895 38.2644 42.5515
13539 1 6.34439 39.834 41.2544
19188 2 7.2546 38.216 39.9901
13538 1 9.07378 38.2407 41.2736
19137 2 8.16586 39.859 42.5319
19140 2 9.98163 39.8075 39.9708
22018 2 10.8952 38.2644 42.5515
19200 2 1.79616 41.3991 39.9509
13568 1 0.885395 43.0213 41.2141
19174 2 2.70706 43.0492 42.4906
13567 1 3.61493 41.4275 41.2345
19185 2 4.52313 42.9907 39.9304
19183 2 5.43648 41.4539 42.5116
13533 1 6.34163 43.0213 41.2141
19184 2 7.2524 41.3991 39.9509
13540 1 9.07117 41.4275 41.2345
19136 2 8.1633 43.0492 42.4906
19139 2 9.97937 42.9907 39.9304
22014 2 10.8927 41.4539 42.5116
19196 2 1.79384 44.5824 39.9092
13558 1 0.882307 46.2102 41.1715
19173 2 2.70431 46.2411 42.4463
13570 1 3.61202 44.6155 41.1931
19178 2 4.52077 46.1741 39.8873
13532 1 6.33854 46.2102 41.1715
19172 2 5.43382 44.6449 42.4688
19187 2 7.25007 44.5824 39.9092
13531 1 9.06826 44.6155 41.1931
19129 2 8.16055 46.2411 42.4463
19138 2 9.97701 46.1741 39.8873
22015 2 10.8901 44.6449 42.4688
19197 2 1.79147 47.7658 39.8646
13557 1 0.878713 49.402 41.1265
19160 2 2.70143 49.4356 42.3984
13556 1 3.60871 47.8056 41.1493
19177 2 4.51844 49.3576 39.8411
13519 1 6.33495 49.402 41.1265
19175 2 5.431 47.838 42.4228
19176 2 7.24771 47.7658 39.8646
13534 1 9.06495 47.8056 41.1493
19128 2 8.15767 49.4356 42.3984
19131 2 9.97468 49.3576 39.8411
22010 2 10.8872 47.838 42.4228
19192 2 1.78922 50.9495 39.8166
13550 1 0.874052 52.5993 41.0787
19159 2 2.69845 52.6339 42.3455
13559 1 3.6047 50.9997 41.103
13518 1 6.33029 52.5993 41.0787
19158 2 5.42807 51.0342 42.3727
19164 2 4.51634 52.5413 39.7908
19179 2 7.24546 50.9495 39.8166
13517 1 9.06094 50.9997 41.103
19114 2 8.15468 52.6339 42.3455
19130 2 9.97258 52.5413 39.7908
22011 2 10.8843 51.0342 42.3727
19193 2 1.78737 54.1332 39.7634
13549 1 0.866636 55.8076 41.0279
19149 2 2.6951 55.8388 42.2847
13548 1 3.59899 54.2014 41.0538
13501 1 6.32287 55.8076 41.0279
19161 2 5.425 54.2353 42.3163
19163 2 4.51479 55.725 39.7339
19162 2 7.24361 54.1332 39.7634
13520 1 9.05523 54.2014 41.0538
19113 2 8.15134 55.8388 42.2847
19115 2 9.97103 55.725 39.7339
22009 2 10.8812 54.2353 42.3163
13565 1 1.80266 38.2892 43.8335
19170 2 0.895481 39.9101 45.0898
19180 2 3.6248 38.3125 45.1101
13529 1 4.52946 39.8856 43.8138
19134 2 6.35172 39.9101 45.0898
13537 1 7.2589 38.2892 43.8335
13476 1 9.9857 39.8856 43.8138
19133 2 9.08104 38.3125 45.1101
13566 1 1.79994 41.4824 43.7934
19169 2 0.892938 43.1068 45.0469
19168 2 3.62235 41.5081 45.0688
13528 1 4.52658 43.0799 43.7723
19126 2 6.34918 43.1068 45.0469
13527 1 7.25618 41.4824 43.7934
13475 1 9.98282 43.0799 43.7723
19135 2 9.07859 41.5081 45.0688
13554 1 1.79689 44.6782 43.7504
19156 2 0.890218 46.3066 45.0004
19171 2 3.61972 44.7063 45.0241
13515 1 4.52333 46.2774 43.7278
19125 2 6.34646 46.3066 45.0004
13530 1 7.25313 44.6782 43.7504
13474 1 9.97957 46.2774 43.7278
19124 2 9.07596 44.7063 45.0241
13555 1 1.79339 47.878 43.7044
19155 2 0.887317 49.5108 44.9496
19154 2 3.61691 47.908 44.9756
13514 1 4.51951 49.4801 43.68
19111 2 6.34356 49.5108 44.9496
13513 1 7.24963 47.878 43.7044
13467 1 9.97575 49.4801 43.68
19127 2 9.07315 47.908 44.9756
13546 1 1.78912 51.0844 43.6546
19148 2 0.884096 52.7214 44.8927
19157 2 3.61389 51.1151 44.922
13500 1 4.5146 52.6914 43.6279
19110 2 6.34033 52.7214 44.8927
13516 1 7.24536 51.0844 43.6546
13466 1 9.97083 52.6914 43.6279
19109 2 9.07013 51.1151 44.922
13547 1 1.78327 54.3018 43.5997
19147 2 0.879895 55.9421 44.8268
19146 2 3.61032 54.3302 44.8611
13499 1 4.50746 55.9167 43.5694
19094 2 6.33613 55.9421 44.8268
13498 1 7.23951 54.3018 43.5997
13451 1 9.9637 55.9167 43.5694
19112 2 9.06656 54.3302 44.8611
13507 1 0.904179 39.9862 48.9239
13525 1 2.71614 39.9365 46.3701
19166 2 1.81198 38.36 47.6661
13523 1 3.63338 38.3844 48.9454
13470 1 6.36042 39.9862 48.9239
13524 1 5.4455 38.3373 46.3907
19122 2 4.53901 39.9602 47.645
19132 2 7.26822 38.36 47.6661
13469 1 9.08962 38.3844 48.9454
13473 1 8.17238 39.9365 46.3701
19074 2 9.99525 39.9602 47.645
16384 1 10.9017 38.3373 46.3907
13506 1 0.901893 43.1925 48.8779
13511 1 2.71346 43.1372 46.3266
19167 2 1.80976 41.5611 47.6229
13505 1 3.63118 41.5889 48.9014
13462 1 6.35813 43.1925 48.8779
13526 1 5.44295 41.5364 46.3488
19121 2 4.53671 43.1629 47.5999
19120 2 7.26599 41.5611 47.6229
13471 1 9.08742 41.5889 48.9014
13472 1 8.1697 43.1372 46.3266
19073 2 9.99294 43.1629 47.5999
16372 1 10.8992 41.5364 46.3488
13492 1 0.899415 46.4036 48.8276
13510 1 2.71048 46.3423 46.2794
19152 2 1.80738 44.7656 47.5758
13508 1 3.6288 44.7974 48.8533
13461 1 6.35565 46.4036 48.8276
13509 1 5.44013 44.7391 46.3035
19107 2 4.53425 46.3694 47.5507
19123 2 7.26362 44.7656 47.5758
13460 1 9.08504 44.7974 48.8533
13465 1 8.16672 46.3423 46.2794
19072 2 9.99049 46.3694 47.5507
16373 1 10.8964 44.7391 46.3035
13491 1 0.896647 49.6214 48.772
13496 1 2.70708 49.5537 46.2278
19153 2 1.80484 47.9746 47.5242
13490 1 3.6262 48.0115 48.8005
13447 1 6.35289 49.6214 48.772
13512 1 5.43697 47.947 46.2542
19106 2 4.53158 49.5814 47.4964
19105 2 7.26107 47.9746 47.5242
13463 1 9.08244 48.0115 48.8005
13464 1 8.16332 49.5537 46.2278
19065 2 9.98782 49.5814 47.4964
16364 1 10.8932 47.947 46.2542
13484 1 0.893338 52.848 48.7095
13495 1 2.70292 52.7746 46.1703
19144 2 1.80197 51.1901 47.4669
13493 1 3.6232 51.2334 48.7418
13446 1 6.34958 52.848 48.7095
13494 1 5.43324 51.1627 46.1999
19093 2 4.52839 52.8009 47.4355
19108 2 7.25821 51.1901 47.4669
13445 1 9.07944 51.2334 48.7418
13450 1 8.15916 52.7746 46.1703
19064 2 9.98463 52.8009 47.4355
16365 1 10.8895 51.1627 46.1999
13483 1 0.888947 56.0853 48.6379
13485 1 2.6974 56.0089 46.1037
19145 2 1.79825 54.4145 47.4018
13482 1 3.61945 54.4652 48.6751
13432 1 6.34519 56.0853 48.6379
13497 1 5.42849 54.3898 46.1384
19092 2 4.52381 56.0311 47.3655
19091 2 7.25449 54.4145 47.4018
13448 1 9.07568 54.4652 48.6751
13449 1 8.15363 56.0089 46.1037
19053 2 9.98005 56.0311 47.3655
16363 1 10.8847 54.3898 46.1384
13503 1 1.82227 38.4304 51.4982
19118 2 2.72746 40.0091 50.1978
19165 2 0.000277367 38.4065 50.22
13458 1 4.54951 40.0344 51.4756
19117 2 5.45652 38.4065 50.22
13416 1 10.0057 40.0344 51.4756
13468 1 7.27851 38.4304 51.4982
19071 2 8.1837 40.0091 50.1978
13504 1 1.82049 41.6393 51.4519
19103 2 2.72549 43.2168 50.1504
13457 1 4.54768 43.2452 51.427
19119 2 5.45461 41.6125 50.1746
13415 1 10.0039 43.2452 51.427
13456 1 7.27673 41.6393 51.4519
19070 2 8.18173 43.2168 50.1504
21970 2 10.9108 41.6125 50.1746
13488 1 1.8186 44.8524 51.401
19102 2 2.72338 46.4287 50.0983
13443 1 4.54571 46.4609 51.3737
19101 2 5.45258 44.8221 50.125
13459 1 7.27483 44.8524 51.401
21971 2 10.9088 44.8221 50.125
13414 1 10.0019 46.4609 51.3737
19063 2 8.17962 46.4287 50.0983
13489 1 1.81652 48.0709 51.345
19089 2 2.72098 49.6464 50.0408
19084 2 0.911125 49.7053 52.5846
13442 1 4.54348 49.6826 51.3147
19104 2 5.45036 48.0368 50.0703
13441 1 7.27276 48.0709 51.345
19049 2 6.36736 49.7053 52.5846
21962 2 10.9066 48.0368 50.0703
13408 1 9.99972 49.6826 51.3147
19062 2 8.17722 49.6464 50.0408
19079 2 0.908007 52.9326 52.5186
13480 1 1.81405 51.2962 51.2827
19088 2 2.71785 52.8713 49.9767
19086 2 3.63784 51.3182 52.5523
19048 2 6.36425 52.9326 52.5186
13431 1 4.54064 52.9117 51.249
19087 2 5.44767 51.2578 50.0097
13444 1 7.27029 51.2962 51.2827
21963 2 10.9039 51.2578 50.0097
19047 2 9.09408 51.3182 52.5523
13407 1 9.99688 52.9117 51.249
19052 2 8.17409 52.8713 49.9767
19077 2 3.63397 54.5488 52.4834
19078 2 0.903099 56.1665 52.4469
13481 1 1.81065 54.5291 51.2133
19080 2 2.71305 56.1053 49.9049
19042 2 6.35934 56.1665 52.4469
13430 1 4.53639 56.1484 51.1757
19090 2 5.44387 54.4871 49.9418
13429 1 7.26689 54.5291 51.2133
19050 2 9.09021 54.5488 52.4834
21961 2 10.9001 54.4871 49.9418
13400 1 9.99262 56.1484 51.1757
19051 2 8.16928 56.1053 49.9049
13454 1 2.73934 40.0808 54.0259
13502 1 0.011907 38.475 54.0496
19095 2 1.83542 38.4956 55.3233
19099 2 0.916772 40.0563 52.749
13453 1 5.46815 38.475 54.0496
19056 2 4.56291 40.1019 55.2992
19068 2 6.37301 40.0563 52.749
19116 2 3.64567 38.4517 52.7722
13413 1 8.19558 40.0808 54.0259
19038 2 10.0192 40.1019 55.2992
19066 2 7.29166 38.4956 55.3233
19067 2 9.1019 38.4517 52.7722
13439 1 2.73791 43.2952 53.975
13486 1 0.0105159 41.6875 54.0011
19096 2 1.83414 41.709 55.2739
19098 2 0.915148 43.2681 52.6993
13455 1 5.46675 41.6875 54.0011
19055 2 4.56156 43.3169 55.2474
19060 2 6.37139 43.2681 52.6993
19097 2 3.64409 41.6618 52.7247
13412 1 8.19415 43.2952 53.975
19037 2 10.0178 43.3169 55.2474
19054 2 7.29038 41.709 55.2739
19069 2 9.10033 41.6618 52.7247
13438 1 2.73633 46.5138 53.9191
13487 1 0.00902891 44.9039 53.9477
19081 2 1.83269 44.9257 55.2197
19085 2 0.913341 46.4841 52.6447
13437 1 5.46527 44.9039 53.9477
19045 2 4.55996 46.5355 55.1907
19059 2 6.36958 46.4841 52.6447
19100 2 3.6424 44.8755 52.6726
13406 1 8.19257 46.5138 53.9191
19036 2 10.0162 46.5355 55.1907
19057 2 7.28892 44.9257 55.2197
19058 2 9.09863 44.8755 52.6726
13427 1 2.7344 49.7376 53.8576
13478 1 0.007313 48.125 53.889
19082 2 1.83087 48.1464 55.1604
13440 1 5.46355 48.125 53.889
19044 2 4.55784 49.7584 55.1289
19083 2 3.64043 48.094 52.6153
13405 1 8.19064 49.7376 53.8576
19035 2 10.0141 49.7584 55.1289
19043 2 7.28711 48.1464 55.1604
19061 2 9.09666 48.094 52.6153
19075 2 1.82832 51.3716 55.0961
13479 1 0.00505497 51.3515 53.8247
13426 1 2.73166 52.9668 53.7903
19041 2 4.5547 52.986 55.0623
13425 1 5.46129 51.3515 53.8247
19046 2 7.28455 51.3716 55.0961
19034 2 10.0109 52.986 55.0623
13399 1 8.1879 52.9668 53.7903
19076 2 1.82443 54.6013 55.0275
13477 1 0.00160772 54.5833 53.7547
13420 1 2.72723 56.2008 53.718
19040 2 4.54989 56.2176 54.992
13428 1 5.45785 54.5833 53.7547
19039 2 7.28067 54.6013 55.0275
19033 2 10.0061 56.2176 54.992
13398 1 8.18347 56.2008 53.718
13751 1 1.84867 38.5599 59.1504
19385 2 2.75317 40.1458 57.8489
19392 2 0.025575 38.5381 57.8739
13435 1 0.929616 40.1254 56.5756
13738 1 4.57635 40.1683 59.1251
19384 2 5.48181 38.5381 57.8739
13410 1 6.38585 40.1254 56.5756
13452 1 3.65827 38.5181 56.6002
13692 1 10.0326 40.1683 59.1251
13740 1 7.30491 38.5599 59.1504
19350 2 8.20941 40.1458 57.8489
13409 1 9.11451 38.5181 56.6002
13752 1 1.84777 41.7773 59.0984
19381 2 2.75199 43.363 57.7955
19390 2 0.0244887 41.7541 57.8228
13434 1 0.92848 43.3423 56.5227
13737 1 4.57538 43.3869 59.0706
19386 2 5.48073 41.7541 57.8228
13403 1 6.38472 43.3423 56.5227
13433 1 3.65718 41.7335 56.5497
13691 1 10.0316 43.3869 59.0706
13736 1 7.30401 41.7773 59.0984
19349 2 8.20823 43.363 57.7955
13411 1 9.11342 41.7335 56.5497
13748 1 1.84667 44.9972 59.0416
19380 2 2.7505 46.5832 57.7372
19391 2 0.0231827 44.9727 57.7669
13423 1 0.927128 46.5627 56.4647
13730 1 4.5741 46.6081 59.0114
19379 2 5.47942 44.9727 57.7669
13402 1 6.38337 46.5627 56.4647
13436 1 3.65596 44.952 56.4943
13690 1 10.0303 46.6081 59.0114
13739 1 7.30291 44.9972 59.0416
19344 2 8.20674 46.5832 57.7372
13401 1 9.1122 44.952 56.4943
13749 1 1.84514 48.2197 58.9801
19370 2 2.74839 49.8066 57.6745
19388 2 0.0214273 48.1945 57.7064
13422 1 0.925287 49.787 56.4018
13729 1 4.57223 49.8319 58.9478
19382 2 5.47767 48.1945 57.7064
13396 1 6.38153 49.787 56.4018
13421 1 3.65441 48.1743 56.4339
13683 1 10.0285 49.8319 58.9478
13728 1 7.30138 48.2197 58.9801
19343 2 8.20463 49.8066 57.6745
13404 1 9.11065 48.1743 56.4339
13744 1 1.84282 51.4446 58.9147
19369 2 2.74526 53.0329 57.6081
19389 2 0.0188657 51.4194 57.6417
13419 1 0.92247 53.0149 56.3343
13716 1 4.56933 53.0578 58.881
19368 2 5.4751 51.4194 57.6417
13395 1 6.37871 53.0149 56.3343
13424 1 3.65216 51.4005 56.3686
13682 1 10.0256 53.0578 58.881
13731 1 7.29905 51.4446 58.9147
19330 2 8.2015 53.0329 57.6081
13394 1 9.1084 51.4005 56.3686
13745 1 1.83925 54.6713 58.8469
19359 2 2.74068 56.2615 57.5398
19387 2 0.0150525 54.647 57.5741
13418 1 0.918003 56.2456 56.264
13715 1 4.565 56.285 58.8129
19371 2 5.47129 54.647 57.5741
13393 1 6.37424 56.2456 56.264
13417 1 3.6486 54.63 56.2994
13667 1 10.0212 56.285 58.8129
13714 1 7.29548 54.6713 58.8469
19329 2 8.19692 56.2615 57.5398
13397 1 9.10484 54.63 56.2994
13734 1 2.7669 40.2097 61.6749
13750 1 0.0391757 38.6004 61.7008
19377 2 0.943602 40.1882 60.3986
13733 1 5.49541 38.6004 61.7008
19347 2 6.39984 40.1882 60.3986
19383 2 3.67219 38.5795 60.4242
13689 1 8.22314 40.2097 61.6749
19346 2 9.12843 38.5795 60.4242
13726 1 2.76597 43.4294 61.6194
13746 1 0.0383475 41.8194 61.6477
19376 2 0.942505 43.407 60.3439
13735 1 5.49459 41.8194 61.6477
19341 2 6.39874 43.407 60.3439
19375 2 3.67121 41.7974 60.3719
13688 1 8.2222 43.4294 61.6194
19348 2 9.12744 41.7974 60.3719
13725 1 2.76466 46.6508 61.5595
13747 1 0.0372538 45.0399 61.59
19366 2 0.941028 46.6279 60.2848
13724 1 5.49349 45.0399 61.59
19340 2 6.39727 46.6279 60.2848
19378 2 3.66995 45.0172 60.3149
13681 1 8.22089 46.6508 61.5595
19339 2 9.12619 45.0172 60.3149
13712 1 2.76269 49.8735 61.4959
13742 1 0.0356563 48.262 61.5281
19365 2 0.938899 49.8508 60.2218
13727 1 5.49189 48.262 61.5281
19327 2 6.39514 49.8508 60.2218
19364 2 3.66818 48.2391 60.2537
13680 1 8.21893 49.8735 61.4959
19342 2 9.12442 48.2391 60.2537
13711 1 2.75977 53.0971 61.4301
13743 1 0.0332522 51.4852 61.4632
19358 2 0.935804 53.0753 60.1561
13710 1 5.48949 51.4852 61.4632
19326 2 6.39204 53.0753 60.1561
19367 2 3.66561 51.4629 60.1892
13666 1 8.21601 53.0971 61.4301
19325 2 9.12185 51.4629 60.1892
13701 1 2.75566 56.3208 61.364
13741 1 0.0297515 54.709 61.3969
19357 2 0.9315 56.3005 60.0898
13713 1 5.48599 54.709 61.3969
19309 2 6.38774 56.3005 60.0898
19356 2 3.66193 54.6878 60.1229
13665 1 8.2119 56.3208 61.364
19328 2 9.11817 54.6878 60.1229
13722 1 0.957365 40.25 64.2256
19333 2 2.7808 40.2698 65.4986
19372 2 0.0531811 38.6595 65.5249
19373 2 1.86267 38.6198 62.9746
13686 1 6.4136 40.25 64.2256
13732 1 3.68589 38.6401 64.2519
19332 2 5.50942 38.6595 65.5249
19337 2 4.59033 40.2294 62.9485
13685 1 9.14213 38.6401 64.2519
19281 2 8.23704 40.2698 65.4986
19284 2 10.0466 40.2294 62.9485
19345 2 7.31891 38.6198 62.9746
13721 1 0.956371 43.4706 64.1695
19319 2 2.77961 43.4908 65.4428
19360 2 0.052128 41.8803 65.4712
19374 2 1.8617 41.8392 62.9214
13678 1 6.41261 43.4706 64.1695
13720 1 3.68503 41.8602 64.1981
19334 2 5.50837 41.8803 65.4712
19336 2 4.58922 43.4494 62.8931
13687 1 9.14127 41.8602 64.1981
19280 2 8.23585 43.4908 65.4428
19283 2 10.0455 43.4494 62.8931
19335 2 7.31794 41.8392 62.9214
13708 1 0.954956 46.6917 64.1094
19318 2 2.77797 46.7118 65.3831
19361 2 0.0507385 45.1013 65.4134
19362 2 1.86041 45.0598 62.8637
13677 1 6.41119 46.6917 64.1094
13723 1 3.68385 45.0811 64.1399
19317 2 5.50698 45.1013 65.4134
19323 2 4.5877 46.6705 62.8335
13676 1 9.14009 45.0811 64.1399
19273 2 8.23421 46.7118 65.3831
19282 2 10.0439 46.6705 62.8335
19338 2 7.31664 45.0598 62.8637
13707 1 0.952893 49.9131 64.0462
19304 2 2.77572 49.9326 65.3208
19352 2 0.0488165 48.3223 65.3522
19363 2 1.85858 48.2814 62.8024
13663 1 6.40913 49.9131 64.0462
13706 1 3.68214 48.3024 64.0781
19320 2 5.50505 48.3223 65.3522
19322 2 4.58552 49.8924 62.7706
13679 1 9.13838 48.3024 64.0781
19272 2 8.23196 49.9326 65.3208
19275 2 10.0418 49.8924 62.7706
19321 2 7.31482 48.2814 62.8024
13700 1 0.949975 53.1343 63.9815
19303 2 2.77271 53.1527 65.2572
19353 2 0.0461986 51.5428 65.289
19354 2 1.856 51.5035 62.7384
13662 1 6.40621 53.1343 63.9815
13709 1 3.67967 51.5238 64.0139
19302 2 5.50244 51.5428 65.289
19308 2 4.58247 53.1147 62.706
13661 1 9.13591 51.5238 64.0139
19258 2 8.22895 53.1527 65.2572
19274 2 10.0387 53.1147 62.706
19324 2 7.31223 51.5035 62.7384
13699 1 0.946102 56.3547 63.9172
19293 2 2.7689 56.3714 65.1944
19351 2 0.0427885 54.7622 65.2255
19355 2 1.85246 54.7257 62.6736
13646 1 6.40234 56.3547 63.9172
13698 1 3.67628 54.7446 63.9491
19305 2 5.49903 54.7622 65.2255
19307 2 4.57844 56.3366 62.6415
13664 1 9.13251 54.7446 63.9491
19257 2 8.22514 56.3714 65.1944
19259 2 10.0347 56.3366 62.6415
19306 2 7.3087 54.7257 62.6736
13718 1 1.87613 38.6793 66.8047
19315 2 0.971157 40.31 68.048
13674 1 4.60378 40.2898 66.7782
19278 2 6.4274 40.31 68.048
19331 2 3.69984 38.6989 68.0744
13626 1 10.06 40.2898 66.7782
13684 1 7.33237 38.6793 66.8047
19277 2 9.15608 38.6989 68.0744
13719 1 1.87514 41.9004 66.7506
19314 2 0.969817 43.532 67.9922
13673 1 4.60265 43.511 66.722
19270 2 6.42606 43.532 67.9922
19313 2 3.69865 41.9211 68.0206
13625 1 10.0589 43.511 66.722
13672 1 7.33138 41.9004 66.7506
19279 2 9.15489 41.9211 68.0206
13704 1 1.87382 45.1214 66.6924
19300 2 0.968038 46.753 67.9328
13654 1 2.79002 46.772 69.2203
13703 1 0.0628125 45.1619 69.2505
13659 1 4.60109 46.7318 66.6619
19269 2 6.42428 46.753 67.9328
19316 2 3.69712 45.1426 67.9629
13653 1 5.51905 45.1619 69.2505
13624 1 10.0573 46.7318 66.6619
13675 1 7.33006 45.1214 66.6924
19268 2 9.15335 45.1426 67.9629
13615 1 8.24626 46.772 69.2203
13705 1 1.87197 48.3419 66.6309
19299 2 0.965658 49.9728 67.8711
13641 1 2.78776 49.9908 69.1583
13694 1 0.0608268 48.3816 69.1895
13658 1 4.59892 49.9519 66.5993
19255 2 6.4219 49.9728 67.8711
19298 2 3.69504 48.3631 67.9021
13656 1 5.51707 48.3816 69.1895
13617 1 10.0552 49.9519 66.5993
13657 1 7.32821 48.3419 66.6309
19271 2 9.15128 48.3631 67.9021
13614 1 8.244 49.9908 69.1583
13696 1 1.86944 51.5615 66.5676
19292 2 0.962657 53.1908 67.8086
13640 1 2.78491 53.2076 69.0959
13695 1 0.0582726 51.5995 69.127
13645 1 4.59602 53.1708 66.5358
19254 2 6.4189 53.1908 67.8086
19301 2 3.69236 51.5821 67.8398
13639 1 5.51451 51.5995 69.127
13616 1 10.0523 53.1708 66.5358
13660 1 7.32568 51.5615 66.5676
19253 2 9.14859 51.5821 67.8398
13604 1 8.24115 53.2076 69.0959
13697 1 1.86616 54.7796 66.5042
19291 2 0.958996 56.4064 67.7474
13632 1 2.78145 56.4216 69.0349
13693 1 0.0551379 54.8149 69.0652
13644 1 4.59235 56.3879 66.4732
19240 2 6.41523 56.4064 67.7474
19290 2 3.68903 54.7989 67.7777
13642 1 5.51138 54.8149 69.0652
13605 1 10.0486 56.3879 66.4732
13643 1 7.3224 54.7796 66.5042
19256 2 9.14527 54.7989 67.7777
13603 1 8.23769 56.4216 69.0349
13651 1 0.977284 40.3693 71.9113
13670 1 2.793 40.3296 69.3361
13717 1 0.0654366 38.7184 69.3625
19311 2 1.89006 38.738 70.62
13620 1 6.43352 40.3693 71.9113
13668 1 3.706 38.7574 71.9378
13669 1 5.52168 38.7184 69.3625
19266 2 4.61754 40.3501 70.5937
13619 1 9.16224 38.7574 71.9378
13623 1 8.24924 40.3296 69.3361
19224 2 10.0738 40.3501 70.5937
19276 2 7.3463 38.738 70.62
13650 1 0.975955 43.592 71.8555
13655 1 2.79171 43.5515 69.28
13702 1 0.0642782 41.9407 69.3085
19312 2 1.88873 41.9619 70.5663
13612 1 6.43219 43.592 71.8555
13649 1 3.70477 41.9809 71.8839
13671 1 5.52052 41.9407 69.3085
19265 2 4.61607 43.5733 70.538
13621 1 9.16101 41.9809 71.8839
13622 1 8.24795 43.5515 69.28
19223 2 10.0723 43.5733 70.538
19264 2 7.34496 41.9619 70.5663
13637 1 0.974315 46.8126 71.7962
19296 2 1.88706 45.1843 70.5088
13611 1 6.43055 46.8126 71.7962
13652 1 3.7033 45.2026 71.8262
19251 2 4.61417 46.7947 70.479
13610 1 9.15954 45.2026 71.8262
19222 2 10.0704 46.7947 70.479
19267 2 7.3433 45.1843 70.5088
13636 1 0.972309 50.0303 71.7339
19297 2 1.88488 48.4045 70.4486
13601 1 6.42855 50.0303 71.7339
13635 1 3.70148 48.4219 71.7654
19250 2 4.61164 50.0137 70.4179
13613 1 9.15772 48.4219 71.7654
19216 2 10.0679 50.0137 70.4179
19249 2 7.34112 48.4045 70.4486
13631 1 0.969644 53.2448 71.673
19288 2 1.88213 51.6222 70.387
13600 1 6.42588 53.2448 71.673
13638 1 3.69916 51.638 71.7035
19239 2 4.6087 53.2299 70.3564
13599 1 9.1554 51.638 71.7035
19215 2 10.0649 53.2299 70.3564
19252 2 7.33837 51.6222 70.387
13630 1 0.966524 56.4559 71.6133
19289 2 1.87889 54.8367 70.326
13594 1 6.42276 56.4559 71.6133
13629 1 3.69626 54.8508 71.6429
19238 2 4.60517 56.4426 70.2962
13602 1 9.15249 54.8508 71.6429
19208 2 10.0614 56.4426 70.2962
19237 2 7.33513 54.8367 70.326
13647 1 1.83243 38.7975 74.5898
19243 2 0.967177 40.428 75.6017
19262 2 2.80582 40.3902 73.1257
19310 2 0.0783921 38.777 73.1519
13608 1 4.56048 40.4092 74.5637
19218 2 6.42342 40.428 75.6017
19260 2 3.69581 38.8146 75.6275
19261 2 5.53463 38.777 73.1519
13590 1 10.0167 40.4092 74.5637
13618 1 7.28867 38.7975 74.5898
19217 2 9.15205 38.8146 75.6275
19221 2 8.26206 40.3902 73.1257
13648 1 1.83239 42.0205 74.5365
19242 2 0.966159 43.653 75.5475
19247 2 2.80426 43.615 73.0706
19294 2 0.0769569 42.0029 73.0986
13607 1 4.56062 43.6312 74.5085
19211 2 6.4224 43.653 75.5475
19241 2 3.69479 42.0409 75.575
19263 2 5.5332 42.0029 73.0986
13589 1 10.0169 43.6312 74.5085
13606 1 7.28863 42.0205 74.5365
19219 2 9.15103 42.0409 75.575
19220 2 8.2605 43.615 73.0706
13633 1 1.83269 45.2413 74.4797
19231 2 0.964964 46.8749 75.4909
19246 2 2.80232 46.8373 73.0124
19295 2 0.0752141 45.2265 73.0418
13597 1 4.56103 46.8507 74.4504
19210 2 6.4212 46.8749 75.4909
19244 2 3.69371 45.2644 75.5195
19245 2 5.53145 45.2265 73.0418
13588 1 10.0173 46.8507 74.4504
13609 1 7.28893 45.2413 74.4797
19209 2 9.14994 45.2644 75.5195
19214 2 8.25855 46.8373 73.0124
13634 1 1.83325 48.4593 74.4206
19230 2 0.9635 50.0926 75.4335
19235 2 2.79966 50.056 72.9524
19286 2 0.0729949 48.4472 72.9825
13596 1 4.56185 50.0666 74.3904
19204 2 6.41974 50.0926 75.4335
19229 2 3.69242 48.4843 75.4622
19248 2 5.52923 48.4472 72.9825
13587 1 10.0181 50.0666 74.3904
13595 1 7.28949 48.4593 74.4206
19212 2 9.14866 48.4843 75.4622
19213 2 8.2559 50.056 72.9524
13627 1 1.83386 51.6729 74.3602
19227 2 0.961791 53.3057 75.3741
19234 2 2.79684 53.2705 72.8918
19287 2 0.0702267 51.6637 72.9221
13593 1 4.5622 53.2786 74.3298
19203 2 6.41803 53.3057 75.3741
19232 2 3.69083 51.6998 75.4037
19233 2 5.52647 51.6637 72.9221
13586 1 10.0184 53.2786 74.3298
13598 1 7.2901 51.6729 74.3602
19202 2 9.14706 51.6998 75.4037
19207 2 8.25308 53.2705 72.8918
13628 1 1.8343 54.8833 74.2997
19226 2 0.959789 56.5136 75.3163
19228 2 2.79342 56.4806 72.8326
19285 2 0.0670713 54.8761 72.8619
13592 1 4.56262 56.4871 74.2703
19201 2 6.41603 56.5136 75.3163
19225 2 3.68895 54.9104 75.3449
19236 2 5.52331 54.8761 72.8619
13585 1 10.0189 56.4871 74.2703
13591 1 7.29054 54.8833 74.2997
19205 2 9.14519 54.9104 75.3449
19206 2 8.24966 56.4806 72.8326
7545 2 0.927106 58.1085 -1.46014
7553 2 2.75303 58.0859 -3.95682
1344 1 1.86117 59.6916 -2.92152
7558 2 0.0266502 59.6714 -3.97549
1330 1 4.58626 58.1074 -2.90239
7515 2 6.38334 58.1085 -1.46014
7543 2 3.65626 59.6923 -1.47934
7554 2 5.48289 59.6714 -3.97549
1284 1 10.0425 58.1074 -2.90239
7518 2 8.20926 58.0859 -3.95682
1328 1 7.31741 59.6916 -2.92152
7516 2 9.1125 59.6923 -1.47934
7544 2 0.929155 61.2769 -1.49718
7549 2 2.75644 61.2578 -3.99285
1340 1 1.86666 62.8623 -2.95558
7559 2 0.0298943 62.8451 -4.00876
1329 1 4.59213 61.2766 -2.93929
7509 2 6.38539 61.2769 -1.49718
7546 2 3.65824 62.8624 -1.51355
7547 2 5.48613 62.8451 -4.00876
1283 1 10.0484 61.2766 -2.93929
7517 2 8.21268 61.2578 -3.99285
1331 1 7.3229 62.8623 -2.95558
7507 2 9.11448 62.8624 -1.51355
7534 2 0.93104 64.4487 -1.5283
7548 2 2.75948 64.4333 -4.02312
1341 1 1.87125 66.0355 -2.98322
7556 2 0.0326847 66.0221 -4.0358
1322 1 4.5972 64.4487 -2.97026
7508 2 6.38728 64.4487 -1.5283
7532 2 3.66 66.0357 -1.54134
7550 2 5.48892 66.0221 -4.0358
1282 1 10.0534 64.4487 -2.97026
7512 2 8.21571 64.4333 -4.02312
1320 1 7.32749 66.0355 -2.98322
7510 2 9.11624 66.0357 -1.54134
7533 2 0.932637 67.6234 -1.55254
7538 2 2.76198 67.6117 -4.0467
1336 1 1.87472 69.2106 -3.0036
7557 2 0.034851 69.2018 -4.05575
1321 1 4.60125 67.6229 -2.99436
7495 2 6.38888 67.6234 -1.55254
7535 2 3.6614 69.2116 -1.56184
7536 2 5.49109 69.2018 -4.05575
1275 1 10.0575 67.6229 -2.99436
7511 2 8.21821 67.6117 -4.0467
1323 1 7.33096 69.2106 -3.0036
7493 2 9.11764 69.2116 -1.56184
7526 2 0.933807 70.8002 -1.56915
7537 2 2.76377 70.7923 -4.06287
1337 1 1.87689 72.3869 -3.01609
7555 2 0.0362309 72.3831 -4.06799
1308 1 4.60409 70.7986 -3.01086
7494 2 6.39005 70.8002 -1.56915
7524 2 3.66231 72.3892 -1.57441
7539 2 5.49247 72.3831 -4.06799
1274 1 10.0603 70.7986 -3.01086
7498 2 8.22001 70.7923 -4.06287
1306 1 7.33312 72.3869 -3.01609
7496 2 9.11855 72.3892 -1.57441
7525 2 0.934428 73.9784 -1.57758
7527 2 2.76471 73.9742 -4.07108
1727 1 1.87762 75.5638 -3.02029
7968 2 0.0367055 75.5655 -4.07212
1307 1 4.60556 73.9753 -3.01924
7477 2 6.39067 73.9784 -1.57758
7959 2 3.66263 75.5677 -1.57864
7960 2 5.49294 75.5655 -4.07212
1259 1 10.0618 73.9753 -3.01924
7497 2 8.22094 73.9742 -4.07108
1716 1 7.33386 75.5638 -3.02029
7922 2 9.11886 75.5677 -1.57864
1314 1 0.930774 58.1498 2.35003
1326 1 2.74932 58.1257 -0.240577
1338 1 0.0225051 59.7084 -0.259899
7542 2 1.83963 59.7174 1.06838
1278 1 6.38701 58.1498 2.35003
7505 2 4.5666 58.1354 1.08796
1312 1 3.66016 59.7309 2.33022
1327 1 5.47874 59.7084 -0.259899
1281 1 8.20556 58.1257 -0.240577
7452 2 10.0228 58.1354 1.08796
1279 1 9.1164 59.7309 2.33022
7503 2 7.29586 59.7174 1.06838
1313 1 0.93325 61.3126 2.3118
1318 1 2.75188 61.2919 -0.277857
1339 1 0.02494 62.8761 -0.294315
7530 2 1.84178 62.8836 1.03347
1270 1 6.38949 61.3126 2.3118
7504 2 4.56885 61.3001 1.05017
1315 1 3.66252 62.8949 2.29491
1316 1 5.48118 62.8761 -0.294315
1280 1 8.20811 61.2919 -0.277857
7451 2 10.0251 61.3001 1.05017
1268 1 9.11876 62.8949 2.29491
7506 2 7.29802 62.8836 1.03347
1300 1 0.935468 64.4778 2.27968
1317 1 2.75416 64.4609 -0.309148
1334 1 0.0270447 66.0464 -0.322244
7531 2 1.84366 66.0524 1.0051
1269 1 6.39171 64.4778 2.27968
7491 2 4.57088 64.4677 1.01841
1298 1 3.66456 66.0613 2.26623
1319 1 5.48328 66.0464 -0.322244
1273 1 8.2104 64.4609 -0.309148
7450 2 10.0271 64.4677 1.01841
1271 1 9.1208 66.0613 2.26623
7489 2 7.2999 66.0524 1.0051
1299 1 0.93731 67.6452 2.25467
1304 1 2.75605 67.6323 -0.333501
1335 1 0.0286866 69.2187 -0.342833
7522 2 1.84514 69.2233 0.984173
1255 1 6.39355 67.6452 2.25467
7490 2 4.57258 67.6376 0.993662
1301 1 3.66617 69.2295 2.24508
1302 1 5.48492 69.2187 -0.342833
1272 1 8.21229 67.6323 -0.333501
7443 2 10.0288 67.6376 0.993662
1253 1 9.1224 69.2295 2.24508
7492 2 7.30138 69.2233 0.984173
1292 1 0.938641 70.8141 2.23755
1303 1 2.75741 70.8055 -0.350168
1333 1 0.0297362 72.3925 -0.355448
7523 2 1.8461 72.3958 0.971339
1254 1 6.39488 70.8141 2.23755
7476 2 4.57382 70.8094 0.976712
1290 1 3.6672 72.3989 2.23212
1305 1 5.48597 72.3925 -0.355448
1258 1 8.21365 70.8055 -0.350168
7442 2 10.0301 70.8094 0.976712
1256 1 9.12343 72.3989 2.23212
7474 2 7.30234 72.3958 0.971339
1291 1 0.939342 73.9839 2.22885
1293 1 2.75813 73.9798 -0.358632
1726 1 0.0300979 75.5671 -0.359697
7949 2 1.84643 75.569 0.967015
1237 1 6.39558 73.9839 2.22885
7475 2 4.57447 73.9823 0.968099
1708 1 3.66755 75.569 2.22775
1709 1 5.48634 75.5671 -0.359697
1257 1 8.21436 73.9798 -0.358632
7427 2 10.0307 73.9823 0.968099
1661 1 9.12379 75.569 2.22775
7921 2 7.30267 75.569 0.967015
7501 2 2.74987 58.1604 3.64971
1311 1 1.8431 59.7524 4.90528
7528 2 0.0230486 59.7407 3.62971
1266 1 4.56983 58.1729 4.92562
7502 2 5.47929 59.7407 3.62971
1212 1 10.0261 58.1729 4.92562
7449 2 8.20611 58.1604 3.64971
1264 1 7.29934 59.7524 4.90528
7487 2 2.75242 61.3217 3.6111
1296 1 1.8457 62.9131 4.86898
7529 2 0.0254817 62.9032 3.59402
1265 1 4.57255 61.3325 4.88635
7485 2 5.48172 62.9032 3.59402
1211 1 10.0288 61.3325 4.88635
7448 2 8.20865 61.3217 3.6111
1267 1 7.30194 62.9131 4.86898
7486 2 2.75471 64.4854 3.57862
1297 1 1.84798 66.0758 4.83948
7520 2 0.0276034 66.068 3.56501
1251 1 4.57501 64.4942 4.85332
7488 2 5.48384 66.068 3.56501
1210 1 10.0312 64.4942 4.85332
7441 2 8.21095 64.4854 3.57862
1249 1 7.30421 66.0758 4.83948
7472 2 2.75662 67.6511 3.5533
1288 1 1.84977 69.2401 4.81771
7521 2 0.0292758 69.2345 3.54359
1250 1 4.57706 67.6578 4.82758
7470 2 5.48551 69.2345 3.54359
1203 1 10.0333 67.6578 4.82758
7440 2 8.21286 67.6511 3.5533
1252 1 7.30601 69.2401 4.81771
7519 2 0.0303543 72.4024 3.53046
1289 1 1.85093 72.4055 4.80436
7471 2 2.75802 70.8183 3.53596
7473 2 5.48659 72.4024 3.53046
1236 1 4.57856 70.8227 4.80995
1234 1 7.30717 72.4055 4.80436
7426 2 8.21426 70.8183 3.53596
1202 1 10.0348 70.8227 4.80995
7461 2 2.75875 73.9866 3.52714
7948 2 0.0307277 75.5708 3.52603
1694 1 1.85134 75.5715 4.79986
1235 1 4.57935 73.9885 4.80099
7908 2 5.48697 75.5708 3.52603
7425 2 8.21499 73.9866 3.52714
1188 1 10.0356 73.9885 4.80099
1660 1 7.30757 75.5715 4.79986
1262 1 2.75252 58.1953 7.49602
7483 2 0.932821 58.1839 6.21571
1294 1 0.0259247 59.7733 7.47503
7480 2 1.84533 59.7832 8.7623
7434 2 4.57182 58.206 8.78351
7446 2 6.38906 58.1839 6.21571
1263 1 5.48216 59.7733 7.47503
7481 2 3.66238 59.7626 6.19516
1209 1 8.20876 58.1953 7.49602
7392 2 10.0281 58.206 8.78351
7432 2 7.30157 59.7832 8.7623
7447 2 9.11862 59.7626 6.19516
1247 1 2.7555 61.3518 7.45548
7482 2 0.935646 61.3419 6.17604
1295 1 0.0287633 62.9307 7.43754
7464 2 1.84839 62.939 8.72441
7433 2 4.57502 61.3609 8.74255
7438 2 6.39188 61.3419 6.17604
1245 1 5.485 62.9307 7.43754
7484 2 3.66507 62.9217 6.15849
1208 1 8.21174 61.3518 7.45548
7391 2 10.0313 61.3609 8.74255
7435 2 7.30463 62.939 8.72441
7436 2 9.12131 62.9217 6.15849
1246 1 2.75817 64.5102 7.42135
7468 2 0.938177 64.502 6.14265
1286 1 0.0312347 66.09 7.40706
7465 2 1.85106 66.0966 8.69359
7419 2 4.5779 64.5176 8.70804
7437 2 6.39442 64.502 6.14265
1248 1 5.48747 66.09 7.40706
7466 2 3.66741 66.0827 6.12867
1201 1 8.21441 64.5102 7.42135
7390 2 10.0341 64.5176 8.70804
7417 2 7.3073 66.0966 8.69359
7439 2 9.12365 66.0827 6.12867
1232 1 2.7604 67.6702 7.39479
7467 2 0.940281 67.6639 6.11665
1287 1 0.0331706 69.2507 7.38462
7456 2 1.85316 69.2555 8.67092
7418 2 4.58032 67.6759 8.68118
7423 2 6.39652 67.6639 6.11665
1230 1 5.48941 69.2507 7.38462
7469 2 3.66924 69.2453 6.10669
1200 1 8.21664 67.6702 7.39479
7384 2 10.0366 67.6759 8.68118
7420 2 7.3094 69.2555 8.67092
7421 2 9.12548 69.2453 6.10669
1231 1 2.762 70.8314 7.37666
7460 2 0.94179 70.8271 6.09888
1285 1 0.0343835 72.4123 7.37096
7457 2 1.85447 72.4154 8.65716
7407 2 4.58205 70.8353 8.66289
7422 2 6.39803 70.8271 6.09888
1233 1 5.49062 72.4123 7.37096
7458 2 3.67039 72.409 6.09328
1187 1 8.21824 70.8314 7.37666
7383 2 10.0383 70.8353 8.66289
7405 2 7.31071 72.4154 8.65716
7424 2 9.12663 72.409 6.09328
1221 1 2.76279 73.9934 7.36758
7459 2 0.942552 73.9911 6.08994
1693 1 0.0347306 75.5745 7.36653
7887 2 1.85481 75.5757 8.65279
7406 2 4.58288 73.9955 8.65378
7408 2 6.39879 73.9911 6.08994
1645 1 5.49097 75.5745 7.36653
7907 2 3.67074 75.5733 6.08889
1186 1 8.21903 73.9934 7.36758
7376 2 10.0391 73.9955 8.65378
7852 2 7.31105 75.5757 8.65279
7853 2 9.12698 75.5733 6.08889
1243 1 0.935156 58.2167 10.0654
7430 2 2.75441 58.2277 11.3522
7462 2 0.0281795 59.8033 11.3301
1206 1 6.39139 58.2167 10.0654
1241 1 3.665 59.7932 10.0436
7431 2 5.48442 59.8033 11.3301
7389 2 8.21065 58.2277 11.3522
1207 1 9.12124 59.7932 10.0436
1242 1 0.93855 61.3701 10.0233
7415 2 2.75813 61.3794 11.3096
7463 2 0.0317661 62.9558 11.2908
1224 1 1.85164 62.9639 12.5714
1198 1 6.39479 61.3701 10.0233
1244 1 3.66826 62.9474 10.0047
7413 2 5.488 62.9558 11.2908
7388 2 8.21437 61.3794 11.3096
1196 1 9.1245 62.9474 10.0047
1195 1 7.30788 62.9639 12.5714
1228 1 0.941643 64.5251 9.98792
7414 2 2.76155 64.5327 11.2737
7454 2 0.0349702 66.1099 11.2587
1225 1 1.85516 66.1163 12.5383
1197 1 6.39788 64.5251 9.98792
1226 1 3.67114 66.1032 9.97309
7416 2 5.49121 66.1099 11.2587
1180 1 4.58158 64.5399 12.5538
1178 1 7.3114 66.1163 12.5383
7382 2 8.21779 64.5327 11.2737
1199 1 9.12738 66.1032 9.97309
1162 1 10.0378 64.5399 12.5538
1216 1 1.85801 69.2699 12.5141
1227 1 0.944256 67.6817 9.96036
7403 2 2.76447 67.6874 11.2458
7455 2 0.0375245 69.2652 11.2352
1184 1 6.40049 67.6817 9.96036
1229 1 3.67342 69.2604 9.94984
7401 2 5.49376 69.2652 11.2352
1179 1 4.58481 67.693 12.5251
1181 1 7.31425 69.2699 12.5141
7381 2 8.22071 67.6874 11.2458
1182 1 9.12966 69.2604 9.94984
1159 1 10.0411 67.693 12.5251
1220 1 0.946136 70.8393 9.94162
7402 2 2.76658 70.8432 11.2269
1217 1 1.8598 72.4243 12.4995
7453 2 0.0391068 72.4214 11.221
1172 1 4.58718 70.847 12.5056
1183 1 6.40237 70.8393 9.94162
1218 1 3.67484 72.4184 9.93577
7404 2 5.49535 72.4214 11.221
1158 1 10.0434 70.847 12.5056
7375 2 8.22281 70.8432 11.2269
1185 1 9.13108 72.4184 9.93577
1170 1 7.31603 72.4243 12.4995
1219 1 0.947033 73.9976 9.93235
7396 2 2.76757 73.9996 11.2176
7886 2 0.0394669 75.5779 11.2166
1623 1 1.86018 75.579 12.4951
1171 1 4.58829 74.0016 12.496
1173 1 6.40327 73.9976 9.93235
1644 1 3.67518 75.5769 9.93137
7837 2 5.49571 75.5779 11.2166
1155 1 10.0445 74.0016 12.496
7374 2 8.22381 73.9996 11.2176
1589 1 9.13142 75.5769 9.93137
1588 1 7.31642 75.579 12.4951
1190 1 2.75609 58.26 15.2043
7411 2 0.936798 58.2497 13.9214
1240 1 1.84776 59.8129 12.612
1222 1 0.0303741 59.8333 15.1805
1194 1 4.57386 58.238 12.6347
7386 2 6.39304 58.2497 13.9214
1191 1 5.48661 59.8333 15.1805
7409 2 3.66715 59.8237 13.8984
1161 1 8.21233 58.26 15.2043
1164 1 10.0301 58.238 12.6347
1192 1 7.304 59.8129 12.612
7387 2 9.12338 59.8237 13.8984
1176 1 2.76087 61.4069 15.1582
7410 2 0.941216 61.3981 13.8769
1223 1 0.0350973 62.9809 15.1378
1193 1 4.57785 61.3882 12.5908
7379 2 6.39745 61.3981 13.8769
1174 1 5.49134 62.9809 15.1378
7412 2 3.67147 62.9729 13.8572
1160 1 8.21711 61.4069 15.1582
1163 1 10.0341 61.3882 12.5908
7377 2 9.12771 62.9729 13.8572
1175 1 2.7655 64.5552 15.1193
7399 2 0.945405 64.548 13.8394
1214 1 0.0395531 66.1298 15.103
7378 2 6.40164 64.548 13.8394
1177 1 5.49579 66.1298 15.103
7397 2 3.67545 66.1234 13.8236
1157 1 8.22174 64.5552 15.1193
7380 2 9.13169 66.1234 13.8236
1168 1 2.76967 67.7046 15.0891
7398 2 0.949087 67.6991 13.8102
1215 1 0.0432944 69.2797 15.0776
7372 2 6.40533 67.6991 13.8102
7400 2 3.67872 69.275 13.7991
1166 1 5.49953 69.2797 15.0776
1156 1 8.22591 67.7046 15.0891
7370 2 9.13495 69.275 13.7991
1167 1 2.77282 70.8549 15.0687
7395 2 0.951802 70.8511 13.7904
1213 1 0.0456761 72.4301 15.0625
1169 1 5.50191 72.4301 15.0625
7393 2 3.68076 72.4273 13.7843
7371 2 6.40804 70.8511 13.7904
7373 2 9.137 72.4273 13.7843
1154 1 8.22905 70.8549 15.0687
1165 1 2.77429 74.0055 15.0589
7394 2 0.95307 74.0035 13.7808
1622 1 0.0461555 75.5808 15.058
7369 2 6.40931 74.0035 13.7808
7836 2 3.68118 75.5798 13.78
1573 1 5.50239 75.5808 15.058
1153 1 8.23053 74.0055 15.0589
7793 2 9.13742 75.5798 13.78
7750 2 0.0254441 56.7287 19.0886
7734 2 2.75675 58.2988 19.0617
1534 1 0.937954 58.284 17.7744
7752 2 1.84968 59.8453 16.467
7738 2 4.57512 58.273 16.4912
7733 2 5.48168 56.7287 19.0886
1511 1 6.39419 58.284 17.7744
1536 1 3.66319 56.7128 17.8009
1510 1 9.11943 56.7128 17.8009
7689 2 8.21299 58.2988 19.0617
7692 2 10.0314 58.273 16.4912
7736 2 7.30591 59.8453 16.467
7746 2 0.0318619 59.8693 19.036
1533 1 0.943758 61.4272 17.7256
7726 2 2.76326 61.44 19.012
7748 2 1.85499 62.9909 16.4235
7737 2 4.58046 61.418 16.4444
7735 2 5.4881 59.8693 19.036
1507 1 6.4 61.4272 17.7256
1532 1 3.66897 59.8554 17.7492
1535 1 3.67481 62.9994 17.7039
1512 1 9.1252 59.8554 17.7492
7688 2 8.2195 61.44 19.012
7691 2 10.0367 61.418 16.4444
7739 2 7.31123 62.9909 16.4235
1505 1 9.13104 62.9994 17.7039
7747 2 0.0384649 63.011 18.9898
1527 1 0.949604 64.5718 17.6844
7725 2 2.76992 64.5822 18.9699
7749 2 1.86008 66.1377 16.3882
7730 2 4.58571 64.5642 16.4048
1506 1 6.40584 64.5718 17.6844
7724 2 5.4947 63.011 18.9898
1525 1 3.68057 66.1445 17.6672
7681 2 8.22616 64.5822 18.9699
7690 2 10.0419 64.5642 16.4048
1508 1 9.13681 66.1445 17.6672
7728 2 7.31632 66.1377 16.3882
7742 2 0.0450778 66.1537 18.9525
1526 1 0.955128 67.7173 17.6525
7712 2 2.7763 67.7252 18.9376
7744 2 1.8644 69.2853 16.3625
7743 2 0.0509531 69.2968 18.9255
7729 2 4.5905 67.7114 16.3741
1495 1 6.41137 67.7173 17.6525
7727 2 5.50132 66.1537 18.9525
1528 1 3.68563 69.2903 17.6405
7710 2 5.50719 69.2968 18.9255
7680 2 8.23254 67.7252 18.9376
7683 2 10.0467 67.7114 16.3741
7731 2 7.32064 69.2853 16.3625
1493 1 9.14187 69.2903 17.6405
1520 1 0.959459 70.8633 17.6312
7711 2 2.78135 70.8684 18.9161
7745 2 1.86717 72.4333 16.3472
7741 2 0.0548358 72.4399 18.9096
1494 1 6.4157 70.8633 17.6312
7716 2 4.59415 70.8593 16.3535
1518 1 3.68895 72.4363 17.6247
7713 2 5.51107 72.4399 18.9096
7666 2 8.23758 70.8684 18.9161
7682 2 10.0504 70.8593 16.3535
1496 1 9.14519 72.4363 17.6247
7714 2 7.32341 72.4333 16.3472
1519 1 0.961529 74.0093 17.6211
7701 2 2.78377 74.0113 18.906
8159 2 1.86772 75.5815 16.3428
8158 2 0.0555975 75.5828 18.9052
1477 1 6.41777 74.0093 17.6211
7715 2 4.59587 74.0074 16.3436
8141 2 5.51184 75.5828 18.9052
1920 1 3.68961 75.5823 17.6203
7665 2 8.24001 74.0113 18.906
7667 2 10.0521 74.0074 16.3436
8148 2 7.32396 75.5815 16.3428
1894 1 9.14584 75.5823 17.6203
1530 1 1.84393 56.7417 20.3736
7722 2 0.937681 58.3286 21.6331
7732 2 3.66199 56.7604 21.6619
1503 1 4.57549 58.3109 20.3454
7686 2 6.39392 58.3286 21.6331
1452 1 10.0317 58.3109 20.3454
1509 1 7.30017 56.7417 20.3736
7685 2 9.11823 56.7604 21.6619
1531 1 1.85087 59.8804 20.3184
7721 2 0.945631 61.4654 21.5798
1502 1 4.58257 61.4502 20.2932
7678 2 6.40187 61.4654 21.5798
7720 2 3.66971 59.8968 21.6056
1451 1 10.0388 61.4502 20.2932
1501 1 7.30711 59.8804 20.3184
7687 2 9.12595 59.8968 21.6056
1523 1 1.85814 63.0203 20.2699
7708 2 0.954125 64.6032 21.5348
1491 1 4.59002 64.5907 20.2491
7677 2 6.41036 64.6032 21.5348
7723 2 3.67794 63.0342 21.5561
1450 1 10.0463 64.5907 20.2491
1504 1 7.31438 63.0203 20.2699
7676 2 9.13417 63.0342 21.5561
1524 1 1.86568 66.1613 20.2309
7707 2 0.962707 67.7413 21.5008
1516 1 1.87266 69.3024 20.2029
1490 1 4.59745 67.7319 20.2155
7663 2 6.41895 67.7413 21.5008
7706 2 3.6866 66.1723 21.5163
1443 1 10.0537 67.7319 20.2155
1489 1 7.32192 66.1613 20.2309
7679 2 9.14283 66.1723 21.5163
1492 1 7.3289 69.3024 20.2029
7700 2 0.969828 70.8789 21.4787
1517 1 1.87743 72.4431 20.1867
1476 1 4.60356 70.8728 20.1933
7662 2 6.42607 70.8789 21.4787
7709 2 3.69471 69.3103 21.4882
7698 2 3.70028 72.4473 21.4722
1442 1 10.0598 70.8728 20.1933
7661 2 9.15094 69.3103 21.4882
1474 1 7.33367 72.4431 20.1867
7664 2 9.15652 72.4473 21.4722
7699 2 0.973345 74.0154 21.4685
1914 1 1.87838 75.5834 20.1823
1475 1 4.60657 74.0133 20.183
7645 2 6.42958 74.0154 21.4685
8140 2 3.70139 75.5835 21.4678
1427 1 10.0628 74.0133 20.183
1893 1 7.33462 75.5834 20.1823
8093 2 9.15762 75.5835 21.4678
1483 1 0.935014 58.3807 25.492
1499 1 2.75592 58.3424 22.9176
1529 1 0.023688 56.7755 22.948
7718 2 1.84112 56.7982 24.2369
1446 1 6.39125 58.3807 25.492
1497 1 3.65824 56.8164 25.5248
1498 1 5.47993 56.7755 22.948
7674 2 4.57378 58.364 24.206
1445 1 9.11448 56.8164 25.5248
1449 1 8.21216 58.3424 22.9176
7620 2 10.03 58.364 24.206
7684 2 7.29735 56.7982 24.2369
1482 1 0.945538 61.5096 25.4295
1487 1 2.76456 61.4771 22.861
1521 1 0.0320365 59.9096 22.8885
7719 2 1.85039 59.9298 24.1762
1438 1 6.40178 61.5096 25.4295
1481 1 3.66824 59.9449 25.4599
1500 1 5.48827 59.9096 22.8885
7673 2 4.58347 61.4957 24.148
1447 1 9.12448 59.9449 25.4599
1448 1 8.2208 61.4771 22.861
7619 2 10.0397 61.4957 24.148
7672 2 7.30663 59.9298 24.1762
1468 1 0.957655 64.6401 25.3773
1486 1 2.77407 64.613 22.8134
1522 1 0.0410771 63.0449 22.8358
7704 2 1.86061 63.0619 24.1223
1437 1 6.41389 64.6401 25.3773
1484 1 3.67946 63.0747 25.4017
1485 1 5.49732 63.0449 22.8358
7659 2 4.59429 64.6283 24.0994
1436 1 9.1357 63.0747 25.4017
1441 1 8.23031 64.613 22.8134
7618 2 10.0505 64.6283 24.0994
7675 2 7.31684 63.0619 24.1223
1467 1 0.971394 67.7709 25.3403
1472 1 2.78414 67.7493 22.778
1514 1 0.0509871 66.1812 22.7941
7705 2 1.87197 66.1947 24.0798
1423 1 6.42763 67.7709 25.3403
1466 1 3.69251 66.2057 25.3567
1488 1 5.50723 66.1812 22.7941
7658 2 4.6059 67.7609 24.0637
1439 1 9.14875 66.2057 25.3567
1440 1 8.24038 67.7493 22.778
7611 2 10.0621 67.7609 24.0637
7657 2 7.32821 66.1947 24.0798
1460 1 0.984041 70.8987 25.3192
1471 1 2.7929 70.8843 22.7557
1515 1 0.0607396 69.317 22.7652
7696 2 1.88326 69.3266 24.051
1513 1 0.0677205 72.4511 22.7492
1422 1 6.44028 70.8987 25.3192
1469 1 3.70623 69.3353 25.3279
1470 1 5.51698 69.317 22.7652
7644 2 4.61606 70.8917 24.0418
1473 1 5.52396 72.4511 22.7492
1421 1 9.16247 69.3353 25.3279
1426 1 8.24914 70.8843 22.7557
7610 2 10.0723 70.8917 24.0418
7660 2 7.3395 69.3266 24.051
7697 2 1.89136 72.4561 24.0356
1459 1 0.990704 74.0224 25.3107
1461 1 2.79735 74.0175 22.7456
8126 2 1.89302 75.5837 24.0317
1913 1 0.0691345 75.5838 22.7449
7643 2 4.62125 74.02 24.0323
1458 1 3.71651 72.461 25.3136
1406 1 6.44694 74.0224 25.3107
1882 1 5.52537 75.5838 22.7449
1881 1 3.71869 75.5834 25.31
1424 1 9.17275 72.461 25.3136
1425 1 8.25359 74.0175 22.7456
7642 2 7.3476 72.4561 24.0356
7596 2 10.0775 74.02 24.0323
8092 2 7.34926 75.5837 24.0317
1829 1 9.17493 75.5834 25.31
1479 1 1.83444 56.8679 28.1053
7670 2 2.752 58.4078 26.7809
7717 2 0.0184925 56.8446 26.8143
1434 1 4.56833 58.429 28.0699
7669 2 5.47473 56.8446 26.8143
1386 1 10.0246 58.429 28.0699
1444 1 7.29068 56.8679 28.1053
7617 2 8.20824 58.4078 26.7809
1480 1 1.8463 59.9895 28.0343
7655 2 2.76375 61.5331 26.7169
7702 2 0.0295659 59.9705 26.7481
1433 1 4.58097 61.5502 27.9999
7671 2 5.4858 59.9705 26.7481
1385 1 10.0372 61.5502 27.9999
1432 1 7.30254 59.9895 28.0343
7616 2 8.21999 61.5331 26.7169
1464 1 1.86013 63.1116 27.9683
7654 2 2.77747 64.6592 26.6632
7703 2 0.0421933 63.096 26.6883
7636 2 0.959058 64.6981 29.2257
1419 1 4.5964 64.6737 27.9408
7653 2 5.49843 63.096 26.6883
7605 2 6.4153 64.6981 29.2257
7652 2 3.67805 63.1395 29.2541
1384 1 10.0526 64.6737 27.9408
1435 1 7.31637 63.1116 27.9683
7609 2 8.23371 64.6592 26.6632
7604 2 9.13428 63.1395 29.2541
1465 1 1.87741 66.2361 27.9188
7640 2 2.79323 67.785 26.6261
7694 2 0.0571019 66.2223 26.6424
7635 2 0.980598 67.8149 29.1874
1418 1 4.6154 67.7979 27.9024
7656 2 5.51334 66.2223 26.6424
7592 2 6.43684 67.8149 29.1874
7634 2 3.69759 66.2567 29.2033
1377 1 10.0716 67.7979 27.9024
1417 1 7.33364 66.2361 27.9188
7608 2 8.24947 67.785 26.6261
7607 2 9.15382 66.2567 29.2033
1456 1 1.89692 69.3584 27.8918
7639 2 2.80781 70.9074 26.6063
7695 2 0.0729114 69.3468 26.6142
7628 2 1.00168 70.9261 29.1731
1405 1 4.63369 70.917 27.8854
7638 2 5.52915 69.3468 26.6142
7591 2 6.45792 70.9261 29.1731
7637 2 3.72001 69.3715 29.1776
1376 1 10.0899 70.917 27.8854
1420 1 7.35316 69.3584 27.8918
7595 2 8.26405 70.9074 26.6063
7590 2 9.17624 69.3715 29.1776
1457 1 1.91214 72.4734 27.8825
7629 2 2.81551 74.025 26.5991
7693 2 0.0847282 72.4667 26.6015
7627 2 1.01288 74.0303 29.1716
1863 1 1.91546 75.582 27.8808
8125 2 0.0872426 75.583 26.5985
1404 1 4.64377 74.0279 27.8815
7641 2 5.54097 72.4667 26.6015
7581 2 6.46912 74.0303 29.1716
7626 2 3.73726 72.4787 29.172
8077 2 5.54348 75.583 26.5985
8076 2 3.74081 75.5817 29.171
1365 1 10.1 74.0279 27.8815
1403 1 7.36838 72.4734 27.8825
7594 2 8.27175 74.025 26.5991
7593 2 9.1935 72.4787 29.172
1828 1 7.3717 75.582 27.8808
8021 2 9.19705 75.5817 29.171
1430 1 2.74235 58.4931 30.6536
1478 1 0.00770264 56.9347 30.6904
7647 2 1.82108 56.9775 31.9777
7651 2 0.927676 58.4637 29.3589
1429 1 5.46394 56.9347 30.6904
7602 2 4.55582 58.537 31.9404
7614 2 6.38391 58.4637 29.3589
7668 2 3.64957 56.903 29.3946
1383 1 8.19859 58.4931 30.6536
7572 2 10.0121 58.537 31.9404
7612 2 7.27732 56.9775 31.9777
7613 2 9.10581 56.903 29.3946
1415 1 2.75723 61.6038 30.5753
1462 1 0.0214148 60.0492 30.6149
7648 2 1.83535 60.0931 31.9006
7650 2 0.941778 61.5812 29.2869
1431 1 5.47765 60.0492 30.6149
7601 2 4.57223 61.6461 31.8593
7606 2 6.39802 61.5812 29.2869
7649 2 3.66258 60.0229 29.3225
1382 1 8.21347 61.6038 30.5753
7571 2 10.0285 61.6461 31.8593
7600 2 7.29159 60.0931 31.9006
7615 2 9.11882 60.0229 29.3225
1414 1 2.77665 64.7163 30.5056
1463 1 0.037734 63.1593 30.5378
7632 2 1.85386 63.1973 31.8191
1413 1 5.49397 63.1593 30.5378
7588 2 4.59388 64.7486 31.7854
1375 1 8.23289 64.7163 30.5056
7570 2 10.0501 64.7486 31.7854
7603 2 7.3101 63.1973 31.8191
1401 1 2.8038 67.8317 30.4656
1454 1 0.0607649 66.2743 30.4809
7633 2 1.87932 66.2998 31.7597
1416 1 5.517 66.2743 30.4809
7587 2 4.62365 67.8505 31.7459
1374 1 8.26004 67.8317 30.4656
7567 2 10.0799 67.8505 31.7459
7586 2 7.33556 66.2998 31.7597
1400 1 2.83078 70.9388 30.458
1455 1 0.0889149 69.3874 30.4586
7624 2 1.91218 69.3992 31.7407
1399 1 5.54515 69.3874 30.4586
7580 2 4.65515 70.9444 31.7455
1364 1 8.28702 70.9388 30.458
7566 2 10.1114 70.9444 31.7455
7589 2 7.36842 69.3992 31.7407
1392 1 2.84513 74.0335 30.4613
1453 1 0.112461 72.4863 30.4605
7625 2 1.93747 72.4896 31.75
1862 1 0.116762 75.5804 30.4605
8055 2 1.94268 75.5807 31.7514
1402 1 5.5687 72.4863 30.4605
7579 2 4.67106 74.0351 31.7522
1813 1 5.573 75.5804 30.4605
1363 1 8.30136 74.0335 30.4613
7563 2 10.1273 74.0351 31.7522
7578 2 7.39371 72.4896 31.75
8020 2 7.39892 75.5807 31.7514
1411 1 0.911986 58.5817 33.2446
7598 2 2.72342 58.6333 34.5235
1428 1 3.63344 57.0224 33.2797
1407 1 1.79883 57.1361 35.869
1380 1 6.36822 58.5817 33.2446
7597 2 5.44584 57.0713 34.5607
1368 1 4.5312 58.7049 35.8394
1378 1 7.25507 57.1361 35.869
1379 1 9.08968 57.0224 33.2797
7569 2 8.17966 58.6333 34.5235
10910 2 10.9021 57.0713 34.5607
1350 1 9.98744 58.7049 35.8394
1410 1 0.928879 61.6833 33.1638
7584 2 2.73977 61.7386 34.4351
7630 2 0.00256284 60.1895 34.4819
1408 1 1.80863 60.2675 35.8074
1372 1 6.38512 61.6833 33.1638
1409 1 3.64791 60.135 33.2057
7599 2 5.4588 60.1895 34.4819
1367 1 4.54319 61.818 35.77
1366 1 7.26486 60.2675 35.8074
1381 1 9.10415 60.135 33.2057
7568 2 8.19601 61.7386 34.4351
1349 1 9.99943 61.818 35.77
1397 1 0.95005 64.7744 33.0774
7583 2 2.76377 64.818 34.3364
7631 2 0.0235023 63.2809 34.3848
1393 1 1.82574 63.3611 35.7312
1371 1 6.40629 64.7744 33.0774
1412 1 3.6661 63.2277 33.1186
7582 2 5.47974 63.2809 34.3848
1357 1 4.56202 64.8789 35.6813
1370 1 9.12234 63.2277 33.1186
7565 2 8.22001 64.818 34.3364
1369 1 7.28197 63.3611 35.7312
1348 1 10.0183 64.8789 35.6813
1396 1 0.989305 67.8761 33.0312
7576 2 2.80573 67.8896 34.2953
7622 2 0.0574372 66.3548 34.3073
1394 1 1.84604 66.4193 35.6402
1361 1 6.44554 67.8761 33.0312
1395 1 3.69523 66.3242 33.0495
7585 2 5.51368 66.3548 34.3073
1356 1 4.63987 67.9133 35.6338
1373 1 9.15147 66.3242 33.0495
7564 2 8.26197 67.8896 34.2953
1355 1 7.30228 66.4193 35.6402
1347 1 10.0961 67.9133 35.6338
1391 1 1.03529 70.9539 33.047
7575 2 2.85765 70.9545 34.3268
7623 2 0.106923 69.418 34.3105
1387 1 1.94329 69.415 35.6651
1360 1 6.49153 70.9539 33.047
1398 1 3.74081 69.4189 33.0387
7574 2 5.56316 69.418 34.3105
1353 1 4.69376 70.9567 35.6467
1359 1 9.19705 69.4189 33.0387
7562 2 8.31389 70.9545 34.3268
1358 1 7.39953 69.415 35.6651
1346 1 10.15 70.9567 35.6467
1388 1 1.97799 72.4969 35.6429
7621 2 0.147438 72.4952 34.3359
1390 1 1.0512 74.0375 33.0503
7573 2 2.88384 74.0379 34.3404
1791 1 1.98101 75.5842 35.6431
8054 2 0.155424 75.5817 34.3395
1352 1 4.70944 74.0373 35.6435
7577 2 5.60368 72.4952 34.3359
1389 1 3.77407 72.4945 33.0489
1354 1 6.50744 74.0375 33.0503
8005 2 5.61166 75.5817 34.3395
1812 1 3.77902 75.5802 33.0496
1345 1 10.1657 74.0373 35.6435
1351 1 7.43422 72.4969 35.6429
1362 1 9.23031 72.4945 33.0489
7561 2 8.34008 74.0379 34.3404
1762 1 7.43725 75.5842 35.6431
1763 1 9.23526 75.5802 33.0496
7774 2 0.889167 58.7566 37.1016
13937 1 2.68199 58.8756 38.4231
7776 2 3.614 57.1853 37.1377
7763 2 6.34541 58.7566 37.1016
13936 1 5.41601 57.278 38.447
7762 2 9.07024 57.1853 37.1377
13902 1 8.13823 58.8756 38.4231
16764 1 10.8722 57.278 38.447
7773 2 0.900372 61.8757 37.0106
13933 1 2.65797 62.0898 38.373
7772 2 3.62264 60.3204 37.0596
7760 2 6.35661 61.8757 37.0106
13938 1 5.40167 60.4753 38.4007
7764 2 9.07888 60.3204 37.0596
13901 1 8.11421 62.0898 38.373
16762 1 10.8579 60.4753 38.4007
7770 2 0.927987 64.9373 36.8843
13932 1 2.42141 65.5192 38.4407
7759 2 6.38423 64.9373 36.8843
7775 2 3.64168 63.4107 36.9459
13931 1 5.35804 63.6966 38.3415
7758 2 9.09792 63.4107 36.9459
13896 1 7.87765 65.5192 38.4407
16763 1 10.8143 63.6966 38.3415
7769 2 0.96298 67.9065 36.875
13922 1 2.18663 69.0927 38.3119
7756 2 6.41922 67.9065 36.875
7768 2 3.64612 66.427 36.8239
13934 1 4.89131 67.2402 38.3865
7761 2 9.10235 66.427 36.8239
13895 1 7.64287 69.0927 38.3119
16760 1 10.3476 67.2402 38.3865
7767 2 1.10001 70.9417 36.9047
13921 1 2.17994 72.426 38.2557
7755 2 6.55625 70.9417 36.9047
7771 2 3.77862 69.3985 36.8777
13920 1 4.9109 70.7826 38.2486
7754 2 9.23486 69.3985 36.8777
13882 1 7.63618 72.426 38.2557
16761 1 10.3671 70.7826 38.2486
7766 2 1.12241 74.0367 36.9216
7753 2 6.57865 74.0367 36.9216
7765 2 3.84195 72.483 36.9206
13923 1 4.91218 74.0158 38.2497
8184 2 3.85 75.5873 36.9205
7757 2 9.29819 72.483 36.9206
16759 1 10.3684 74.0158 38.2497
8170 2 9.30624 75.5873 36.9205
19559 2 1.78619 57.3176 39.7015
19542 2 2.68962 59.0573 42.2111
13929 1 0.852935 59.0377 40.9719
13935 1 3.58897 57.4183 41.0012
19546 2 4.51336 58.9108 39.6658
19541 2 5.42107 57.4457 42.2499
13899 1 6.30917 59.0377 40.9719
19548 2 7.24243 57.3176 39.7015
22378 2 10.8773 57.4457 42.2499
13898 1 9.04521 57.4183 41.0012
19497 2 8.14586 59.0573 42.2111
19500 2 9.9696 58.9108 39.6658
19560 2 1.78433 60.5093 39.6243
13928 1 0.819066 62.3114 40.9084
19534 2 2.67484 62.3071 42.1152
13927 1 3.56812 60.6636 40.9399
19545 2 4.50744 62.1125 39.58
19543 2 5.41247 60.6765 42.167
13893 1 6.2753 62.3114 40.9084
19544 2 7.24057 60.5093 39.6243
22374 2 10.8687 60.6765 42.167
13900 1 9.02436 60.6636 40.9399
19496 2 8.13108 62.3071 42.1152
19499 2 9.96368 62.1125 39.58
19556 2 1.77394 63.7359 39.5204
13918 1 0.824294 65.6247 40.7026
19533 2 2.63012 65.6482 41.9825
13930 1 3.52956 63.964 40.8646
19538 2 4.46649 65.372 39.4431
13892 1 6.28053 65.6247 40.7026
19532 2 5.38536 63.9704 42.0551
19547 2 7.23017 63.7359 39.5204
22375 2 10.8416 63.9704 42.0551
13891 1 8.9858 63.964 40.8646
19489 2 8.08636 65.6482 41.9825
19498 2 9.92273 65.372 39.4431
19557 2 1.62172 67.256 39.3908
13917 1 0.746995 68.9356 40.6452
19520 2 2.553 68.9864 41.9552
13916 1 3.55452 67.2097 40.5666
19537 2 4.29515 69.0417 39.4256
13879 1 6.20323 68.9356 40.6452
19535 2 5.321 67.311 41.9512
19536 2 7.07795 67.256 39.3908
22370 2 10.7772 67.311 41.9512
13894 1 9.01076 67.2097 40.5666
19488 2 8.00924 68.9864 41.9552
19491 2 9.75139 69.0417 39.4256
19552 2 1.52361 70.7339 39.4658
13910 1 0.635928 72.3167 40.7737
19519 2 2.5026 72.3371 42.0097
13919 1 3.40354 70.6265 40.732
13878 1 6.09217 72.3167 40.7737
19518 2 5.2507 70.6664 41.9865
19524 2 4.22969 72.3709 39.4926
19539 2 6.97985 70.7339 39.4658
22371 2 10.7069 70.6664 41.9865
13877 1 8.85978 70.6265 40.732
19474 2 7.95884 72.3371 42.0097
19490 2 9.68593 72.3709 39.4926
19553 2 1.49076 74.01 39.5085
13908 1 3.35147 73.9845 40.788
19521 2 5.22025 73.995 42.0227
19522 2 6.947 74.01 39.5085
22369 2 10.6765 73.995 42.0227
13880 1 8.80771 73.9845 40.788
13925 1 1.77418 57.5371 43.5362
19530 2 0.872481 59.1798 44.7475
19540 2 3.60494 57.5582 44.7892
13889 1 4.49582 59.1643 43.4995
19494 2 6.32872 59.1798 44.7475
13897 1 7.23042 57.5371 43.5362
13836 1 9.95206 59.1643 43.4995
19493 2 9.06118 57.5582 44.7892
13926 1 1.761 60.7991 43.4573
19529 2 0.856041 62.448 44.6494
19528 2 3.59412 60.8095 44.7011
13871 1 2.67713 62.5257 45.9205
13888 1 4.48667 62.4411 43.3973
19486 2 6.31228 62.448 44.6494
13887 1 7.21724 60.7991 43.4573
13835 1 9.94291 62.4411 43.3973
19495 2 9.05036 60.8095 44.7011
13832 1 8.13337 62.5257 45.9205
13914 1 1.75095 64.0869 43.3191
19516 2 0.823075 65.7338 44.5535
19531 2 3.56838 64.0913 44.597
13870 1 2.64821 65.7861 45.8327
13875 1 4.45407 65.7246 43.2674
19485 2 6.27931 65.7338 44.5535
13890 1 7.20719 64.0869 43.3191
13869 1 5.39272 64.1571 45.8717
16733 1 10.849 64.1571 45.8717
13834 1 9.91031 65.7246 43.2674
19484 2 9.02462 64.0913 44.597
13825 1 8.10445 65.7861 45.8327
13915 1 1.70044 67.356 43.2302
19515 2 0.778233 69.0236 44.5156
19514 2 3.52879 67.3771 44.5266
13856 1 2.61702 69.0491 45.7863
13874 1 4.40584 68.9788 43.2052
19471 2 6.23447 69.0236 44.5156
13873 1 7.15668 67.356 43.2302
13872 1 5.36026 67.4159 45.8033
16724 1 10.8165 67.4159 45.8033
13827 1 9.86207 68.9788 43.2052
19487 2 8.98502 67.3771 44.5266
13824 1 8.07326 69.0491 45.7863
13906 1 1.66185 70.6349 43.2225
19508 2 0.749283 72.3325 44.528
19517 2 3.48833 70.6746 44.5194
13855 1 2.59936 72.3373 45.779
13860 1 4.3676 72.3055 43.2567
19470 2 6.20552 72.3325 44.528
13876 1 7.11809 70.6349 43.2225
13854 1 5.33403 70.6875 45.7774
16725 1 10.7903 70.6875 45.7774
13826 1 9.82384 72.3055 43.2567
19469 2 8.94456 70.6746 44.5194
13810 1 8.0556 72.3373 45.779
13907 1 1.62503 73.984 43.277
19506 2 3.47195 73.9935 44.5337
13857 1 5.32435 73.9949 45.7824
13858 1 7.08127 73.984 43.277
19472 2 8.92819 73.9935 44.5337
16723 1 10.7806 73.9949 45.7824
13867 1 0.881929 59.3333 48.5548
13885 1 2.6902 59.2603 46.0228
19526 2 1.79228 57.6515 47.3264
13883 1 3.61409 57.7082 48.5978
13830 1 6.33817 59.3333 48.5548
13884 1 5.42206 57.6324 46.0657
19482 2 4.51566 59.276 47.2843
19492 2 7.24852 57.6515 47.3264
16744 1 10.8783 57.6324 46.0657
13829 1 9.07033 57.7082 48.5978
13833 1 8.14644 59.2603 46.0228
19434 2 9.9719 59.276 47.2843
13866 1 0.867813 62.5857 48.4673
19527 2 1.78073 60.9045 47.2398
13865 1 3.60414 60.9596 48.5103
13822 1 6.32405 62.5857 48.4673
13886 1 5.41346 60.8921 45.9736
19481 2 4.4997 62.5354 47.1949
19480 2 7.23697 60.9045 47.2398
16732 1 10.8697 60.8921 45.9736
13831 1 9.06038 60.9596 48.5103
19433 2 9.95594 62.5354 47.1949
13852 1 0.846581 65.8371 48.395
19512 2 1.76051 64.1668 47.1536
13868 1 3.58594 64.2114 48.4283
13821 1 6.30282 65.8371 48.395
19467 2 4.47594 65.7981 47.1182
19483 2 7.21674 64.1668 47.1536
13820 1 9.04218 64.2114 48.4283
19432 2 9.93218 65.7981 47.1182
13851 1 0.826996 69.0937 48.3481
19513 2 1.73428 67.4305 47.0922
13850 1 3.56413 67.464 48.3681
13807 1 6.28323 69.0937 48.3481
19466 2 4.44971 69.066 47.0756
19465 2 7.19052 67.4305 47.0922
13823 1 9.02037 67.464 48.3681
19425 2 9.90595 69.066 47.0756
13844 1 0.81663 72.3647 48.325
19504 2 1.71078 70.706 47.067
13853 1 3.54864 70.7272 48.334
13806 1 6.27287 72.3647 48.325
19453 2 4.43193 72.3512 47.0634
19468 2 7.16702 70.706 47.067
13805 1 9.00487 70.7272 48.334
19424 2 9.88817 72.3512 47.0634
19505 2 1.70054 74.0009 47.0622
13842 1 3.54328 74.0059 48.3205
19451 2 7.15678 74.0009 47.0622
13808 1 8.99951 74.0059 48.3205
13863 1 1.80508 57.769 51.1365
19478 2 2.70471 59.3488 49.8259
19459 2 0.895302 59.4056 52.3721
19476 2 3.62773 57.7856 52.4096
13818 1 4.5289 59.3907 51.0966
19477 2 5.43758 57.726 49.8661
13828 1 7.26132 57.769 51.1365
19428 2 6.35154 59.4056 52.3721
22345 2 10.8938 57.726 49.8661
13776 1 9.98514 59.3907 51.0966
19431 2 8.16095 59.3488 49.8259
19427 2 9.08397 57.7856 52.4096
13864 1 1.79521 61.0126 51.0571
19463 2 2.69135 62.598 49.7465
19458 2 0.884376 62.6471 52.3001
19457 2 3.6183 61.0262 52.3352
13817 1 4.51658 62.6346 51.0196
19479 2 5.42676 60.9731 49.7855
13816 1 7.25145 61.0126 51.0571
19420 2 6.34061 62.6471 52.3001
22330 2 10.883 60.9731 49.7855
13775 1 9.97282 62.6346 51.0196
19430 2 8.14759 62.598 49.7465
19429 2 9.07454 61.0262 52.3352
13848 1 1.78095 64.2566 50.9852
19462 2 2.6742 65.8488 49.6794
19445 2 0.871799 65.8897 52.2389
19460 2 3.60625 64.2682 52.2677
13803 1 4.50139 65.879 50.955
19461 2 5.41113 64.2232 49.7107
13819 1 7.23719 64.2566 50.9852
19419 2 6.32804 65.8897 52.2389
22331 2 10.8674 64.2232 49.7107
13774 1 9.95763 65.879 50.955
19423 2 8.13044 65.8488 49.6794
19418 2 9.06249 64.2682 52.2677
19443 2 3.59388 67.5122 52.2144
13849 1 1.76621 67.5025 50.9292
19449 2 2.65744 69.1046 49.6346
19444 2 0.860411 69.136 52.1944
19409 2 6.31665 69.136 52.1944
13802 1 4.48844 69.1276 50.9082
19464 2 5.39354 67.4756 49.654
13801 1 7.22245 67.5025 50.9292
22322 2 10.8498 67.4756 49.654
19421 2 9.05011 67.5122 52.2144
13768 1 9.94468 69.1276 50.9082
19422 2 8.11368 69.1046 49.6346
19446 2 3.5842 70.7614 52.1793
19439 2 0.85305 72.3885 52.1689
13840 1 1.75602 70.7547 50.8921
19448 2 2.64639 72.3718 49.6123
19408 2 6.30929 72.3885 52.1689
13791 1 4.48137 72.3837 50.8809
19447 2 5.37905 70.7366 49.621
13804 1 7.21225 70.7547 50.8921
22323 2 10.8353 70.7366 49.621
19407 2 9.04044 70.7614 52.1793
13767 1 9.93761 72.3837 50.8809
19412 2 8.10263 72.3718 49.6123
19437 2 3.57957 74.0167 52.1632
13841 1 1.75191 74.014 50.8747
19450 2 5.37221 74.0094 49.6076
13789 1 7.20815 74.014 50.8747
19410 2 9.03581 74.0167 52.1632
22321 2 10.8284 74.0094 49.6076
13814 1 2.71999 59.4377 53.6438
19455 2 1.81855 57.8345 54.9565
13813 1 5.45213 57.8191 53.6808
19416 2 4.54289 59.4519 54.9213
19426 2 7.27479 57.8345 54.9565
16682 1 10.9084 57.8191 53.6808
13773 1 8.17623 59.4377 53.6438
19398 2 9.99913 59.4519 54.9213
13799 1 2.70986 62.6753 53.5738
19456 2 1.8105 61.0694 54.8871
13815 1 5.44334 61.0565 53.6079
19415 2 4.53398 62.6871 54.8548
19414 2 7.26674 61.0694 54.8871
16666 1 10.8996 61.0565 53.6079
13772 1 8.1661 62.6753 53.5738
19397 2 9.99022 62.6871 54.8548
13798 1 2.69872 65.9134 53.5141
19441 2 1.80105 64.305 54.8249
13797 1 5.43235 64.2942 53.5424
19405 2 4.52444 65.9231 54.798
19417 2 7.25729 64.305 54.8249
16667 1 10.8886 64.2942 53.5424
13766 1 8.15495 65.9134 53.5141
19396 2 9.98067 65.9231 54.798
19442 2 1.7919 67.5417 54.7746
13787 1 2.68949 69.1539 53.4691
19403 2 7.24814 67.5417 54.7746
19404 2 4.51616 69.1609 54.7552
13800 1 5.42182 67.5333 53.4896
16658 1 10.8781 67.5333 53.4896
19395 2 9.9724 69.1609 54.7552
13765 1 8.14572 69.1539 53.4691
19435 2 1.78495 70.7809 54.7402
13786 1 2.6841 72.3976 53.4417
19406 2 7.24119 70.7809 54.7402
19401 2 4.51089 72.4016 54.7296
13785 1 5.41439 70.7753 53.453
16659 1 10.8706 70.7753 53.453
19394 2 9.96713 72.4016 54.7296
13759 1 8.14034 72.3976 53.4417
19436 2 1.78161 74.0228 54.7237
19399 2 7.23785 74.0228 54.7237
13788 1 5.4111 74.0204 53.4355
16657 1 10.8673 74.0204 53.4355
13795 1 0.91142 59.4776 56.1941
14111 1 1.83413 57.8987 58.7792
19752 2 0.0096545 57.8763 57.5059
19745 2 2.73449 59.4912 57.4726
13812 1 3.6431 57.8615 56.2287
13770 1 6.36766 59.4776 56.1941
14098 1 4.55913 59.5124 58.7464
19744 2 5.46589 57.8763 57.5059
14052 1 10.0154 59.5124 58.7464
13769 1 9.09933 57.8615 56.2287
14100 1 7.29036 57.8987 58.7792
19710 2 8.19073 59.4912 57.4726
13794 1 0.903128 62.7097 56.1291
14112 1 1.82764 61.126 58.715
19750 2 0.00277662 61.1061 57.4406
19741 2 2.72711 62.7209 57.4103
13793 1 3.63554 61.0936 56.1607
14097 1 4.55223 62.7394 58.6853
13763 1 6.35937 62.7097 56.1291
19746 2 5.45902 61.1061 57.4406
14051 1 10.0085 62.7394 58.6853
13771 1 9.09177 61.0936 56.1607
14096 1 7.28387 61.126 58.715
19709 2 8.18335 62.7209 57.4103
13783 1 0.894561 65.9418 56.0734
14108 1 1.82058 64.3527 58.6578
19740 2 2.71958 65.9507 57.3571
13796 1 3.62688 64.3257 56.0998
14090 1 4.54533 65.9658 58.633
13762 1 6.3508 65.9418 56.0734
19739 2 5.4514 64.3358 57.3824
14099 1 7.27682 64.3527 58.6578
14050 1 10.0016 65.9658 58.633
13761 1 9.08312 64.3257 56.0998
19704 2 8.17581 65.9507 57.3571
22571 2 10.9076 64.3358 57.3824
13782 1 0.887493 69.1747 56.0309
14109 1 1.81414 67.5789 58.6113
19730 2 2.7132 69.181 57.3167
13781 1 3.61886 67.5581 56.0503
14089 1 4.53962 69.1919 58.5931
13756 1 6.34373 69.1747 56.0309
19742 2 5.44428 67.5658 57.3351
14088 1 7.27037 67.5789 58.6113
14043 1 9.99586 69.1919 58.5931
13764 1 9.0751 67.5581 56.0503
19703 2 8.16944 69.181 57.3167
22568 2 10.9005 67.5658 57.3351
13779 1 0.883181 72.4086 56.0049
14104 1 1.8094 70.8048 58.5788
19729 2 2.70916 72.4123 57.2921
13784 1 3.61307 70.7915 56.0156
14076 1 4.53605 72.4178 58.5686
13755 1 6.33942 72.4086 56.0049
19728 2 5.43895 70.7965 57.3023
14091 1 7.26564 70.8048 58.5788
14042 1 9.99228 72.4178 58.5686
13754 1 9.0693 70.7915 56.0156
19690 2 8.1654 72.4123 57.2921
22569 2 10.8952 70.7965 57.3023
14105 1 1.80712 74.0308 58.5628
13777 1 3.61036 74.0258 55.9988
19731 2 5.43636 74.0282 57.2863
14074 1 7.26335 74.0308 58.5628
13757 1 9.0666 74.0258 55.9988
22567 2 10.8926 74.0282 57.2863
14094 1 2.75043 59.544 61.3004
14110 1 0.0250492 57.9325 61.3317
19737 2 0.926011 59.5258 60.0255
14093 1 5.48129 57.9325 61.3317
19707 2 6.38225 59.5258 60.0255
19743 2 3.65701 57.9132 60.0572
19697 2 4.57352 59.5577 62.5797
14049 1 8.20667 59.544 61.3004
19706 2 9.11324 57.9132 60.0572
19644 2 10.0298 59.5577 62.5797
14086 1 2.74453 62.7661 61.2423
14106 1 0.0194023 61.1552 61.2705
19736 2 0.91977 62.7505 59.9667
19734 2 1.84272 61.1677 62.5508
14095 1 5.47564 61.1552 61.2705
19701 2 6.37601 62.7505 59.9667
19735 2 3.65106 61.1382 59.9952
19696 2 4.5681 62.7774 62.5236
14048 1 8.20077 62.7661 61.2423
19708 2 9.1073 61.1382 59.9952
19643 2 10.0243 62.7774 62.5236
19695 2 7.29895 61.1677 62.5508
14085 1 2.73875 65.987 61.193
14107 1 0.0134547 64.3767 61.2164
19726 2 0.913585 65.9745 59.9165
19722 2 1.83729 64.3868 62.4985
14084 1 5.46969 64.3767 61.2164
19700 2 6.36982 65.9745 59.9165
19738 2 3.64473 64.3625 59.9403
19683 2 4.56284 65.9959 62.476
14041 1 8.19499 65.987 61.193
19699 2 9.10097 64.3625 59.9403
19642 2 10.0191 65.9959 62.476
19698 2 7.29353 64.3868 62.4985
14072 1 2.73397 69.2069 61.1554
14102 1 0.00806732 67.5971 61.1725
19725 2 0.908423 69.198 59.8784
19723 2 1.83238 67.6047 62.4563
19724 2 3.63894 67.5863 59.8958
14087 1 5.46431 67.5971 61.1725
19687 2 6.36466 69.198 59.8784
19682 2 4.55848 69.2133 62.4399
14040 1 8.19021 69.2069 61.1554
19702 2 9.09517 67.5863 59.8958
19635 2 10.0147 69.2133 62.4399
19681 2 7.28862 67.6047 62.4563
14071 1 2.73093 72.4262 61.1323
14103 1 0.00407487 70.8166 61.1419
19718 2 0.905133 72.4215 59.855
19727 2 3.63462 70.8098 59.8647
19714 2 1.82873 70.8217 62.4269
14070 1 5.46031 70.8166 61.1419
19686 2 6.36137 72.4215 59.855
19668 2 4.55568 72.43 62.4176
14026 1 8.18716 72.4262 61.1323
19685 2 9.09086 70.8098 59.8647
19634 2 10.0119 72.43 62.4176
19684 2 7.28497 70.8217 62.4269
19716 2 3.63249 74.0332 59.8494
19715 2 1.82689 74.0382 62.4122
14101 1 0.0020925 74.0356 61.1267
14073 1 5.45833 74.0356 61.1267
19688 2 9.08873 74.0332 59.8494
19666 2 7.28313 74.0382 62.4122
14082 1 0.941386 59.5737 63.856
19693 2 2.76441 59.5883 65.1347
19732 2 0.038606 57.9801 65.164
19733 2 1.84795 57.9473 62.6101
14046 1 6.39762 59.5737 63.856
14092 1 3.67195 57.9644 63.8861
19692 2 5.49484 57.9801 65.164
14045 1 9.12819 57.9644 63.8861
19641 2 8.22065 59.5883 65.1347
19705 2 7.30419 57.9473 62.6101
14081 1 0.936227 62.7911 63.8004
19679 2 2.75958 62.8034 65.0808
19720 2 0.0338871 61.1961 65.1069
14038 1 6.39247 62.7911 63.8004
14080 1 3.66695 61.1826 63.8273
19694 2 5.49013 61.1961 65.1069
14047 1 9.12318 61.1826 63.8273
19640 2 8.21582 62.8034 65.0808
14068 1 0.931239 66.0068 63.7535
19678 2 2.75495 66.0165 65.0353
19721 2 0.0290864 64.4101 65.0568
14037 1 6.38748 66.0068 63.7535
14083 1 3.66179 64.3991 63.7757
19677 2 5.48532 64.4101 65.0568
14036 1 9.11803 64.3991 63.7757
19633 2 8.21119 66.0165 65.0353
14067 1 0.927109 69.221 63.7178
19664 2 2.75113 69.228 65.0008
19712 2 0.0247865 67.6224 65.0165
14023 1 6.38335 69.221 63.7178
14066 1 3.65714 67.6141 63.7341
19680 2 5.48102 67.6224 65.0165
14039 1 9.11338 67.6141 63.7341
19632 2 8.20737 69.228 65.0008
14060 1 0.924445 72.4342 63.6957
19663 2 2.74865 72.4384 64.9793
19713 2 0.0215736 70.8333 64.9883
14022 1 6.38068 72.4342 63.6957
14069 1 3.65368 70.8277 63.7049
19662 2 5.47781 70.8333 64.9883
14021 1 9.10992 70.8277 63.7049
19618 2 8.20488 72.4384 64.9793
19711 2 0.0199097 74.0434 64.974
14058 1 3.65192 74.0406 63.6902
19665 2 5.47615 74.0434 64.974
14024 1 9.10816 74.0406 63.6902
14078 1 1.86214 57.9957 66.443
19675 2 0.954785 59.6194 67.6895
14030 1 2.7775 59.6328 68.9773
14077 1 0.0514022 58.0275 69.0056
14034 1 4.58804 59.6029 66.4139
19638 2 6.41102 59.6194 67.6895
19691 2 3.68506 58.0132 67.7179
14029 1 5.50764 58.0275 69.0056
13986 1 10.0443 59.6029 66.4139
14044 1 7.31838 57.9957 66.443
19637 2 9.1413 58.0132 67.7179
13983 1 8.23373 59.6328 68.9773
14079 1 1.85763 61.2096 66.3863
19674 2 0.950343 62.8297 67.6374
14015 1 2.77333 62.841 68.9255
14062 1 0.0472978 61.2373 68.9505
14033 1 4.58343 62.8157 66.3605
19630 2 6.40658 62.8297 67.6374
19673 2 3.68069 61.2249 67.6626
14031 1 5.50354 61.2373 68.9505
13985 1 10.0397 62.8157 66.3605
14032 1 7.31387 61.2096 66.3863
19639 2 9.13692 61.2249 67.6626
13982 1 8.22957 62.841 68.9255
14064 1 1.85305 64.4213 66.3367
19660 2 0.946123 66.0374 67.5936
14014 1 2.76938 66.0466 68.8819
14063 1 0.0431839 64.4442 68.9026
14019 1 4.57902 66.0263 66.3154
19629 2 6.40236 66.0374 67.5936
19676 2 3.67629 64.4338 67.6143
14013 1 5.49942 64.4442 68.9026
13984 1 10.0353 66.0263 66.3154
14035 1 7.30928 64.4213 66.3367
19628 2 9.13253 64.4338 67.6143
13975 1 8.22562 66.0466 68.8819
14065 1 1.84894 67.6309 66.2968
19659 2 0.942631 69.2431 67.5603
14001 1 2.76611 69.2499 68.8489
14054 1 0.039515 67.6485 68.864
14018 1 4.57536 69.2351 66.2811
19615 2 6.39887 69.2431 67.5603
19658 2 3.67237 67.6405 67.5755
14016 1 5.49575 67.6485 68.864
13977 1 10.0316 69.2351 66.2811
14017 1 7.30518 67.6309 66.2968
19631 2 9.12861 67.6405 67.5755
13974 1 8.22235 69.2499 68.8489
14056 1 1.84586 70.8389 66.2688
19652 2 0.940325 72.4472 67.5394
14000 1 2.76395 72.4515 68.8282
14055 1 0.0367516 70.8509 68.8369
14005 1 4.57297 72.4425 66.2598
19614 2 6.39656 72.4472 67.5394
19661 2 3.66943 70.8453 67.5482
13999 1 5.49299 70.8509 68.8369
13976 1 10.0292 72.4425 66.2598
14020 1 7.3021 70.8389 66.2688
19613 2 9.12566 70.8453 67.5482
13964 1 8.22019 72.4515 68.8282
14057 1 1.84424 74.0459 66.2545
14053 1 0.0352661 74.052 68.8229
19650 2 3.66784 74.049 67.5341
14002 1 5.4915 74.052 68.8229
14003 1 7.30048 74.0459 66.2545
19616 2 9.12408 74.049 67.5341
14011 1 0.96302 59.6634 71.5571
19671 2 1.87509 58.0477 70.2673
13980 1 6.41926 59.6634 71.5571
14028 1 3.69293 58.0601 71.5846
19626 2 4.60117 59.6518 70.2395
13979 1 9.14917 58.0601 71.5846
19584 2 10.0574 59.6518 70.2395
19636 2 7.33133 58.0477 70.2673
14010 1 0.959354 62.8671 71.5066
19672 2 1.87096 61.255 70.2132
13972 1 6.41559 62.8671 71.5066
14009 1 3.68931 61.2657 71.531
19625 2 4.59699 62.8573 70.1887
13981 1 9.14554 61.2657 71.531
19583 2 10.0532 62.8573 70.1887
19624 2 7.3272 61.255 70.2132
13997 1 0.955885 66.0675 71.4643
19656 2 1.86684 64.4587 70.1662
13971 1 6.41212 66.0675 71.4643
14012 1 3.68569 64.4677 71.4843
19611 2 4.59305 66.0594 70.1461
13970 1 9.14193 64.4677 71.4843
19582 2 10.0493 66.0594 70.1461
19627 2 7.32308 64.4587 70.1662
13996 1 0.95302 69.265 71.4323
19657 2 1.86318 67.6594 70.1285
13961 1 6.40926 69.265 71.4323
13995 1 3.68247 67.6666 71.4469
19610 2 4.58979 69.2588 70.1138
13973 1 9.13871 67.6666 71.4469
19576 2 10.046 69.2588 70.1138
19609 2 7.31942 67.6594 70.1285
19648 2 1.86043 70.8577 70.1021
13998 1 3.68005 70.8629 71.4207
13959 1 9.13629 70.8629 71.4207
19612 2 7.31667 70.8577 70.1021
13991 1 0.951127 72.4604 71.4122
19649 2 1.85895 74.0545 70.0884
13960 1 6.40737 72.4604 71.4122
19599 2 4.58764 72.4562 70.0936
13989 1 3.67875 74.0576 71.4071
19575 2 10.0439 72.4562 70.0936
13962 1 9.13499 74.0576 71.4071
19597 2 7.31519 74.0545 70.0884
14007 1 1.83466 58.0898 74.2418
19603 2 0.95742 59.716 75.2623
19622 2 2.78955 59.686 72.777
19670 2 0.0634083 58.0839 72.8043
13968 1 4.5629 59.6915 74.2144
19578 2 6.41366 59.716 75.2623
19620 2 3.68676 58.1155 75.2887
19621 2 5.51965 58.0839 72.8043
13950 1 10.0191 59.6915 74.2144
13978 1 7.2909 58.0898 74.2418
19577 2 9.143 58.1155 75.2887
19581 2 8.24579 59.686 72.777
14008 1 1.83485 61.2921 74.1885
19602 2 0.95484 62.9128 75.2141
19607 2 2.78551 62.8866 72.7273
19654 2 0.0594139 61.2869 72.7513
13967 1 4.56302 62.8917 74.1644
19571 2 6.41108 62.9128 75.2141
19601 2 3.68426 61.3151 75.2373
19623 2 5.51565 61.2869 72.7513
13949 1 10.0193 62.8917 74.1644
13966 1 7.29109 61.2921 74.1885
19579 2 9.1405 61.3151 75.2373
19580 2 8.24175 62.8866 72.7273
13993 1 1.83492 64.4902 74.1422
19591 2 0.952337 66.1042 75.1738
19606 2 2.78167 66.0828 72.6857
19655 2 0.0554185 64.4852 72.7053
13957 1 4.56305 66.0878 74.1224
19570 2 6.40858 66.1042 75.1738
19604 2 3.68168 64.5091 75.1928
19605 2 5.51166 64.4852 72.7053
13948 1 10.0193 66.0878 74.1224
13969 1 7.29116 64.4902 74.1422
19569 2 9.13792 64.5091 75.1928
19574 2 8.23791 66.0828 72.6857
13994 1 1.83494 67.6844 74.1051
19590 2 0.950241 69.2912 75.1435
19595 2 2.77849 69.2754 72.6542
19646 2 0.0518537 67.6795 72.6685
13956 1 4.56307 69.2803 74.0906
19564 2 6.40648 69.2912 75.1435
19589 2 3.67934 67.6982 75.1573
19608 2 5.50809 67.6795 72.6685
13947 1 10.0193 69.2803 74.0906
13955 1 7.29118 67.6844 74.1051
19572 2 9.13558 67.6982 75.1573
19573 2 8.23473 69.2754 72.6542
13987 1 1.83495 70.8755 74.0791
19647 2 0.0491649 70.8707 72.6428
19592 2 3.67756 70.8833 75.1325
19593 2 5.5054 70.8707 72.6428
13958 1 7.29119 70.8755 74.0791
19562 2 9.1338 70.8833 75.1325
19587 2 0.948847 72.4748 75.1246
19594 2 2.77639 72.4654 72.6345
19645 2 0.0477173 74.0598 72.6295
13988 1 1.83496 74.0645 74.0657
13953 1 4.56308 72.4702 74.0708
19563 2 6.40509 72.4748 75.1246
19596 2 5.50396 74.0598 72.6295
19585 2 3.6766 74.0658 75.1198
13946 1 10.0193 72.4702 74.0708
19567 2 8.23263 72.4654 72.6345
19565 2 9.13284 74.0658 75.1198
13951 1 7.2912 74.0645 74.0657
7953 2 0.934428 77.157 -1.57758
7961 2 2.76471 77.1567 -4.07108
1728 1 1.87689 78.7408 -3.01609
7966 2 0.036231 78.7478 -4.06799
1714 1 4.60556 77.1524 -3.01924
7923 2 6.39067 77.157 -1.57758
7951 2 3.66231 78.7461 -1.57441
7962 2 5.49247 78.7478 -4.06799
1668 1 10.0618 77.1524 -3.01924
7926 2 8.22094 77.1567 -4.07108
1712 1 7.33312 78.7408 -3.01609
7924 2 9.11855 78.7461 -1.57441
7952 2 0.933807 80.3351 -1.56915
7957 2 2.76377 80.3387 -4.06287
1713 1 4.60409 80.3291 -3.01086
7917 2 6.39005 80.3351 -1.56915
1667 1 10.0603 80.3291 -3.01086
7925 2 8.22001 80.3387 -4.06287
1724 1 1.87472 81.9172 -3.0036
7942 2 0.932637 83.5118 -1.55254
7956 2 2.76198 83.5193 -4.0467
7967 2 0.0348511 81.9292 -4.05575
1706 1 4.60125 83.505 -2.99436
7916 2 6.38888 83.5118 -1.55254
7954 2 3.6614 81.9237 -1.56184
7955 2 5.49109 81.9292 -4.05575
1666 1 10.0575 83.505 -2.99436
1715 1 7.33096 81.9172 -3.0036
7915 2 9.11764 81.9237 -1.56184
7920 2 8.21821 83.5193 -4.0467
1725 1 1.87125 85.0925 -2.98322
7941 2 0.93104 86.6864 -1.5283
7946 2 2.75948 86.6978 -4.02312
7964 2 0.0326848 85.1089 -4.0358
1705 1 4.5972 86.6795 -2.97026
7903 2 6.38728 86.6864 -1.5283
7940 2 3.66 85.0994 -1.54134
7958 2 5.48892 85.1089 -4.0358
1659 1 10.0534 86.6795 -2.97026
1704 1 7.32749 85.0925 -2.98322
7918 2 9.11624 85.0994 -1.54134
7919 2 8.21571 86.6978 -4.02312
1720 1 1.86666 88.2659 -2.95558
7934 2 0.929155 89.8582 -1.49718
7945 2 2.75644 89.8734 -3.99285
7965 2 0.0298944 88.286 -4.00876
1692 1 4.59213 89.8518 -2.93929
7902 2 6.38539 89.8582 -1.49718
7943 2 3.65824 88.2727 -1.51355
7944 2 5.48613 88.286 -4.00876
1658 1 10.0484 89.8518 -2.93929
1707 1 7.3229 88.2659 -2.95558
7901 2 9.11448 88.2727 -1.51355
7906 2 8.21268 89.8734 -3.99285
1721 1 1.86117 91.4369 -2.92152
7933 2 0.927106 93.0266 -1.46014
7935 2 2.75303 93.0454 -3.95682
7963 2 0.0266503 91.4599 -3.97549
1691 1 4.58626 93.0214 -2.90239
7885 2 6.38334 93.0266 -1.46014
7932 2 3.65626 91.4428 -1.47934
7947 2 5.48289 91.4599 -3.97549
1643 1 10.0425 93.0214 -2.90239
1690 1 7.31741 91.4369 -2.92152
7904 2 9.1125 91.4428 -1.47934
7905 2 8.20926 93.0454 -3.95682
1698 1 0.939342 77.1541 2.22885
1710 1 2.75813 77.1544 -0.358632
1722 1 0.0297362 78.7416 -0.355448
7950 2 1.8461 78.7421 0.97134
1662 1 6.39558 77.1541 2.22885
7913 2 4.57447 77.1556 0.968099
1696 1 3.6672 78.7391 2.23212
1711 1 5.48597 78.7416 -0.355448
1665 1 8.21436 77.1544 -0.358632
7860 2 10.0307 77.1556 0.968099
1663 1 9.12343 78.7391 2.23212
7911 2 7.30234 78.7421 0.97134
1697 1 0.938641 80.3239 2.23755
1702 1 2.75741 80.3287 -0.350168
1654 1 6.39488 80.3239 2.23755
7912 2 4.57382 80.3284 0.976712
1664 1 8.21365 80.3287 -0.350168
7859 2 10.0301 80.3284 0.976712
1684 1 0.93731 83.4928 2.25467
1701 1 2.75605 83.5018 -0.333501
1723 1 0.0286866 81.9154 -0.342833
7938 2 1.84515 81.9145 0.984173
1653 1 6.39355 83.4928 2.25467
1699 1 3.66617 81.9085 2.24508
1700 1 5.48493 81.9154 -0.342833
7899 2 4.57258 83.5001 0.993662
1652 1 9.1224 81.9085 2.24508
1657 1 8.21229 83.5018 -0.333501
7858 2 10.0288 83.5001 0.993662
7914 2 7.30138 81.9145 0.984173
1683 1 0.935468 86.66 2.27968
1688 1 2.75416 86.6732 -0.309148
1718 1 0.0270447 85.0878 -0.322244
7939 2 1.84366 85.0853 1.0051
1639 1 6.39171 86.66 2.27968
1682 1 3.66456 85.0766 2.26623
1703 1 5.48328 85.0878 -0.322244
7898 2 4.57088 86.67 1.01841
1655 1 9.1208 85.0766 2.26623
1656 1 8.2104 86.6732 -0.309148
7851 2 10.0271 86.67 1.01841
7897 2 7.2999 85.0853 1.0051
1676 1 0.93325 89.8252 2.3118
1687 1 2.75188 89.8423 -0.277856
1719 1 0.0249401 88.2581 -0.294314
7930 2 1.84178 88.254 1.03347
1638 1 6.38949 89.8252 2.3118
1685 1 3.66252 88.2429 2.29491
1686 1 5.48118 88.2581 -0.294314
7884 2 4.56885 89.8374 1.05017
1637 1 9.11876 88.2429 2.29491
1642 1 8.20811 89.8423 -0.277856
7850 2 10.0251 89.8374 1.05017
7900 2 7.29802 88.254 1.03347
1675 1 0.930774 92.9879 2.35003
1677 1 2.74932 93.0086 -0.240576
1717 1 0.0225053 91.4258 -0.259899
7931 2 1.83963 91.4201 1.06838
1621 1 6.38701 92.9879 2.35003
1674 1 3.66016 91.4068 2.33022
1689 1 5.47874 91.4258 -0.259899
7883 2 4.5666 93.0021 1.08796
1640 1 9.1164 91.4068 2.33022
1641 1 8.20556 93.0086 -0.240576
7835 2 10.0228 93.0021 1.08796
7882 2 7.29586 91.4201 1.06838
7909 2 2.75875 77.1551 3.52714
1695 1 1.85093 78.7374 4.80436
7936 2 0.0303543 78.7392 3.53046
1650 1 4.57935 77.1545 4.80099
7910 2 5.48659 78.7392 3.53046
1596 1 10.0356 77.1545 4.80099
7857 2 8.21499 77.1551 3.52714
1648 1 7.30717 78.7374 4.80436
7895 2 2.75802 80.3232 3.53596
1680 1 1.84977 81.9027 4.81771
1649 1 4.57856 80.3202 4.80995
1595 1 10.0348 80.3202 4.80995
7856 2 8.21426 80.3232 3.53596
1651 1 7.30601 81.9027 4.81771
7894 2 2.75662 83.4903 3.5533
7937 2 0.0292758 81.9069 3.54359
1635 1 4.57706 83.4849 4.82758
7893 2 5.48551 81.9069 3.54359
1594 1 10.0333 83.4849 4.82758
7849 2 8.21286 83.4903 3.5533
1681 1 1.84798 85.0668 4.83948
7880 2 2.75471 86.6558 3.57862
7928 2 0.0276035 85.0733 3.56501
1634 1 4.57501 86.6482 4.85332
7896 2 5.48384 85.0733 3.56501
1587 1 10.0312 86.6482 4.85332
1633 1 7.30421 85.0668 4.83948
7848 2 8.21095 86.6558 3.57862
1672 1 1.8457 88.2292 4.86898
7879 2 2.75242 89.8192 3.6111
7929 2 0.0254818 88.2378 3.59402
1620 1 4.57255 89.8096 4.88635
7878 2 5.48172 88.2378 3.59402
1586 1 10.0288 89.8096 4.88635
1636 1 7.30194 88.2292 4.86898
7834 2 8.20865 89.8192 3.6111
1673 1 1.8431 91.3896 4.90528
7869 2 2.74987 92.9803 3.64971
7927 2 0.0230487 91.4001 3.62971
1619 1 4.56983 92.969 4.92562
7881 2 5.47929 91.4001 3.62971
1572 1 10.0261 92.969 4.92562
1618 1 7.29934 91.3896 4.90528
7833 2 8.20611 92.9803 3.64971
1646 1 2.76268 77.1555 7.36783
7891 2 0.942478 77.1554 6.09012
1678 1 0.03417 78.7365 7.37147
7888 2 1.85414 78.7359 8.65794
7842 2 4.58272 77.1558 8.65418
7854 2 6.39872 77.1554 6.09012
1647 1 5.49041 78.7365 7.37147
7889 2 3.67025 78.7374 6.09364
1593 1 8.21892 77.1555 7.36783
7800 2 10.039 77.1558 8.65418
7840 2 7.31038 78.7359 8.65794
7855 2 9.12648 78.7374 6.09364
1631 1 2.76169 80.3173 7.37741
7890 2 0.94158 80.3193 6.09941
1679 1 0.0327778 81.898 7.3856
7872 2 1.85256 81.8956 8.67244
7841 2 4.58157 80.3158 8.66405
7846 2 6.39782 80.3193 6.09941
1629 1 5.48902 81.898 7.3856
7892 2 3.66897 81.9009 6.10739
1592 1 8.21793 80.3173 7.37741
7799 2 10.0378 80.3158 8.66405
7843 2 7.3088 81.8956 8.67244
7844 2 9.12521 81.9009 6.10739
1630 1 2.75994 83.4783 7.39598
7876 2 0.939964 83.4823 6.1175
7873 2 1.85026 85.0541 8.69576
7827 2 4.5796 83.475 8.68304
7845 2 6.3962 83.4823 6.1175
1585 1 8.21618 83.4783 7.39598
7798 2 10.0358 83.475 8.68304
7825 2 7.3065 85.0541 8.69576
1616 1 2.75761 86.6379 7.42292
1670 1 0.0307146 85.0583 7.40846
7875 2 0.937788 86.6438 6.14377
1632 1 5.48695 85.0583 7.40846
7826 2 4.57703 86.6328 8.71048
7831 2 6.39403 86.6438 6.14377
7874 2 3.66705 85.0633 6.12966
1584 1 8.21385 86.6379 7.42292
7792 2 10.0333 86.6328 8.71048
7847 2 9.12329 85.0633 6.12966
1615 1 2.75487 89.7958 7.45732
1671 1 0.0281642 88.2171 7.43926
7864 2 1.84746 88.2112 8.72708
7868 2 0.935214 89.8036 6.17735
1614 1 5.4844 88.2171 7.43926
7815 2 4.57405 89.7891 8.74541
7830 2 6.39145 89.8036 6.17735
7877 2 3.66466 88.2239 6.15971
1571 1 8.21111 89.7958 7.45732
7791 2 10.0303 89.7891 8.74541
7828 2 7.3037 88.2112 8.72708
7829 2 9.1209 88.2239 6.15971
1605 1 2.75186 92.9519 7.49802
1669 1 0.0252762 91.3741 7.47696
7865 2 1.84433 91.3665 8.76531
7867 2 0.932363 92.9613 6.21713
1617 1 5.48151 91.3741 7.47696
7814 2 4.5708 92.9435 8.78662
7816 2 6.3886 92.9613 6.21713
7866 2 3.66194 91.3827 6.19654
1570 1 8.20809 92.9519 7.49802
7784 2 10.027 92.9435 8.78662
7813 2 7.30057 91.3665 8.76531
7832 2 9.11817 91.3827 6.19654
1627 1 0.946812 77.1561 9.93286
7838 2 2.76728 77.1561 11.2182
7870 2 0.0385445 78.7343 11.2222
1624 1 1.85909 78.7336 12.5011
1590 1 6.40305 77.1561 9.93286
1578 1 4.58793 77.1563 12.4968
1625 1 3.67441 78.7352 9.93678
7839 2 5.49478 78.7343 11.2222
7797 2 8.22352 77.1561 11.2182
1548 1 10.0442 77.1563 12.4968
1591 1 9.13064 78.7352 9.93678
1576 1 7.31533 78.7336 12.5011
1626 1 0.945512 80.3142 9.94311
7823 2 2.76576 80.3123 11.2287
7871 2 0.0364987 81.8902 11.2376
1608 1 1.85674 81.8877 12.5171
1582 1 6.40175 80.3142 9.94311
1577 1 4.58617 80.3107 12.5078
1628 1 3.67263 81.893 9.95179
7821 2 5.49274 81.8902 11.2376
7796 2 8.222 80.3123 11.2287
1547 1 10.0424 80.3107 12.5078
1580 1 9.12887 81.893 9.95179
1579 1 7.31298 81.8877 12.5171
1612 1 0.943328 83.4715 9.96274
7822 2 2.76327 83.4678 11.2488
7862 2 0.0336291 85.0451 11.2622
1609 1 1.85352 85.0408 12.5426
1581 1 6.39957 83.4715 9.96274
1564 1 4.58333 83.4644 12.5287
7824 2 5.48987 85.0451 11.2622
1610 1 3.67011 85.0497 9.97586
7790 2 8.2195 83.4678 11.2488
1546 1 10.0396 83.4644 12.5287
1562 1 7.30976 85.0408 12.5426
1583 1 9.12634 85.0497 9.97586
1611 1 0.940522 86.6276 9.99105
7811 2 2.7601 86.622 11.2777
7863 2 0.0302431 88.1986 11.2951
1600 1 1.8498 88.1927 12.5766
1568 1 6.39676 86.6276 9.99105
1563 1 4.57982 86.6169 12.5586
7809 2 5.48648 88.1986 11.2951
7789 2 8.21634 86.622 11.2777
1543 1 10.0361 86.6169 12.5586
1565 1 7.30604 88.1927 12.5766
1604 1 0.937318 89.7821 10.027
7810 2 2.75655 89.7748 11.3142
7861 2 0.0265547 91.3506 11.335
1567 1 6.39356 89.7821 10.027
1613 1 3.66708 88.205 10.0081
7812 2 5.48279 91.3506 11.335
1566 1 9.12332 88.205 10.0081
7783 2 8.21279 89.7748 11.3142
1603 1 0.933848 92.9349 10.0694
7804 2 2.75275 92.926 11.3571
8294 2 0.0226677 94.501 11.3805
1557 1 6.39009 92.9349 10.0694
1602 1 3.66373 91.3587 10.0475
8245 2 5.47891 94.501 11.3805
1569 1 9.11997 91.3587 10.0475
7782 2 8.20899 92.926 11.3571
1574 1 2.77374 77.1561 15.0599
7819 2 0.952625 77.1561 13.7817
1606 1 0.0446063 78.7314 15.0645
7794 2 6.40886 77.1561 13.7817
1575 1 5.50084 78.7314 15.0645
7817 2 3.67989 78.7323 13.7861
1545 1 8.22998 77.1561 15.0599
7795 2 9.13613 78.7323 13.7861
1560 1 2.77129 80.3066 15.0718
7818 2 0.95056 80.3084 13.793
1607 1 0.0413977 81.8816 15.0816
7787 2 6.4068 80.3084 13.793
1558 1 5.49764 81.8816 15.0816
7820 2 3.67716 81.8843 13.8025
1544 1 8.22753 80.3066 15.0718
7785 2 9.1334 81.8843 13.8025
1559 1 2.76749 83.4565 15.094
7807 2 0.947277 83.4601 13.8144
1598 1 0.0371703 85.0311 15.1088
7786 2 6.40352 83.4601 13.8144
1561 1 5.49341 85.0311 15.1088
7805 2 3.67346 85.0355 13.8285
1541 1 8.22373 83.4565 15.094
7788 2 9.1297 85.0355 13.8285
1552 1 2.76298 86.6054 15.1258
7806 2 0.943275 86.6107 13.8449
1599 1 0.0324969 88.1794 15.1449
7780 2 6.39951 86.6107 13.8449
1550 1 5.48874 88.1794 15.1449
7808 2 3.66925 88.1855 13.8632
1540 1 8.21922 86.6054 15.1258
7778 2 9.12549 88.1855 13.8632
1597 1 0.027681 91.3264 15.1885
1601 1 1.84581 91.3431 12.6179
1551 1 2.75822 89.7531 15.1659
7803 2 0.938934 89.76 13.8834
1553 1 5.48392 91.3264 15.1885
7801 2 3.66482 91.3341 13.9052
1556 1 4.57595 89.7681 12.5964
7779 2 6.39517 89.76 13.8834
1554 1 7.30205 91.3431 12.6179
7781 2 9.12106 91.3341 13.9052
1538 1 8.21446 89.7531 15.1659
1542 1 10.0322 89.7681 12.5964
1549 1 2.75337 92.8994 15.2125
7802 2 0.934437 92.9079 13.9284
2006 1 0.0227932 94.472 15.2377
2007 1 1.84166 94.4919 12.6648
1555 1 4.57188 92.9177 12.6407
7777 2 6.39068 92.9079 13.9284
1957 1 5.47903 94.472 15.2377
8244 2 3.66027 94.4813 13.9527
1539 1 10.0281 92.9177 12.6407
1537 1 8.2096 92.8994 15.2125
8201 2 9.11651 94.4813 13.9527
1972 1 7.2979 94.4919 12.6648
8142 2 2.7828 77.1542 18.9073
1918 1 0.960708 77.1553 17.6224
8154 2 0.0529737 78.7257 18.9124
8160 2 1.86589 78.7296 16.3494
8146 2 4.59521 77.1556 16.3447
1895 1 6.41695 77.1553 17.6224
8143 2 5.50921 78.7257 18.9124
1916 1 3.68737 78.7283 17.6273
8097 2 8.23904 77.1542 18.9073
8100 2 10.0514 77.1556 16.3447
8144 2 7.32213 78.7296 16.3494
1896 1 9.14361 78.7283 17.6273
1917 1 0.957231 80.3013 17.635
8134 2 2.77873 80.2973 18.9202
8155 2 0.0477505 81.8689 18.9309
8156 2 1.86215 81.8775 16.3669
8145 2 4.59233 80.3036 16.3568
1891 1 6.41347 80.3013 17.635
1919 1 3.6829 81.8742 17.6456
8132 2 5.50399 81.8689 18.9309
8096 2 8.23497 80.2973 18.9202
8099 2 10.0486 80.3036 16.3568
1889 1 9.13914 81.8742 17.6456
8147 2 7.31838 81.8775 16.3669
1911 1 0.952039 83.4471 17.6588
8133 2 2.77269 83.4404 18.9444
8157 2 1.85727 85.0247 16.3946
8150 2 0.0412298 85.0119 18.9605
8138 2 4.58792 83.4512 16.3796
1890 1 6.40828 83.4471 17.6588
1909 1 3.67726 85.0197 17.6745
8135 2 5.49747 85.0119 18.9605
8089 2 8.22893 83.4404 18.9444
8098 2 10.0442 83.4512 16.3796
1892 1 9.13349 85.0197 17.6745
8136 2 7.31351 85.0247 16.3946
1910 1 0.946169 86.5922 17.6927
8120 2 2.76595 86.5831 18.979
8152 2 1.85195 88.171 16.4315
8151 2 0.0344568 88.1541 18.9999
8137 2 4.58275 86.598 16.412
1879 1 6.40241 86.5922 17.6927
1912 1 3.67131 88.1643 17.7131
8118 2 5.4907 88.1541 18.9999
8088 2 8.22219 86.5831 18.979
8091 2 10.039 86.598 16.412
8139 2 7.30819 88.171 16.4315
1877 1 9.12755 88.1643 17.7131
1904 1 0.940244 89.7362 17.7355
8119 2 2.75925 89.7249 19.0228
8153 2 1.84656 91.316 16.4759
8149 2 0.0278657 91.2953 19.0473
1878 1 6.39648 89.7362 17.7355
8124 2 4.57738 89.7437 16.4529
1902 1 3.66544 91.3077 17.7596
8121 2 5.4841 91.2953 19.0473
8074 2 8.21549 89.7249 19.0228
8090 2 10.0336 89.7437 16.4529
1880 1 9.12168 91.3077 17.7596
8122 2 7.3028 91.316 16.4759
1903 1 0.934415 92.8789 17.785
8109 2 2.75277 92.8655 19.0732
8567 2 1.84118 94.4599 16.5259
8566 2 0.0214728 94.4356 19.1001
1861 1 6.39065 92.8789 17.785
8123 2 4.57199 92.8881 16.5004
8549 2 5.47771 94.4356 19.1001
2304 1 3.65964 94.4498 17.8115
8073 2 8.20901 92.8655 19.0732
8075 2 10.0282 92.8881 16.5004
8556 2 7.29742 94.4599 16.5259
2278 1 9.11588 94.4498 17.8115
8130 2 0.971927 77.1517 21.47
1915 1 1.87512 78.7238 20.1897
1887 1 4.60535 77.1535 20.1845
8094 2 6.42817 77.1517 21.47
8128 2 3.69757 78.7201 21.4752
1836 1 10.0616 77.1535 20.1845
1885 1 7.33136 78.7238 20.1897
8095 2 9.15381 78.7201 21.4752
8129 2 0.96608 80.2888 21.4833
1907 1 1.86879 81.8647 20.209
1886 1 4.60034 80.2942 20.1978
8086 2 6.42232 80.2888 21.4833
8131 2 3.6902 81.8577 21.4945
1835 1 10.0566 80.2942 20.1978
1888 1 7.32502 81.8647 20.209
8084 2 9.14644 81.8577 21.4945
8116 2 0.957752 83.4267 21.5087
1908 1 1.86118 85.0059 20.2399
1875 1 4.59316 83.4353 20.223
8085 2 6.41399 83.4267 21.5087
8114 2 3.68143 84.9958 21.5259
1834 1 10.0494 83.4353 20.223
1873 1 7.31742 85.0059 20.2399
8087 2 9.13767 84.9958 21.5259
8115 2 0.948922 86.5649 21.5459
1900 1 1.8536 88.1464 20.2815
1874 1 4.58546 86.5763 20.2595
8071 2 6.40516 86.5649 21.5459
8117 2 3.67279 88.1337 21.5685
1827 1 10.0417 86.5763 20.2595
1876 1 7.30984 88.1464 20.2815
8069 2 9.12902 88.1337 21.5685
8108 2 0.940566 89.7022 21.5931
1901 1 1.84641 91.2857 20.3314
1860 1 4.57808 89.7162 20.3056
8070 2 6.3968 89.7022 21.5931
8106 2 3.66472 91.2705 21.6196
1826 1 10.0343 89.7162 20.3056
1858 1 7.30265 91.2857 20.3314
8072 2 9.12096 91.2705 21.6196
8107 2 0.932755 92.8387 21.6472
2298 1 1.83951 94.4241 20.3867
1859 1 4.57105 92.855 20.3586
8053 2 6.38899 92.8387 21.6472
8548 2 3.65712 94.4069 21.6757
1811 1 10.0273 92.855 20.3586
2277 1 7.29575 94.4241 20.3867
8501 2 9.11336 94.4069 21.6757
1867 1 0.988004 77.1448 25.3116
1883 1 2.79555 77.1503 22.7471
1905 1 0.0643176 78.7171 22.7522
8127 2 1.88743 78.712 24.0385
1830 1 6.44424 77.1448 25.3116
8082 2 4.61916 77.1476 24.0337
1865 1 3.71154 78.7072 25.3159
1884 1 5.52056 78.7171 22.7522
1833 1 8.25179 77.1503 22.7471
8028 2 10.0754 77.1476 24.0337
1831 1 9.16778 78.7072 25.3159
8080 2 7.34367 78.712 24.0385
1866 1 0.977295 80.2707 25.3234
1871 1 2.78824 80.2844 22.7605
1906 1 0.0552721 81.8521 22.7719
8112 2 1.87695 81.8428 24.0578
1822 1 6.43353 80.2707 25.3234
8081 2 4.6107 80.2771 24.0465
1868 1 3.69854 81.8351 25.3346
1869 1 5.51151 81.8521 22.7719
1832 1 8.24448 80.2844 22.7605
8027 2 10.0669 80.2771 24.0465
1820 1 9.15478 81.8351 25.3346
8083 2 7.33319 81.8428 24.0578
1852 1 0.963282 83.4004 25.3498
1870 1 2.77824 83.4202 22.7867
1898 1 0.0449817 84.9884 22.8048
8113 2 1.86511 84.9755 24.091
1821 1 6.41952 83.4004 25.3498
8067 2 4.59914 83.409 24.0726
1850 1 3.68455 84.9659 25.3692
1872 1 5.50122 84.9884 22.8048
1825 1 8.23448 83.4202 22.7867
8026 2 10.0554 83.409 24.0726
1823 1 9.14079 84.9659 25.3692
8065 2 7.32135 84.9755 24.091
1851 1 0.950016 86.5314 25.3925
1856 1 2.76814 86.5565 22.826
1899 1 0.0353048 88.1244 22.85
8104 2 1.85411 88.1081 24.1373
1807 1 6.40625 86.5314 25.3925
8066 2 4.58757 86.5419 24.1127
1853 1 3.67224 88.0965 25.4192
1854 1 5.49154 88.1244 22.85
1824 1 8.22438 86.5565 22.826
8019 2 10.0438 86.5419 24.1127
1805 1 9.12848 88.0965 25.4192
8068 2 7.31035 88.1081 24.1373
1844 1 0.938621 89.6612 25.4485
1855 1 2.75894 89.6919 22.8763
1897 1 0.0265258 91.2591 22.9044
8105 2 1.84429 91.2399 24.1931
1806 1 6.39486 89.6612 25.4485
8052 2 4.5772 89.6741 24.1644
1842 1 3.66156 91.2256 25.4794
1857 1 5.48276 91.2591 22.9044
1810 1 8.21518 89.6919 22.8763
8018 2 10.0334 89.6741 24.1644
1808 1 9.1178 91.2256 25.4794
8050 2 7.30052 91.2399 24.1931
1843 1 0.928491 92.7899 25.5112
1845 1 2.75049 92.8261 22.9337
2297 1 0.0183234 94.3931 22.9636
8534 2 1.83528 94.372 24.2532
1790 1 6.38473 92.7899 25.5112
8051 2 4.56781 92.8058 24.2229
2265 1 3.65187 94.3547 25.543
2266 1 5.47456 94.3931 22.9636
1809 1 8.20672 92.8261 22.9337
8004 2 10.0241 92.8058 24.2229
2213 1 9.10811 94.3547 25.543
8500 2 7.29152 94.372 24.2532
8078 2 2.81242 77.1413 26.5996
1864 1 1.90475 78.6931 27.8822
8110 2 0.0790128 78.7007 26.6031
8059 2 1.00857 77.1333 29.17
1818 1 4.63973 77.1367 27.8806
8079 2 5.53525 78.7007 26.6031
8022 2 6.46481 77.1333 29.17
8057 2 3.72891 78.6861 29.1699
1770 1 10.096 77.1367 27.8806
8025 2 8.26866 77.1413 26.5996
1816 1 7.36099 78.6931 27.8822
8023 2 9.18515 78.6861 29.1699
8063 2 2.80014 80.2613 26.6098
1848 1 1.88605 81.8125 27.897
8111 2 0.0640548 81.8231 26.6206
8058 2 0.990748 80.2408 29.1734
1817 1 4.62398 80.2519 27.8875
8061 2 5.52029 81.8231 26.6206
8014 2 6.44699 80.2408 29.1734
8060 2 3.70739 81.7976 29.1821
1769 1 10.0802 80.2519 27.8875
8024 2 8.25638 80.2613 26.6098
1819 1 7.34229 81.8125 27.897
8012 2 9.16363 81.7976 29.1821
8062 2 2.78403 83.3859 26.6357
1849 1 1.86679 84.9369 27.9332
8102 2 0.0480517 84.9491 26.6554
8044 2 0.968016 83.3558 29.1969
1803 1 4.60415 83.3744 27.9123
8064 2 5.50429 84.9491 26.6554
8013 2 6.42425 83.3558 29.1969
8042 2 3.68562 84.9146 29.2183
1768 1 10.0604 83.3744 27.9123
8017 2 8.24027 83.3859 26.6357
1801 1 7.32303 84.9369 27.9332
8015 2 9.14186 84.9146 29.2183
8048 2 2.76891 86.5123 26.6793
1840 1 1.85116 88.0604 27.9902
8103 2 0.0341316 88.0752 26.7068
8043 2 0.94828 86.4732 29.2457
1802 1 4.58666 86.499 27.9597
8046 2 5.49037 88.0752 26.7068
8000 2 6.40452 86.4732 29.2457
1761 1 10.0429 86.499 27.9597
8016 2 8.22515 86.5123 26.6793
1804 1 7.3074 88.0604 27.9902
8047 2 2.7561 89.638 26.737
1841 1 1.83835 91.1818 28.0579
8101 2 0.0222244 91.2008 26.7687
1789 1 4.57264 89.6212 28.0235
8049 2 5.47846 91.2008 26.7687
1760 1 10.0289 89.6212 28.0235
8003 2 8.21234 89.638 26.737
1787 1 7.29459 91.1818 28.0579
8037 2 2.7449 92.7641 26.8009
2247 1 1.82712 94.3058 28.1254
8533 2 0.0116846 94.3284 26.8329
1788 1 4.56065 92.7432 28.0921
8485 2 5.46792 94.3284 26.8329
1749 1 10.0169 92.7432 28.0921
8002 2 8.20114 92.7641 26.8009
2212 1 7.28336 94.3058 28.1254
1814 1 2.83986 77.1277 30.4584
1846 1 0.101525 78.6754 30.4546
8056 2 1.92585 78.6715 31.742
8010 2 4.66485 77.1262 31.7478
1815 1 5.55776 78.6754 30.4546
1767 1 8.2961 77.1277 30.4584
7980 2 10.1211 77.1262 31.7478
8008 2 7.38209 78.6715 31.742
1799 1 2.81568 80.2271 30.4543
1847 1 0.07413 81.7829 30.4603
8040 2 1.89385 81.7659 31.7407
8009 2 4.63883 80.217 31.7363
1797 1 5.53037 81.7829 30.4603
1766 1 8.27192 80.2271 30.4543
7979 2 10.0951 80.217 31.7363
8011 2 7.35009 81.7659 31.7407
1798 1 2.78719 83.3405 30.4748
1838 1 0.0467298 84.8985 30.4986
8041 2 1.86398 84.868 31.7785
7996 2 4.6057 83.3168 31.7536
1800 1 5.50297 84.8985 30.4986
1759 1 8.24343 83.3405 30.4748
7978 2 10.0619 83.3168 31.7536
7994 2 7.32021 84.868 31.7785
1785 1 2.76401 86.4556 30.5298
1839 1 0.0271838 88.0112 30.5662
8032 2 1.84211 87.9709 31.8505
7995 2 4.5801 86.4195 31.8114
1783 1 5.48342 88.0112 30.5662
8045 2 3.66815 88.0316 29.2774
1758 1 8.22024 86.4556 30.5298
7975 2 10.0363 86.4195 31.8114
7997 2 7.29835 87.9709 31.8505
7998 2 9.12439 88.0316 29.2774
1784 1 2.74749 89.566 30.6045
8036 2 0.932611 89.5901 29.3119
1837 1 0.0121102 91.1224 30.6419
8033 2 1.82554 91.0807 31.9289
7988 2 4.56135 89.5242 31.8904
7999 2 6.38885 89.5901 29.3119
1786 1 5.46835 91.1224 30.6419
8034 2 3.65387 91.1494 29.3471
1748 1 8.20373 89.566 30.6045
7974 2 10.0176 89.5242 31.8904
7986 2 7.28178 91.0807 31.9289
8001 2 9.11011 91.1494 29.3471
1776 1 2.73367 92.6812 30.6775
8035 2 0.919481 92.7104 29.3817
8463 2 1.81342 94.2043 31.9984
7987 2 4.54703 92.6407 31.965
7989 2 6.37572 92.7104 29.3817
2197 1 5.45599 94.243 30.7109
8484 2 3.64198 94.2734 29.415
8428 2 7.26966 94.2043 31.9984
5318 1 10.9122 94.243 30.7109
1747 1 8.18991 92.6812 30.6775
7971 2 10.0033 92.6407 31.965
8429 2 9.09822 94.2734 29.415
1795 1 1.0452 77.1232 33.0467
8006 2 2.87451 77.1244 34.3335
8038 2 0.127858 78.6649 34.3225
1792 1 1.96431 78.6645 35.644
1764 1 6.50144 77.1232 33.0467
1793 1 3.76182 78.6636 33.0432
8007 2 5.5841 78.6649 34.3225
1752 1 4.70557 77.1242 35.6411
7977 2 8.33075 77.1244 34.3335
1765 1 9.21806 78.6636 33.0432
1734 1 10.1618 77.1242 35.6411
1750 1 7.42055 78.6645 35.644
1794 1 1.01066 80.1991 33.0337
7992 2 2.83298 80.2012 34.3048
8039 2 0.0755925 81.7302 34.2898
1777 1 1.90731 81.7084 35.6258
1756 1 6.46689 80.1991 33.0337
1796 1 3.71552 81.7428 33.0258
7990 2 5.53183 81.7302 34.2898
1751 1 4.66856 80.2052 35.6594
7976 2 8.28921 80.2012 34.3048
1754 1 9.17176 81.7428 33.0258
1733 1 10.1248 80.2052 35.6594
1753 1 7.36355 81.7084 35.6258
1781 1 0.964901 83.295 33.0435
7991 2 2.78339 83.2653 34.3017
8030 2 0.033641 84.802 34.3305
1778 1 1.83213 84.7434 35.6764
1755 1 6.42114 83.295 33.0435
1779 1 3.67611 84.8446 33.0712
7993 2 5.48988 84.802 34.3305
1741 1 4.5717 83.2035 35.6357
7973 2 8.23963 83.2653 34.3017
1757 1 9.13234 84.8446 33.0712
1732 1 10.0279 83.2035 35.6357
1739 1 7.28837 84.7434 35.6764
1780 1 0.936052 86.3912 33.1113
7984 2 2.74954 86.3397 34.378
8031 2 0.00935612 87.8827 34.4268
1771 1 1.81318 87.8069 35.7599
1745 1 6.39229 86.3912 33.1113
1782 1 3.65492 87.9359 33.1549
7982 2 5.46559 87.8827 34.4268
1740 1 4.55218 86.2617 35.7237
1742 1 7.26942 87.8069 35.7599
7972 2 8.20578 86.3397 34.378
1743 1 9.11116 87.9359 33.1549
1731 1 10.0084 86.2617 35.7237
1775 1 0.917541 89.4849 33.1951
7983 2 2.72837 89.4324 34.472
1772 1 1.80099 90.9214 35.8268
1737 1 4.53476 89.358 35.7961
1735 1 7.25723 90.9214 35.8268
1744 1 6.37378 89.4849 33.1951
1773 1 3.63784 91.0387 33.2327
7985 2 5.44921 90.9893 34.5122
11293 2 10.9055 90.9893 34.5122
7970 2 8.18461 89.4324 34.472
1746 1 9.09408 91.0387 33.2327
1730 1 9.99099 89.358 35.7961
1774 1 0.903041 92.5986 33.2666
7981 2 2.71541 92.5519 34.548
2196 1 3.62587 94.1632 33.2978
2175 1 1.79372 94.0649 35.8819
1738 1 6.35928 92.5986 33.2666
8413 2 5.43931 94.1195 34.5804
2146 1 7.24996 94.0649 35.8819
1736 1 4.5248 92.4907 35.8552
1729 1 9.98104 92.4907 35.8552
2147 1 9.08211 94.1632 33.2978
7969 2 8.17165 92.5519 34.548
11726 2 10.8956 94.1195 34.5804
8182 2 1.11223 77.1409 36.9181
13911 1 2.18409 75.6161 38.2494
8171 2 6.56847 77.1409 36.9181
14296 1 4.90693 77.2051 38.255
8180 2 3.82633 78.6814 36.8997
13881 1 7.64033 75.6161 38.2494
8172 2 9.28256 78.6814 36.8997
17124 1 10.3632 77.2051 38.255
8181 2 1.04649 80.225 36.8701
14297 1 2.18288 78.8537 38.2451
8168 2 6.50273 80.225 36.8701
14298 1 4.91509 80.551 38.3097
8183 2 3.68622 81.7135 36.8658
14262 1 7.63912 78.8537 38.2451
8166 2 9.14246 81.7135 36.8658
17122 1 10.3713 80.551 38.3097
8178 2 0.916615 83.1949 36.8196
14293 1 2.17139 82.4017 38.3842
8167 2 6.37285 83.1949 36.8196
14291 1 5.16255 84.1261 38.4325
8176 2 3.65457 84.6859 36.8804
14261 1 7.62763 82.4017 38.3842
8169 2 9.1108 84.6859 36.8804
17123 1 10.6188 84.1261 38.4325
8177 2 0.911279 86.2145 36.9396
14292 1 2.6325 85.94 38.329
8179 2 3.6262 87.7504 37.0027
8164 2 6.36752 86.2145 36.9396
14294 1 5.38648 87.5446 38.3617
14256 1 8.08874 85.94 38.329
8162 2 9.08244 87.7504 37.0027
17120 1 10.8427 87.5446 38.3617
8175 2 0.892156 89.3068 37.0499
14282 1 2.67293 89.1589 38.3881
8173 2 3.61492 90.8713 37.0902
8163 2 6.34839 89.3068 37.0499
14280 1 5.40904 90.7583 38.4093
14255 1 8.12917 89.1589 38.3881
8165 2 9.07116 90.8713 37.0902
17121 1 10.8653 90.7583 38.4093
8592 2 3.60973 94.0199 37.1559
8174 2 0.883565 92.4432 37.1249
14281 1 2.68644 92.3557 38.4324
8161 2 6.3398 92.4432 37.1249
14283 1 5.41764 93.9489 38.4558
8578 2 9.06596 94.0199 37.1559
14242 1 8.14268 92.3557 38.4324
17119 1 10.8739 93.9489 38.4558
19919 2 1.50239 77.2673 39.4884
13909 1 0.624101 75.6571 40.7859
19509 2 2.49231 75.6484 42.0213
14295 1 3.36538 77.3259 40.7692
19901 2 5.23159 77.3071 42.0055
13861 1 6.08034 75.6571 40.7859
19523 2 4.21882 75.6259 39.5078
19908 2 6.95863 77.2673 39.4884
14258 1 8.82162 77.3259 40.7692
19473 2 7.94855 75.6484 42.0213
19475 2 9.67506 75.6259 39.5078
22738 2 10.6878 77.3071 42.0055
19920 2 1.56997 80.6012 39.4173
19902 2 2.52401 78.9787 41.9802
14289 1 0.677929 79.0161 40.7245
14287 1 3.47943 80.7074 40.634
19906 2 4.2538 78.9058 39.4589
19903 2 5.283 80.659 41.9479
14259 1 6.13417 79.0161 40.7245
19904 2 7.02621 80.6012 39.4173
14260 1 8.93567 80.7074 40.634
19857 2 7.98025 78.9787 41.9802
19860 2 9.71004 78.9058 39.4589
22734 2 10.7392 80.659 41.9479
19916 2 1.74035 84.27 39.4385
14288 1 0.827092 82.4288 40.5627
19894 2 2.59456 82.3331 41.9443
14290 1 3.55037 84.0153 40.7015
19905 2 4.35448 82.3938 39.3835
14253 1 6.28333 82.4288 40.5627
19892 2 5.3589 83.9967 41.976
19907 2 7.19659 84.27 39.4385
22735 2 10.8151 83.9967 41.976
14251 1 9.00661 84.0153 40.7015
19856 2 8.0508 82.3331 41.9443
19859 2 9.81072 82.3938 39.3835
19917 2 1.77804 87.5228 39.5712
14278 1 0.801238 85.6791 40.8582
19893 2 2.65738 85.6744 42.048
14276 1 3.54732 87.3311 40.8976
19898 2 4.50142 85.9019 39.5136
14252 1 6.25748 85.6791 40.8582
19895 2 5.40212 87.3362 42.1064
19896 2 7.23428 87.5228 39.5712
22730 2 10.8584 87.3362 42.1064
14254 1 9.00356 87.3311 40.8976
19849 2 8.11362 85.6744 42.048
19858 2 9.95766 85.9019 39.5136
19912 2 1.78325 90.724 39.6541
14277 1 0.839837 88.9777 40.9272
19880 2 2.68302 88.9655 42.1564
14279 1 3.58034 90.603 40.9581
19897 2 4.51075 89.1258 39.614
14239 1 6.29608 88.9777 40.9272
19878 2 5.41606 90.5843 42.1989
19899 2 7.23949 90.724 39.6541
22731 2 10.8723 90.5843 42.1989
14237 1 9.03658 90.603 40.9581
19848 2 8.13926 88.9655 42.1564
19851 2 9.96699 89.1258 39.614
19913 2 1.78453 93.9102 39.7194
14270 1 0.859698 92.2219 40.9863
19879 2 2.69106 92.1957 42.2363
14268 1 3.5933 93.8323 41.0121
14238 1 6.31594 92.2219 40.9863
19881 2 5.42121 93.8026 42.2698
19884 2 4.51221 92.3174 39.6883
19882 2 7.24077 93.9102 39.7194
22729 2 10.8775 93.8026 42.2698
14240 1 9.04953 93.8323 41.0121
19834 2 8.14729 92.1957 42.2363
19850 2 9.96845 92.3174 39.6883
14285 1 1.64036 77.3408 43.2522
19507 2 0.743944 75.6555 44.5325
19900 2 3.47775 77.3163 44.5245
13845 1 2.59624 75.6555 45.7813
13859 1 4.35351 75.6628 43.2753
19454 2 6.20018 75.6555 44.5325
14257 1 7.0966 77.3408 43.2522
14244 1 5.32747 77.3127 45.776
17104 1 10.7837 77.3127 45.776
19853 2 8.93399 77.3163 44.5245
13811 1 9.80975 75.6628 43.2753
13809 1 8.05247 75.6555 45.7813
14286 1 1.67804 80.6653 43.2
19890 2 0.760797 78.974 44.5141
19888 2 3.50709 80.6247 44.5093
14245 1 2.60598 78.962 45.7729
14249 1 4.39066 79.0107 43.2165
19854 2 6.21704 78.974 44.5141
14247 1 7.13428 80.6653 43.2
14246 1 5.34527 80.6003 45.7803
17092 1 10.8015 80.6003 45.7803
14196 1 9.8469 79.0107 43.2165
19855 2 8.96333 80.6247 44.5093
14193 1 8.06222 78.962 45.7729
14274 1 1.72659 83.9205 43.2597
19889 2 0.801195 82.2711 44.5194
19891 2 3.55135 83.9143 44.5457
14231 1 2.63222 82.2335 45.7961
14248 1 4.4292 82.2883 43.2239
19846 2 6.25743 82.2711 44.5194
14250 1 7.18283 83.9205 43.2597
14229 1 5.37628 83.8634 45.8243
17093 1 10.8325 83.8634 45.8243
14195 1 9.88544 82.2883 43.2239
19844 2 9.00758 83.9143 44.5457
14192 1 8.08846 82.2335 45.7961
14275 1 1.75782 87.2052 43.3881
19876 2 0.83997 85.5569 44.5885
19874 2 3.58341 87.2002 44.6398
14230 1 2.66431 85.4927 45.8622
14235 1 4.47911 85.5588 43.3113
19845 2 6.29621 85.5569 44.5885
14233 1 7.21406 87.2052 43.3881
14232 1 5.4046 87.1245 45.9099
17084 1 10.8608 87.1245 45.9099
14194 1 9.93535 85.5588 43.3113
19847 2 9.03965 87.2002 44.6398
14185 1 8.12055 85.4927 45.8622
14266 1 1.76669 90.4817 43.486
19875 2 0.864806 88.8385 44.6899
19877 2 3.59906 90.4678 44.7348
14234 1 4.48823 88.8472 43.4457
19831 2 6.32104 88.8385 44.6899
14236 1 7.22293 90.4817 43.486
14187 1 9.94447 88.8472 43.4457
19829 2 9.05529 90.4678 44.7348
14267 1 1.77785 93.7288 43.5534
19868 2 0.875058 92.0891 44.775
19866 2 3.6061 93.7052 44.8114
14220 1 4.50106 92.1086 43.5214
19830 2 6.3313 92.0891 44.775
14218 1 7.23409 93.7288 43.5534
14186 1 9.9573 92.1086 43.5214
19832 2 9.06234 93.7052 44.8114
19886 2 1.70388 77.3018 47.0604
13843 1 0.815096 75.6485 48.3195
14243 1 3.5446 77.2896 48.3223
13792 1 6.27133 75.6485 48.3195
19452 2 4.42868 75.6523 47.0612
19852 2 7.16012 77.3018 47.0604
14189 1 9.00084 77.2896 48.3223
19413 2 9.88492 75.6523 47.0612
14227 1 0.820314 78.9271 48.3296
19887 2 1.72164 80.5866 47.0694
14225 1 3.55486 80.5605 48.3419
14190 1 6.27655 78.9271 48.3296
19842 2 4.43902 78.9467 47.0623
19840 2 7.17788 80.5866 47.0694
14191 1 9.01109 80.5605 48.3419
19794 2 9.89525 78.9467 47.0623
14226 1 0.835681 82.1901 48.3605
19872 2 1.74751 83.8543 47.1097
14228 1 3.57424 83.8171 48.3859
14182 1 6.29192 82.1901 48.3605
19841 2 4.46231 82.2219 47.0848
19843 2 7.20375 83.8543 47.1097
14180 1 9.03048 83.8171 48.3859
19793 2 9.91855 82.2219 47.0848
14212 1 0.857173 85.4431 48.4178
19873 2 1.77067 87.1174 47.184
14210 1 3.59505 87.069 48.4555
14181 1 6.31341 85.4431 48.4178
19827 2 4.48802 85.4858 47.1439
19825 2 7.22691 87.1174 47.184
14183 1 9.05129 87.069 48.4555
19792 2 9.94426 85.4858 47.1439
14211 1 0.874877 88.6954 48.4972
19864 2 1.78605 90.377 47.2708
14213 1 3.60865 90.322 48.5404
14216 1 2.6843 88.7584 45.9616
14167 1 6.33112 88.6954 48.4972
14214 1 5.41699 90.3904 46.0093
19826 2 4.50764 88.7484 47.2276
19828 2 7.24228 90.377 47.2708
17085 1 10.8732 90.3904 46.0093
14165 1 9.06489 90.322 48.5404
19785 2 9.96387 88.7484 47.2276
14184 1 8.14053 88.7584 45.9616
14204 1 0.884379 91.9474 48.5821
14215 1 2.69245 92.0183 46.0507
19865 2 1.79383 93.6218 47.3493
14202 1 3.61533 93.5704 48.6209
14166 1 6.34062 91.9474 48.5821
14217 1 5.42388 93.6418 46.0874
19813 2 4.51869 92.0015 47.3115
19811 2 7.25007 93.6218 47.3493
17083 1 10.8801 93.6418 46.0874
14168 1 9.07157 93.5704 48.6209
14170 1 8.14869 92.0183 46.0507
19784 2 9.97493 92.0015 47.3115
14223 1 1.75303 77.2752 50.8781
19440 2 2.64405 75.648 49.6066
19438 2 0.851385 75.6453 52.1622
19836 2 3.58096 77.2735 52.1659
19837 2 5.37441 77.2855 49.6094
13790 1 4.47996 75.6449 50.8737
14188 1 7.20927 77.2752 50.8781
19402 2 6.30762 75.6453 52.1622
22705 2 10.8307 77.2855 49.6094
13760 1 9.9362 75.6449 50.8737
19411 2 8.10029 75.648 49.6066
19787 2 9.03719 77.2735 52.1659
14224 1 1.75985 80.5313 50.9017
19838 2 2.65074 78.9206 49.6164
19819 2 0.85572 78.9005 52.1744
19817 2 3.58801 80.526 52.1877
14178 1 4.48378 78.9042 50.8874
19839 2 5.38526 80.5526 49.6283
14176 1 7.21608 80.5313 50.9017
19788 2 6.31196 78.9005 52.1744
22690 2 10.8415 80.5526 49.6283
14136 1 9.94002 78.9042 50.8874
19791 2 8.10698 78.9206 49.6164
19789 2 9.04425 80.526 52.1877
14208 1 1.77253 83.7801 50.9451
19823 2 2.66496 82.1815 49.6461
19818 2 0.865078 82.1498 52.2059
19820 2 3.59907 83.7724 52.2288
14177 1 4.49373 82.1565 50.921
19821 2 5.40168 83.8083 49.6701
14179 1 7.22877 83.7801 50.9451
19780 2 6.32132 82.1498 52.2059
22691 2 10.8579 83.8083 49.6701
14135 1 9.94997 82.1565 50.921
19790 2 8.1212 82.1815 49.6461
19778 2 9.05531 83.7724 52.2288
14209 1 1.78738 87.025 51.0067
19822 2 2.68216 85.4341 49.7
19803 2 3.61129 87.0155 52.2868
19805 2 0.877101 85.3942 52.256
14163 1 4.50817 85.4028 50.9738
19824 2 5.41839 87.0595 49.7345
14161 1 7.24362 87.025 51.0067
19779 2 6.33334 85.3942 52.256
22682 2 10.8746 87.0595 49.7345
14134 1 9.96441 85.4028 50.9738
19783 2 8.1384 85.4341 49.7
19781 2 9.06752 87.0155 52.2868
19806 2 3.62187 90.2576 52.356
19804 2 0.888795 88.6367 52.3205
14200 1 1.79932 90.2696 51.0809
19809 2 2.69734 88.6847 49.7721
19769 2 6.34503 88.6367 52.3205
14162 1 4.52205 88.6473 51.0428
19807 2 5.43133 90.3092 49.8112
14164 1 7.25556 90.2696 51.0809
22683 2 10.8876 90.3092 49.8112
19767 2 9.07811 90.2576 52.356
14128 1 9.97829 88.6473 51.0428
19782 2 8.15358 88.6847 49.7721
19797 2 3.62942 93.4971 52.4284
19799 2 0.897926 91.8778 52.3923
14201 1 1.80652 93.5125 51.1576
19808 2 2.70778 91.9322 49.8501
19768 2 6.35416 91.8778 52.3923
14151 1 4.53158 91.8915 51.1196
19810 2 5.43935 93.553 49.8876
14149 1 7.26276 93.5125 51.1576
19770 2 9.08566 93.4971 52.4284
22681 2 10.8956 93.553 49.8876
14127 1 9.98782 91.8915 51.1196
19772 2 8.16402 91.9322 49.8501
19815 2 1.78249 77.2653 54.7264
13780 1 2.68289 75.6434 53.4345
14173 1 5.41195 77.2662 53.4387
19400 2 4.50964 75.6441 54.7227
19786 2 7.23873 77.2653 54.7264
17042 1 10.8682 77.2662 53.4387
13758 1 8.13913 75.6434 53.4345
19393 2 9.96587 75.6441 54.7227
14174 1 2.68582 78.8885 53.448
19816 2 1.7874 80.5062 54.7479
14175 1 5.417 80.5101 53.4621
19776 2 4.5126 78.8861 54.7349
19774 2 7.24364 80.5062 54.7479
17026 1 10.8732 80.5101 53.4621
14133 1 8.14206 78.8885 53.448
19758 2 9.96884 78.8861 54.7349
14159 1 2.69294 82.1308 53.4806
19801 2 1.79532 83.7443 54.7868
14157 1 5.42591 83.7508 53.5034
19775 2 4.51919 82.1255 54.7653
19777 2 7.25156 83.7443 54.7868
17027 1 10.8822 83.7508 53.5034
14132 1 8.14917 82.1308 53.4806
19757 2 9.97543 82.1255 54.7653
14158 1 2.70316 85.3703 53.5299
19802 2 1.80454 86.9807 54.8402
19763 2 7.26078 86.9807 54.8402
14160 1 5.43675 86.9895 53.5597
19765 2 4.52801 85.3626 54.812
17018 1 10.893 86.9895 53.5597
19756 2 9.98425 85.3626 54.812
14126 1 8.1594 85.3703 53.5299
19795 2 1.81318 90.2165 54.9037
14147 1 2.71384 88.6086 53.5923
19766 2 7.26942 90.2165 54.9037
19764 2 4.53715 88.5987 54.871
14145 1 5.44659 90.2277 53.6268
17019 1 10.9028 90.2277 53.6268
19755 2 9.99339 88.5987 54.871
14125 1 8.17008 88.6086 53.5923
19796 2 1.81999 93.4513 54.9721
14146 1 2.72237 91.8466 53.6625
19761 2 4.54497 91.8342 54.9376
14148 1 5.4536 93.4652 53.6985
19759 2 7.27623 93.4513 54.9721
19754 2 10.0012 91.8342 54.9376
14119 1 8.1786 91.8466 53.6625
17017 1 10.9098 93.4652 53.6985
14471 1 1.80758 77.2568 58.5649
13778 1 0.882133 75.6432 55.9977
19719 2 2.70813 75.6441 57.2852
14172 1 3.61099 77.2605 56.0015
20104 2 5.43695 77.2601 57.2886
14075 1 4.53512 75.6438 58.5616
13753 1 6.33837 75.6432 55.9977
14460 1 7.26382 77.2568 58.5649
14129 1 9.06723 77.2605 56.0015
14027 1 9.99136 75.6438 58.5616
19689 2 8.16437 75.6441 57.2852
22932 2 10.8932 77.2601 57.2886
14155 1 0.884434 78.8776 56.0101
14472 1 1.81072 80.483 58.5846
20105 2 2.71029 78.8759 57.2965
14153 1 3.61491 80.4946 56.0232
14130 1 6.34067 78.8776 56.0101
14458 1 4.53695 78.8699 58.5726
20106 2 5.44058 80.4915 57.3087
14456 1 7.26695 80.483 58.5846
14412 1 9.99319 78.8699 58.5726
14131 1 9.07115 80.4946 56.0232
20070 2 8.16653 78.8759 57.2965
22930 2 10.8968 80.4915 57.3087
14154 1 0.889862 82.1113 56.0405
14468 1 1.81605 83.7095 58.62
20101 2 2.71523 82.1069 57.3249
14156 1 3.62163 83.7278 56.0616
14457 1 4.54128 82.0962 58.6005
14123 1 6.3461 82.1113 56.0405
20099 2 5.44658 83.7222 57.3449
14459 1 7.27229 83.7095 58.62
14411 1 9.99751 82.0962 58.6005
14121 1 9.07787 83.7278 56.0616
20069 2 8.17147 82.1069 57.3249
22931 2 10.9028 83.7222 57.3449
14143 1 0.897566 85.3442 56.0861
14469 1 1.82267 86.9364 58.6683
20100 2 2.72201 85.3373 57.3682
14141 1 3.62991 86.9605 56.1136
14450 1 4.54739 85.3228 58.6428
14122 1 6.3538 85.3442 56.0861
20102 2 5.45381 86.9524 57.3944
14448 1 7.27891 86.9364 58.6683
14410 1 10.0036 85.3228 58.6428
14124 1 9.08614 86.9605 56.1136
20064 2 8.17825 85.3373 57.3682
22928 2 10.9101 86.9524 57.3944
14142 1 0.905949 88.5768 56.1436
14464 1 1.82938 90.1639 58.7262
20109 2 0.00472995 90.1827 57.4535
20090 2 2.72936 88.5676 57.423
14144 1 3.63796 90.1932 56.1756
14449 1 4.5542 88.55 58.6963
14116 1 6.36219 88.5768 56.1436
20088 2 5.46097 90.1827 57.4535
14403 1 10.0104 88.55 58.6963
14451 1 7.28562 90.1639 58.7262
14114 1 9.0942 90.1932 56.1756
20063 2 8.1856 88.5676 57.423
14139 1 0.913307 91.8095 56.2089
14465 1 1.83514 93.3918 58.7902
20107 2 0.0107895 93.4128 57.5182
20089 2 2.73606 91.7979 57.4854
14137 1 3.64438 93.4257 56.243
14436 1 4.56055 91.7778 58.7577
14115 1 6.36955 91.8095 56.2089
20091 2 5.46703 93.4128 57.5182
14402 1 10.0168 91.7778 58.7577
14434 1 7.29138 93.3918 58.7902
14117 1 9.10062 93.4257 56.243
20050 2 8.1923 91.7979 57.4854
14061 1 2.73008 75.6451 61.1253
19717 2 0.904247 75.645 59.8481
20103 2 3.63288 77.2567 59.8511
20093 2 1.82714 77.2546 62.4133
14470 1 0.00241424 77.2546 61.1281
14453 1 5.45865 77.2546 61.1281
19669 2 6.36049 75.645 59.8481
19667 2 4.55487 75.6464 62.4107
20066 2 9.08912 77.2567 59.8511
14025 1 8.18632 75.6451 61.1253
20065 2 7.28338 77.2546 62.4133
19619 2 10.0111 75.6464 62.4107
14454 1 2.73155 78.8643 61.135
14466 1 0.00497758 80.4741 61.1459
20097 2 0.905893 78.8685 59.8583
20095 2 3.63571 80.4804 59.8695
20094 2 1.82942 80.4715 62.43
14455 1 5.46122 80.4741 61.1459
20067 2 6.36213 78.8685 59.8583
20057 2 4.55616 78.863 62.4197
14409 1 8.18779 78.8643 61.135
20068 2 9.09195 80.4804 59.8695
20004 2 10.0124 78.863 62.4197
20055 2 7.28566 80.4715 62.43
14446 1 2.7351 82.0841 61.1606
14467 1 0.00936586 83.6943 61.1786
20096 2 0.909779 82.0923 59.8845
20082 2 1.83337 83.6891 62.4611
20098 2 3.64048 83.7043 59.903
14444 1 5.4656 83.6943 61.1786
20061 2 6.36602 82.0923 59.8845
20056 2 4.55934 82.0801 62.4439
14408 1 8.19134 82.0841 61.1606
20059 2 9.09672 83.7043 59.903
20003 2 10.0156 82.0801 62.4439
20058 2 7.28961 83.6891 62.4611
14445 1 2.74015 85.3048 61.1998
14462 1 0.014863 86.9156 61.2238
20086 2 0.915229 85.3164 59.9247
20083 2 1.83834 86.9078 62.5043
14447 1 5.4711 86.9156 61.2238
20060 2 6.37147 85.3164 59.9247
20084 2 3.64637 86.9287 59.9491
20043 2 4.56389 85.2983 62.4814
14401 1 8.19639 85.3048 61.1998
20062 2 9.10261 86.9287 59.9491
20002 2 10.0201 85.2983 62.4814
20041 2 7.29458 86.9078 62.5043
14432 1 2.74588 88.5268 61.2501
14463 1 0.0206004 90.1381 61.2784
20085 2 0.921321 88.5411 59.9759
20074 2 1.84361 90.1277 62.557
14430 1 5.47684 90.1381 61.2784
20047 2 6.37756 88.5411 59.9759
20087 2 3.65243 90.1537 60.0047
20042 2 4.5691 88.5176 62.5297
14400 1 8.20211 88.5268 61.2501
20045 2 9.10867 90.1537 60.0047
19995 2 10.0253 88.5176 62.5297
20044 2 7.29985 90.1277 62.557
14431 1 2.75142 91.7498 61.3083
14461 1 0.0257893 93.3616 61.3395
20078 2 0.927139 91.7665 60.035
14433 1 5.48203 93.3616 61.3395
20046 2 6.38338 91.7665 60.035
20076 2 3.65785 93.3793 60.0664
20028 2 4.57426 91.7382 62.586
14386 1 8.20766 91.7498 61.3083
20048 2 9.11409 93.3793 60.0664
19994 2 10.0305 91.7382 62.586
20092 2 0.0200362 77.2533 64.9746
14059 1 0.923648 75.6469 63.6887
19653 2 2.74786 75.6483 64.9724
14452 1 3.65212 77.2533 63.6911
20052 2 5.47627 77.2533 64.9746
14006 1 6.37989 75.6469 63.6887
14405 1 9.10835 77.2533 63.6911
19617 2 8.2041 75.6483 64.9724
14442 1 0.924831 78.8599 63.6973
20053 2 2.74889 78.8584 64.9804
20080 2 0.0219256 80.4637 64.9899
14406 1 6.38107 78.8599 63.6973
14440 1 3.65423 80.4666 63.7073
20054 2 5.47816 80.4637 64.9899
14407 1 9.11047 80.4666 63.7073
20001 2 8.20513 78.8584 64.9804
14441 1 0.927798 82.0737 63.7209
20039 2 2.75157 82.0693 65.0028
20081 2 0.025287 83.6752 65.0189
14398 1 6.38404 82.0737 63.7209
14443 1 3.65793 83.6811 63.7377
20037 2 5.48153 83.6752 65.0189
14396 1 9.11417 83.6811 63.7377
20000 2 8.20781 82.0693 65.0028
14428 1 0.932082 85.2888 63.7576
20038 2 2.75549 85.2815 65.038
20072 2 0.029626 86.8883 65.0597
14397 1 6.38832 85.2888 63.7576
14426 1 3.66264 86.897 63.7802
20040 2 5.48586 86.8883 65.0597
14399 1 9.11888 86.897 63.7802
19993 2 8.21173 85.2815 65.038
14427 1 0.937038 88.5056 63.8052
20024 2 2.7601 88.4955 65.0838
20073 2 0.0343521 90.1032 65.11
14383 1 6.39328 88.5056 63.8052
14429 1 3.66767 90.1145 63.8322
20022 2 5.49059 90.1032 65.11
14381 1 9.12391 90.1145 63.8322
19992 2 8.21634 88.4955 65.0838
14420 1 0.941995 91.7239 63.8608
20023 2 2.7648 91.7113 65.1379
20071 2 0.0389106 93.3199 65.1671
20075 2 1.84852 93.3489 62.6162
14382 1 6.39823 91.7239 63.8608
14418 1 3.67241 93.3336 63.8908
20025 2 5.49515 93.3199 65.1671
14384 1 9.12865 93.3336 63.8908
19978 2 8.22104 91.7113 65.1379
20026 2 7.30476 93.3489 62.6162
14438 1 1.84432 77.2527 66.2548
19651 2 0.939519 75.6506 67.5323
14437 1 0.0352661 77.2528 68.8229
13992 1 2.76319 75.6524 68.8211
20051 2 3.66784 77.2523 67.5341
14004 1 4.57219 75.6493 66.2528
19600 2 6.39576 75.6506 67.5323
14389 1 5.4915 77.2528 68.8229
14404 1 7.30056 77.2527 66.2548
19997 2 9.12408 77.2523 67.5341
13965 1 10.0284 75.6493 66.2528
13963 1 8.21943 75.6524 68.8211
14439 1 1.84608 80.4601 66.2698
20035 2 0.940325 78.8542 67.5394
14390 1 2.76395 78.8534 68.8282
14422 1 0.0367516 80.4542 68.8369
14394 1 4.57312 78.8563 66.2605
19998 2 6.39656 78.8542 67.5394
20033 2 3.66943 80.4563 67.5482
14391 1 5.49299 80.4542 68.8369
14346 1 10.0294 78.8563 66.2605
14392 1 7.30232 80.4601 66.2698
19999 2 9.12566 80.4563 67.5482
14343 1 8.22019 78.8534 68.8282
14424 1 1.84925 83.6688 66.2983
20034 2 0.942631 82.0587 67.5603
14375 1 2.76611 82.0554 68.8489
14423 1 0.039515 83.657 68.864
14393 1 4.57563 82.0643 66.2824
19990 2 6.39887 82.0587 67.5603
20036 2 3.67237 83.6616 67.5755
14373 1 5.49575 83.657 68.864
14345 1 10.0319 82.0643 66.2824
14395 1 7.30549 83.6688 66.2983
19988 2 9.12861 83.6616 67.5755
14342 1 8.22235 82.0554 68.8489
14425 1 1.85337 86.8793 66.3386
20020 2 0.946123 85.2649 67.5936
14374 1 2.76938 85.2592 68.8819
14414 1 0.0431839 86.8619 68.9026
14379 1 4.57934 85.2738 66.3171
19989 2 6.40236 85.2649 67.5936
20018 2 3.67629 86.8688 67.6143
14376 1 5.49942 86.8619 68.9026
14344 1 10.0356 85.2738 66.3171
14377 1 7.30961 86.8793 66.3386
19991 2 9.13253 86.8688 67.6143
14335 1 8.22562 85.2592 68.8819
14416 1 1.8579 90.0919 66.3884
20019 2 0.950343 88.4733 67.6374
14361 1 2.77333 88.4653 68.9255
14415 1 0.0472979 90.0694 68.9505
14378 1 4.58374 88.4853 66.3625
19975 2 6.40658 88.4733 67.6374
20021 2 3.68069 90.0785 67.6626
14359 1 5.50354 90.0694 68.9505
14337 1 10.04 88.4853 66.3625
14380 1 7.31414 90.0919 66.3884
19973 2 9.13692 90.0785 67.6626
14334 1 8.22957 88.4653 68.9255
14417 1 1.86231 93.3066 66.4451
20012 2 0.954785 91.6843 67.6895
14360 1 2.7775 91.6742 68.9773
14413 1 0.0514023 93.2797 69.0056
14365 1 4.58827 91.699 66.416
19974 2 6.41102 91.6843 67.6895
20010 2 3.68506 93.2907 67.7179
14362 1 5.50764 93.2797 69.0056
14336 1 10.0445 91.699 66.416
14363 1 7.31855 93.3066 66.4451
19976 2 9.1413 93.2907 67.7179
14324 1 8.23373 91.6742 68.9773
20031 2 1.85895 77.2508 70.0884
13990 1 0.950466 75.6548 71.4054
14388 1 3.67875 77.2519 71.4071
13954 1 6.4067 75.6548 71.4054
19598 2 4.58688 75.6526 70.0867
14339 1 9.13499 77.2519 71.4071
19996 2 7.31519 77.2508 70.0884
19568 2 10.0431 75.6526 70.0867
14371 1 0.951127 78.8492 71.4122
20032 2 1.86043 80.4477 70.1021
14340 1 6.40737 78.8492 71.4122
14369 1 3.68005 80.4468 71.4207
19986 2 4.58764 78.8491 70.0936
14341 1 9.13629 80.4468 71.4207
19944 2 10.0439 78.8491 70.0936
19984 2 7.31667 80.4477 70.1021
14370 1 0.95302 82.0449 71.4323
20016 2 1.86318 83.6464 70.1285
14332 1 6.40926 82.0449 71.4323
14372 1 3.68247 83.6435 71.4469
19985 2 4.58979 82.0468 70.1138
14330 1 9.13871 83.6435 71.4469
19943 2 10.046 82.0468 70.1138
19987 2 7.31942 83.6464 70.1285
14357 1 0.955885 85.2427 71.4643
20017 2 1.86684 86.8475 70.1662
14331 1 6.41212 85.2427 71.4643
14355 1 3.68569 86.8427 71.4843
19971 2 4.59305 85.2466 70.1461
14333 1 9.14193 86.8427 71.4843
19942 2 10.0493 85.2466 70.1461
19969 2 7.32308 86.8475 70.1662
14356 1 0.959354 88.4435 71.5066
20008 2 1.87096 90.0518 70.2132
14321 1 6.41559 88.4435 71.5066
14358 1 3.68931 90.0452 71.531
19970 2 4.59699 88.4492 70.1887
14319 1 9.14554 90.0452 71.531
19936 2 10.0532 88.4492 70.1887
19972 2 7.3272 90.0518 70.2132
14351 1 0.96302 91.6477 71.5571
20009 2 1.87509 93.2595 70.2673
14320 1 6.41926 91.6477 71.5571
14349 1 3.69293 93.2512 71.5846
19959 2 4.60117 91.6552 70.2395
14322 1 9.14917 93.2512 71.5846
19935 2 10.0574 91.6552 70.2395
19957 2 7.33133 93.2595 70.2673
14367 1 1.83496 77.2529 74.0657
20030 2 0.0477174 77.2483 72.6295
19586 2 0.948359 75.6567 75.1182
19588 2 2.77565 75.654 72.6278
19980 2 3.6766 77.2475 75.1198
19981 2 5.50396 77.2483 72.6295
13952 1 4.56308 75.6587 74.0641
19561 2 6.4046 75.6567 75.1182
14338 1 7.2912 77.2529 74.0657
19937 2 9.13284 77.2475 75.1198
13945 1 10.0193 75.6587 74.0641
19566 2 8.23189 75.654 72.6278
14368 1 1.83495 80.4421 74.0791
19963 2 0.948847 78.8386 75.1246
19982 2 2.77639 78.8427 72.6345
20014 2 0.0491649 80.4375 72.6428
14328 1 4.56308 78.8473 74.0708
19938 2 6.40509 78.8386 75.1246
19961 2 3.67756 80.4302 75.1325
19983 2 5.5054 80.4375 72.6428
14310 1 10.0193 78.8473 74.0708
14326 1 7.29119 80.4421 74.0791
19939 2 9.1338 80.4302 75.1325
19941 2 8.23263 78.8427 72.6345
14353 1 1.83494 83.6335 74.1051
19962 2 0.950241 82.0225 75.1435
19967 2 2.77849 82.0329 72.6542
20015 2 0.0518538 83.6289 72.6685
14327 1 4.56307 82.0375 74.0906
19931 2 6.40648 82.0225 75.1435
19964 2 3.67934 83.6156 75.1573
19965 2 5.50809 83.6289 72.6685
14309 1 10.0193 82.0375 74.0906
14329 1 7.29118 83.6335 74.1051
19929 2 9.13558 83.6156 75.1573
19940 2 8.23473 82.0329 72.6542
14354 1 1.83492 86.8281 74.1422
19951 2 0.952337 85.2098 75.1738
19966 2 2.78167 85.2258 72.6857
20006 2 0.0554185 86.8236 72.7053
14317 1 4.56305 85.2303 74.1224
19930 2 6.40858 85.2098 75.1738
19949 2 3.68168 86.8051 75.1928
19968 2 5.51166 86.8236 72.7053
14308 1 10.0193 85.2303 74.1224
14315 1 7.29116 86.8281 74.1422
19932 2 9.13792 86.8051 75.1928
19934 2 8.23791 85.2258 72.6857
14347 1 1.83485 90.0267 74.1885
19950 2 0.95484 88.4017 75.2141
19955 2 2.78551 88.4224 72.7273
20007 2 0.059414 90.0223 72.7513
14316 1 4.56302 88.4269 74.1644
19924 2 6.41108 88.4017 75.2141
19952 2 3.68426 89.9996 75.2373
19953 2 5.51565 90.0223 72.7513
14307 1 10.0193 88.4269 74.1644
14318 1 7.29109 90.0267 74.1885
19922 2 9.1405 89.9996 75.2373
19933 2 8.24175 88.4224 72.7273
14348 1 1.83466 93.2297 74.2418
19947 2 0.95742 91.5989 75.2623
19954 2 2.78955 91.6234 72.777
20005 2 0.0634084 93.2256 72.8043
19956 2 5.51965 93.2256 72.8043
14313 1 4.5629 91.6277 74.2144
19923 2 6.41366 91.5989 75.2623
19945 2 3.68676 93.1996 75.2887
19927 2 8.24579 91.6234 72.777
19925 2 9.143 93.1996 75.2887
14311 1 7.2909 93.2297 74.2418
14306 1 10.0191 91.6277 74.2144
2111 1 1.85497 94.605 -2.88205
8361 2 0.924981 96.1913 -1.41827
8369 2 2.74937 96.2134 -3.91609
8376 2 0.0231032 94.63 -3.93697
2098 1 4.5798 96.1878 -2.86065
8331 2 6.38122 96.1913 -1.41827
8367 2 3.65417 94.6094 -1.43974
8368 2 5.47934 94.63 -3.93697
2052 1 10.036 96.1878 -2.86065
2100 1 7.31121 94.605 -2.88205
8330 2 9.11041 94.6094 -1.43974
8334 2 8.20561 96.2134 -3.91609
2112 1 1.84829 97.7697 -2.83834
8360 2 0.92283 99.3521 -1.37279
8365 2 2.74559 99.3771 -3.87182
8374 2 0.0193731 97.7958 -3.89433
2097 1 4.57294 99.3506 -2.81528
8325 2 6.37907 99.3521 -1.37279
8359 2 3.65203 97.7722 -1.39591
8370 2 5.47561 97.7958 -3.89433
2051 1 10.0292 99.3506 -2.81528
2096 1 7.30453 97.7697 -2.83834
8332 2 9.10826 97.7722 -1.39591
8333 2 8.20183 99.3771 -3.87182
2108 1 1.84131 100.931 -2.79162
8350 2 0.92067 102.509 -1.32491
8364 2 2.74175 102.536 -3.82517
8375 2 0.0155508 100.957 -3.84872
2090 1 4.56589 102.51 -2.76751
8324 2 6.37691 102.509 -1.32491
8362 2 3.64987 100.931 -1.34907
8363 2 5.47179 100.957 -3.84872
2050 1 10.0221 102.51 -2.76751
2099 1 7.29755 100.931 -2.79162
8323 2 9.10611 100.931 -1.34907
8328 2 8.19799 102.536 -3.82517
2109 1 1.83423 104.088 -2.7431
8349 2 0.9185 105.662 -1.27587
8354 2 2.73792 105.691 -3.77732
8372 2 0.0117076 104.114 -3.80133
2089 1 4.55884 105.665 -2.71856
8311 2 6.37474 105.662 -1.27587
8348 2 3.64771 104.086 -1.30046
8366 2 5.46795 104.114 -3.80133
2043 1 10.0151 105.665 -2.71856
2088 1 7.29047 104.088 -2.7431
8326 2 9.10394 104.086 -1.30046
8327 2 8.19416 105.691 -3.77732
2104 1 1.82727 107.241 -2.694
8342 2 0.916314 108.812 -1.22678
8353 2 2.73416 108.842 -3.72935
8373 2 0.00790461 107.267 -3.75329
2076 1 4.552 108.817 -2.66957
8310 2 6.37255 108.812 -1.22678
8351 2 3.64553 107.238 -1.25126
8352 2 5.46414 107.267 -3.75329
2042 1 10.0082 108.817 -2.66957
2091 1 7.2835 107.241 -2.694
8309 2 9.10177 107.238 -1.25126
8314 2 8.19039 108.842 -3.72935
2105 1 1.82058 110.391 -2.64538
8341 2 0.914115 111.959 -1.17867
8343 2 2.73052 111.989 -3.68226
8371 2 0.00419839 110.416 -3.70564
2075 1 4.54552 111.965 -2.62156
8293 2 6.37035 111.959 -1.17867
8340 2 3.64333 110.386 -1.20255
8355 2 5.46044 110.416 -3.70564
2027 1 10.0018 111.965 -2.62156
2074 1 7.27682 110.391 -2.64538
8312 2 9.09957 110.386 -1.20255
8313 2 8.18676 111.989 -3.68226
2082 1 0.928123 96.148 2.39322
2094 1 2.74659 96.1717 -0.198414
2110 1 0.0198517 94.5905 -0.220031
8357 2 1.8373 94.5832 1.10876
2046 1 6.38436 96.148 2.39322
2092 1 3.65759 94.5683 2.37108
2093 1 5.47609 94.5905 -0.220031
8321 2 4.56422 96.1636 1.13064
2045 1 9.11382 94.5683 2.37108
2049 1 8.20283 96.1717 -0.198414
8268 2 10.0205 96.1636 1.13064
8329 2 7.29354 94.5832 1.10876
2081 1 0.925351 99.3053 2.4401
2086 1 2.74375 99.3316 -0.15258
2106 1 0.0170598 97.752 -0.175878
8358 2 1.83487 97.7432 1.15342
2038 1 6.38159 99.3053 2.4401
2080 1 3.65487 97.727 2.41628
2095 1 5.4733 97.752 -0.175878
8320 2 4.56175 99.3221 1.17697
2047 1 9.11111 97.727 2.41628
2048 1 8.19999 99.3316 -0.15258
8267 2 10.018 99.3221 1.17697
8319 2 7.29111 97.7432 1.15342
2068 1 0.922486 102.46 2.48937
2085 1 2.74084 102.488 -0.104329
2107 1 0.0141821 100.91 -0.128678
8346 2 1.83237 100.9 1.2011
2037 1 6.37872 102.46 2.48937
2083 1 3.65205 100.883 2.46451
2084 1 5.47042 100.91 -0.128678
8307 2 4.55921 102.477 1.22567
2036 1 9.10829 100.883 2.46451
2041 1 8.19708 102.488 -0.104329
8266 2 10.0155 102.477 1.22567
8322 2 7.28861 100.9 1.2011
2067 1 0.919557 105.612 2.53975
2072 1 2.7379 105.641 -0.0548944
2102 1 0.0112533 104.065 -0.0796847
8347 2 1.82981 104.054 1.25052
2023 1 6.37579 105.612 2.53975
2066 1 3.64915 104.036 2.51449
2087 1 5.46749 104.065 -0.0796847
8306 2 4.55663 105.63 1.27551
2039 1 9.10539 104.036 2.51449
2040 1 8.19414 105.641 -0.0548944
8259 2 10.0129 105.63 1.27551
8305 2 7.28605 104.054 1.25052
2071 1 2.73495 108.792 -0.00543356
2103 1 0.00830233 107.217 -0.0300994
8338 2 1.82721 107.205 1.30048
2069 1 3.6462 107.187 2.56498
2070 1 5.46454 107.217 -0.0300994
8292 2 4.55401 108.779 1.32531
2021 1 9.10243 107.187 2.56498
2026 1 8.19119 108.792 -0.00543356
8258 2 10.0103 108.779 1.32531
8308 2 7.28344 107.205 1.30048
2061 1 2.73202 111.939 0.0430219
2101 1 0.00536085 110.366 0.0189785
8339 2 1.82458 110.353 1.34987
2073 1 5.4616 110.366 0.0189785
8291 2 4.55139 111.926 1.37405
2025 1 8.18826 111.939 0.0430219
8243 2 10.0076 111.926 1.37405
8290 2 7.28082 110.353 1.34987
2078 1 1.84027 94.5478 4.94722
8317 2 2.74715 96.1389 3.69327
8356 2 0.0204082 94.5599 3.67095
2034 1 4.56691 96.1261 4.96991
8316 2 5.47665 94.5599 3.67095
1980 1 10.0231 96.1261 4.96991
2044 1 7.29651 94.5478 4.94722
8265 2 8.20339 96.1389 3.69327
2079 1 1.83728 97.7038 4.99352
8303 2 2.74431 99.2949 3.74048
8344 2 0.0176241 97.7172 3.7165
2033 1 4.56365 99.2812 5.01859
8318 2 5.47386 97.7172 3.7165
1979 1 10.0199 99.2812 5.01859
2032 1 7.29352 97.7038 4.99352
8264 2 8.20055 99.2949 3.74048
2064 1 1.83389 100.858 5.04354
8302 2 2.74137 102.448 3.79002
8345 2 0.0147312 100.872 3.76504
2019 1 4.5604 102.434 5.06888
8301 2 5.47097 100.872 3.76504
1978 1 10.0166 102.434 5.06888
2035 1 7.29012 100.858 5.04354
8257 2 8.19761 102.448 3.79002
2065 1 1.83067 104.009 5.09446
8288 2 2.73836 105.599 3.84061
8336 2 0.0117537 104.024 3.81526
2018 1 4.55715 105.584 5.12012
8304 2 5.46799 104.024 3.81526
1971 1 10.0134 105.584 5.12012
2017 1 7.2869 104.009 5.09446
8256 2 8.1946 105.599 3.84061
2060 1 0.916592 108.761 2.59006
2056 1 1.82738 107.159 5.14571
8287 2 2.73531 108.749 3.89106
8337 2 0.00872049 107.174 3.86592
2022 1 6.37283 108.761 2.59006
2004 1 4.55386 108.733 5.1711
8286 2 5.46496 107.174 3.86592
1970 1 10.0101 108.733 5.1711
2020 1 7.28362 107.159 5.14571
8242 2 8.19155 108.749 3.89106
2059 1 0.913635 111.909 2.63925
2057 1 1.8241 110.307 5.19616
8277 2 2.73228 111.896 3.94033
8335 2 0.005672 110.323 3.9159
2005 1 6.36987 111.909 2.63925
2058 1 3.64323 110.336 2.61485
2003 1 4.5506 111.881 5.22078
8289 2 5.46191 110.323 3.9159
2024 1 9.09947 110.336 2.61485
1956 1 10.0068 111.881 5.22078
2002 1 7.28034 110.307 5.19616
8241 2 8.18852 111.896 3.94033
2030 1 2.74861 96.1059 7.54371
2077 1 0.0221393 94.5291 7.52032
8295 2 1.84097 94.52 8.80915
8299 2 0.929309 96.1168 6.26184
2029 1 5.47838 94.5291 7.52032
8250 2 4.56733 96.0961 8.83273
8262 2 6.38555 96.1168 6.26184
8315 2 3.65898 94.5393 6.23895
1977 1 8.20484 96.1059 7.54371
8208 2 10.0236 96.0961 8.83273
8260 2 7.2972 94.52 8.80915
8261 2 9.11522 94.5393 6.23895
2015 1 2.74515 99.2581 7.59312
2062 1 0.018811 97.6822 7.56803
8296 2 1.83742 97.6717 8.85717
8298 2 0.926114 99.2702 6.31018
2031 1 5.47505 97.6822 7.56803
8249 2 4.56371 99.247 8.88225
8254 2 6.38235 99.2702 6.31018
8297 2 3.65583 97.6938 6.28565
1976 1 8.20139 99.2581 7.59312
8207 2 10.02 99.247 8.88225
8248 2 7.29366 97.6717 8.85717
8263 2 9.11206 97.6938 6.28565
2014 1 2.74161 102.409 7.64457
2063 1 0.0152949 100.834 7.61871
8280 2 1.83374 100.822 8.90784
8284 2 0.922737 102.422 6.3607
2013 1 5.47153 100.834 7.61871
8235 2 4.55997 102.397 8.93372
8253 2 6.37898 102.422 6.3607
8300 2 3.65254 100.846 6.33528
1969 1 8.19785 102.409 7.64457
8206 2 10.0162 102.397 8.93372
8251 2 7.28998 100.822 8.90784
8252 2 9.10878 100.846 6.33528
2000 1 2.73797 105.558 7.69658
2054 1 0.0116727 103.984 7.67057
8281 2 1.82995 103.971 8.95973
8283 2 0.919324 105.572 6.41199
2016 1 5.46791 103.984 7.67057
8234 2 4.55617 105.545 8.98571
8239 2 6.37556 105.572 6.41199
8282 2 3.64915 103.997 6.38632
1968 1 8.19421 105.558 7.69658
8200 2 10.0124 105.545 8.98571
8233 2 7.28619 103.971 8.95973
8255 2 9.10539 103.997 6.38632
1999 1 2.73433 108.706 7.74807
2055 1 0.00802709 107.132 7.72246
8272 2 1.82616 107.119 9.01152
8276 2 0.915904 108.72 6.46292
1998 1 5.46427 107.132 7.72246
8223 2 4.55241 108.693 9.03703
8238 2 6.37214 108.72 6.46292
8285 2 3.64573 107.146 6.43757
1955 1 8.19057 108.706 7.74807
8199 2 10.0086 108.693 9.03703
8236 2 7.2824 107.119 9.01152
8237 2 9.10197 107.146 6.43757
1989 1 2.73078 111.853 7.79803
2053 1 0.00442284 110.28 7.77329
8273 2 1.82245 110.267 9.06214
8275 2 0.91254 111.868 6.51247
2001 1 5.46066 110.28 7.77329
8222 2 4.54877 111.84 9.08674
8224 2 6.36878 111.868 6.51247
8274 2 3.64233 110.294 6.48792
1954 1 8.18702 111.853 7.79803
8192 2 10.005 111.84 9.08674
8221 2 7.27869 110.267 9.06214
8240 2 9.09857 110.294 6.48792
2011 1 0.930174 96.086 10.1166
8246 2 2.74878 96.0756 11.4049
8278 2 0.0186284 97.6499 11.43
1974 1 6.38641 96.086 10.1166
2028 1 3.66015 94.5107 10.0925
8247 2 5.47487 97.6499 11.43
1973 1 9.11639 94.5107 10.0925
8205 2 8.20502 96.0756 11.4049
2010 1 0.926327 99.2357 10.1673
8231 2 2.74469 99.224 11.4558
8279 2 0.0144786 100.798 11.4819
1966 1 6.38257 99.2357 10.1673
2009 1 3.6564 97.661 10.1416
8229 2 5.47072 100.798 11.4819
1975 1 9.11263 97.661 10.1416
8204 2 8.20092 99.224 11.4558
1996 1 0.922363 102.384 10.2197
8230 2 2.7405 102.372 11.5082
8270 2 0.0102815 103.945 11.5346
1965 1 6.3786 102.384 10.2197
2012 1 3.65248 100.81 10.1933
8232 2 5.46652 103.945 11.5346
1964 1 9.10872 100.81 10.1933
8198 2 8.19674 102.372 11.5082
1995 1 0.918344 105.532 10.2724
8219 2 2.73632 105.519 11.5608
8271 2 0.0061419 107.092 11.5868
1952 1 6.37458 105.532 10.2724
1994 1 3.64847 103.958 10.2461
8217 2 5.46238 107.092 11.5868
1967 1 9.10471 103.958 10.2461
8197 2 8.19255 105.519 11.5608
1988 1 0.914386 108.679 10.3242
8218 2 2.73225 108.666 11.6125
8269 2 0.002171 110.239 11.6376
1951 1 6.37062 108.679 10.3242
1997 1 3.64447 107.106 10.2985
8220 2 5.45841 110.239 11.6376
1986 1 3.64058 110.253 10.3495
1950 1 9.10071 107.106 10.2985
8191 2 8.18849 108.666 11.6125
1953 1 9.09682 110.253 10.3495
1987 1 0.910586 111.827 10.3743
8212 2 2.7284 111.813 11.6622
2412 1 3.63689 113.4 10.3984
1941 1 6.36682 111.827 10.3743
8653 2 5.45469 113.387 11.6861
8190 2 8.18463 111.813 11.6622
2357 1 9.09313 113.4 10.3984
11966 2 10.9109 113.387 11.6861
1958 1 2.74844 96.0444 15.2638
8227 2 0.929837 96.0545 13.978
1990 1 0.0178311 97.6167 15.2905
2008 1 1.83736 97.6395 12.7156
1962 1 4.56765 96.0659 12.6898
8202 2 6.38608 96.0545 13.978
1959 1 5.47407 97.6167 15.2905
8225 2 3.65563 97.6275 14.004
1929 1 8.20468 96.0444 15.2638
1932 1 10.0239 96.0659 12.6898
1960 1 7.2936 97.6395 12.7156
8203 2 9.11186 97.6275 14.004
1944 1 2.74345 99.1888 15.3175
8226 2 0.925163 99.2003 14.0305
1991 1 0.0128432 100.761 15.3448
1992 1 1.83295 100.786 12.7686
1961 1 4.56329 99.2129 12.7419
8195 2 6.3814 99.2003 14.0305
1942 1 5.46908 100.761 15.3448
8228 2 3.65094 100.773 14.0572
1928 1 8.19969 99.1888 15.3175
1931 1 10.0195 99.2129 12.7419
1963 1 7.28919 100.786 12.7686
8193 2 9.10718 100.773 14.0572
1943 1 2.7385 102.333 15.3721
8215 2 0.920484 102.346 14.084
1982 1 0.00795211 103.906 15.3991
1993 1 1.82852 103.932 12.8221
1948 1 4.55885 102.359 12.7954
8194 2 6.37672 102.346 14.084
1945 1 5.46419 103.906 15.3991
8213 2 3.6463 103.919 14.1107
1925 1 8.19473 102.333 15.3721
1930 1 10.0151 102.359 12.7954
8196 2 9.10254 103.919 14.1107
1946 1 7.28475 103.932 12.8221
1936 1 2.73371 105.478 15.4259
8214 2 0.915919 105.492 14.1371
1983 1 0.00330796 107.051 15.4521
1984 1 1.82418 107.079 12.8749
1947 1 4.55444 105.506 12.8487
8188 2 6.37216 105.492 14.1371
1934 1 5.45955 107.051 15.4521
8216 2 3.64184 107.065 14.1632
1924 1 8.18995 105.478 15.4259
1927 1 10.0107 105.506 12.8487
8186 2 9.09808 107.065 14.1632
1949 1 7.28041 107.079 12.8749
1935 1 2.72924 108.624 15.4779
8211 2 0.911595 108.638 14.1889
1985 1 1.82005 110.226 12.926
1940 1 4.5502 108.652 12.9007
8187 2 6.36783 108.638 14.1889
1937 1 5.45527 110.198 15.503
8209 2 3.63768 110.212 14.2139
5053 1 10.9115 110.198 15.503
1938 1 7.27629 110.226 12.926
8189 2 9.09391 110.212 14.2139
1922 1 8.18548 108.624 15.4779
1926 1 10.0064 108.652 12.9007
1933 1 2.72518 111.772 15.5274
8210 2 0.907613 111.786 14.2383
8652 2 3.63389 113.36 14.262
2391 1 1.81624 113.373 12.9746
8185 2 6.36385 111.786 14.2383
2341 1 5.45145 113.346 15.5511
1939 1 4.54622 111.8 12.9507
2356 1 7.27248 113.373 12.9746
5462 1 10.9077 113.346 15.5511
8609 2 9.09013 113.36 14.262
1923 1 10.0025 111.8 12.9507
1921 1 8.18142 111.772 15.5274
8550 2 2.74646 96.0057 19.1277
2302 1 0.928636 96.0207 17.8388
8568 2 1.83581 97.6032 16.5791
8562 2 0.0152485 97.5759 19.1556
8554 2 4.56661 96.0316 16.5522
2279 1 6.38487 96.0207 17.8388
8551 2 5.47149 97.5759 19.1556
2300 1 3.65388 97.5915 17.8665
8505 2 8.20269 96.0057 19.1277
8508 2 10.0229 96.0316 16.5522
8552 2 7.29205 97.6032 16.5791
2280 1 9.11012 97.5915 17.8665
2301 1 0.922923 99.1623 17.8944
8542 2 2.74035 99.1463 19.1836
8564 2 1.83051 100.746 16.6337
8563 2 0.00929911 100.717 19.2115
8553 2 4.56126 99.1748 16.6064
2275 1 6.37916 99.1623 17.8944
2303 1 3.64825 100.733 17.9223
8540 2 5.46554 100.717 19.2115
8504 2 8.19659 99.1463 19.1836
8507 2 10.0175 99.1748 16.6064
8555 2 7.28675 100.746 16.6337
2273 1 9.10449 100.733 17.9223
2295 1 0.917415 102.305 17.9499
8541 2 2.73461 102.288 19.2391
8565 2 1.82543 103.891 16.6879
8546 2 4.55605 102.318 16.6609
2274 1 6.37365 102.305 17.9499
2293 1 3.64292 103.877 17.9772
8497 2 8.19084 102.288 19.2391
8506 2 10.0123 102.318 16.6609
2276 1 9.09915 103.877 17.9772
8544 2 7.28167 103.891 16.6879
2294 1 0.912295 105.449 18.004
8560 2 1.82071 107.036 16.7406
8545 2 4.55113 105.463 16.7145
2263 1 6.36853 105.449 18.004
2296 1 3.63805 107.021 18.0302
8499 2 10.0074 105.463 16.7145
8547 2 7.27694 107.036 16.7406
2261 1 9.09429 107.021 18.0302
2288 1 0.907705 108.595 18.0557
8561 2 1.81645 110.183 16.7909
2286 1 3.63375 110.168 18.0805
2262 1 6.36394 108.595 18.0557
8532 2 4.54664 108.609 16.7661
8530 2 7.27269 110.183 16.7909
8498 2 10.0029 108.609 16.7661
2264 1 9.08999 110.168 18.0805
2287 1 0.903707 111.743 18.1046
8975 2 1.81272 113.332 16.8384
2688 1 3.63005 113.318 18.1278
2245 1 6.35995 111.743 18.1046
8531 2 4.54264 111.757 16.8151
8964 2 7.26896 113.332 16.8384
8483 2 9.99888 111.757 16.8151
2662 1 9.08629 113.318 18.1278
8538 2 0.925352 95.9753 21.7047
2299 1 1.83283 97.5625 20.4441
2271 1 4.56426 95.9932 20.4153
8502 2 6.38159 95.9753 21.7047
8536 2 3.64994 97.5441 21.7336
2220 1 10.0205 95.9932 20.4153
2269 1 7.28907 97.5625 20.4441
8503 2 9.10618 97.5441 21.7336
8537 2 0.91844 99.1134 21.7623
2291 1 1.82653 100.702 20.5012
2270 1 4.55774 99.1321 20.4728
8494 2 6.37468 99.1134 21.7623
8539 2 3.64336 100.683 21.7906
2219 1 10.014 99.1321 20.4728
2272 1 7.28277 100.702 20.5012
8492 2 9.0996 100.683 21.7906
8558 2 0.00381249 103.86 19.2662
8524 2 0.912256 102.254 21.8184
2292 1 1.82083 103.844 20.5564
8543 2 5.46005 103.86 19.2662
2259 1 4.55171 102.273 20.5291
8493 2 6.36849 102.254 21.8184
8522 2 3.63761 103.826 21.8454
2218 1 10.0079 102.273 20.5291
2257 1 7.27707 103.844 20.5564
8495 2 9.09385 103.826 21.8454
8528 2 2.72941 105.432 19.2927
8523 2 0.906966 105.398 21.8717
2284 1 1.81589 106.989 20.6089
8525 2 3.63279 106.971 21.8973
8526 2 5.45518 107.005 19.3187
2258 1 4.54638 105.416 20.583
8479 2 6.3632 105.398 21.8717
2260 1 7.27213 106.989 20.6089
8496 2 8.18565 105.432 19.2927
2211 1 10.0026 105.416 20.583
8477 2 9.08903 106.971 21.8973
11823 2 10.9114 107.005 19.3187
8527 2 2.72488 108.579 19.3439
8516 2 0.902602 108.545 21.9221
2285 1 1.81175 110.137 20.6583
8514 2 3.62887 110.12 21.946
8529 2 5.45099 110.153 19.3684
2244 1 4.54184 108.563 20.634
8478 2 6.35884 108.545 21.9221
2242 1 7.26799 110.137 20.6583
8482 2 8.18112 108.579 19.3439
2210 1 9.99808 108.563 20.634
8480 2 9.0851 110.12 21.946
11821 2 10.9072 110.153 19.3684
8517 2 2.72102 111.727 19.3921
8515 2 0.899089 111.696 21.9692
2682 1 1.80835 113.288 20.7046
8956 2 3.62573 113.272 21.9915
2243 1 4.53808 111.712 20.6819
8461 2 6.35533 111.696 21.9692
8957 2 5.44746 113.303 19.415
2661 1 7.26459 113.288 20.7046
8481 2 8.17726 111.727 19.3921
2195 1 9.99432 111.712 20.6819
8909 2 9.08197 113.272 21.9915
12238 2 10.9037 113.303 19.415
2251 1 0.919276 95.9203 25.5743
2267 1 2.74252 95.9604 22.9937
2289 1 0.01064 97.5283 23.0235
8535 2 1.82712 97.5064 24.3133
2214 1 6.37551 95.9203 25.5743
8490 2 4.5592 95.9387 24.2835
2249 1 3.64323 97.487 25.6048
2268 1 5.46688 97.5283 23.0235
2217 1 8.19876 95.9604 22.9937
8436 2 10.0154 95.9387 24.2835
2215 1 9.09947 97.487 25.6048
8488 2 7.28335 97.5064 24.3133
2250 1 0.911302 99.055 25.6343
2255 1 2.73519 99.0968 23.0528
2290 1 0.00374305 100.666 23.0814
8520 2 1.82008 100.645 24.3709
2252 1 3.636 100.624 25.6628
2206 1 6.36754 99.055 25.6343
8489 2 4.55156 99.0749 24.3425
2253 1 5.45998 100.666 23.0814
2216 1 8.19143 99.0968 23.0528
8435 2 10.0078 99.0749 24.3425
2204 1 9.09224 100.624 25.6628
8491 2 7.27632 100.645 24.3709
2236 1 0.904862 102.195 25.6903
2254 1 2.72879 102.237 23.1093
8521 2 1.81435 103.787 24.4252
2234 1 3.63034 103.767 25.7168
2205 1 6.3611 102.195 25.6903
8475 2 4.54517 102.215 24.3985
2256 1 5.45412 103.808 23.1364
8473 2 7.27059 103.787 24.4252
2209 1 8.18503 102.237 23.1093
8434 2 10.0014 102.215 24.3985
2207 1 9.08658 103.767 25.7168
5354 1 10.9104 103.808 23.1364
2235 1 0.89994 105.34 25.7423
2240 1 2.72348 105.381 23.1626
8512 2 1.80987 106.934 24.476
2237 1 3.6261 106.915 25.7669
2191 1 6.35618 105.34 25.7423
8474 2 4.54008 105.36 24.4511
2238 1 5.44936 106.954 23.188
8476 2 7.26611 106.934 24.476
5355 1 10.9056 106.954 23.188
2208 1 8.17972 105.381 23.1626
8427 2 9.99632 105.36 24.4511
2189 1 9.08234 106.915 25.7669
2228 1 0.896317 108.491 25.7906
2239 1 2.71924 108.528 23.2125
8513 2 1.80647 110.085 24.5234
2226 1 3.62303 110.067 25.8135
2190 1 6.35256 108.491 25.7906
8460 2 4.53616 108.509 24.5001
2241 1 5.44561 110.103 23.2362
8458 2 7.2627 110.085 24.5234
5353 1 10.9018 110.103 23.2362
2194 1 8.17548 108.528 23.2125
8426 2 9.9924 108.509 24.5001
2192 1 9.07927 110.067 25.8135
2227 1 0.893721 111.644 25.8356
2229 1 2.71594 111.679 23.259
8942 2 1.80393 113.239 24.5676
2649 1 3.62085 113.223 25.8569
2174 1 6.34996 111.644 25.8356
8459 2 4.53322 111.662 24.5459
2650 1 5.44271 113.256 23.2811
8908 2 7.26017 113.239 24.5676
2597 1 9.07708 113.223 25.8569
5753 1 10.899 113.256 23.2811
8412 2 9.98946 111.662 24.5459
2193 1 8.17218 111.679 23.259
8486 2 2.7351 95.8939 26.8643
2248 1 1.81786 97.4367 28.1878
8518 2 0.00272712 97.4609 26.8946
2202 1 4.55033 95.8703 28.1573
8487 2 5.45897 97.4609 26.8946
2200 1 7.2741 97.4367 28.1878
2154 1 10.0066 95.8703 28.1573
8433 2 8.19134 95.8939 26.8643
8471 2 2.72707 99.0294 26.9238
2232 1 1.81087 100.575 28.2447
2201 1 4.5422 99.0051 28.2169
8469 2 5.45189 100.599 26.952
2203 1 7.26711 100.575 28.2447
2153 1 9.99844 99.0051 28.2169
8432 2 8.18331 99.0294 26.9238
11783 2 10.9081 100.599 26.952
8470 2 2.72093 102.171 26.979
2233 1 1.80595 103.721 28.2969
2187 1 4.53629 102.147 28.2713
8472 2 5.44662 103.744 27.0051
2185 1 7.26218 103.721 28.2969
11774 2 10.9029 103.744 27.0051
2152 1 9.99253 102.147 28.2713
8425 2 8.17717 102.171 26.979
8456 2 2.71646 105.318 27.0301
2224 1 1.80265 106.872 28.345
2186 1 4.53224 105.296 28.3214
8454 2 5.44286 106.894 27.0543
2188 1 7.25888 106.872 28.345
11775 2 10.8991 106.894 27.0543
2145 1 9.98848 105.296 28.3214
8424 2 8.1727 105.318 27.0301
8455 2 2.71332 108.47 27.0776
2225 1 1.80053 110.028 28.3898
2173 1 4.52958 108.45 28.3678
8457 2 5.44026 110.048 27.1001
2171 1 7.25677 110.028 28.3898
11773 2 10.8965 110.048 27.1001
2144 1 9.98582 108.45 28.3678
8411 2 8.16955 108.47 27.0776
8445 2 2.71117 111.626 27.1218
2631 1 1.79924 113.187 28.4315
2172 1 4.52792 111.607 28.411
8893 2 5.4385 113.205 27.1427
2596 1 7.25548 113.187 28.4315
2133 1 9.98416 111.607 28.411
8410 2 8.16741 111.626 27.1218
12205 2 10.8947 113.205 27.1427
2198 1 2.72295 95.808 30.7422
8467 2 0.908958 95.8386 29.4467
8464 2 1.80551 97.3409 32.0587
8465 2 3.6329 97.4061 29.4769
8418 2 4.53712 95.7711 32.0296
8430 2 6.3652 95.8386 29.4467
2199 1 5.44701 97.3759 30.7716
8416 2 7.26175 97.3409 32.0587
5302 1 10.9032 97.3759 30.7716
2151 1 8.17919 95.808 30.7422
8388 2 9.99335 95.7711 32.0296
8431 2 9.08914 97.4061 29.4769
2183 1 2.71562 98.9462 30.7995
8466 2 0.90128 98.9756 29.5056
8448 2 1.80077 100.488 32.1123
8468 2 3.62652 100.547 29.5329
8417 2 4.53094 98.9133 32.0862
8422 2 6.35752 98.9756 29.5056
2181 1 5.44115 100.519 30.826
8419 2 7.25701 100.488 32.1123
5303 1 10.8974 100.519 30.826
2150 1 8.17186 98.9462 30.7995
8387 2 9.98718 98.9133 32.0862
8420 2 9.08276 100.547 29.5329
2182 1 2.71102 102.093 30.8513
8452 2 0.896056 102.121 29.559
8449 2 1.79817 103.642 32.1611
8450 2 3.6223 103.695 29.5841
8404 2 4.52738 102.064 32.1372
8421 2 6.35229 102.121 29.559
2184 1 5.43761 103.67 30.8755
8402 2 7.2544 103.642 32.1611
5294 1 10.8938 103.67 30.8755
2143 1 8.16726 102.093 30.8513
8386 2 9.98362 102.064 32.1372
8423 2 9.07853 103.695 29.5841
2169 1 2.70835 105.247 30.8989
8451 2 0.892686 105.272 29.6081
8440 2 1.79693 106.802 32.2063
8453 2 3.61964 106.849 29.6313
8403 2 4.52553 105.221 32.1841
8408 2 6.34892 105.272 29.6081
2167 1 5.43565 106.826 30.9214
8405 2 7.25316 106.802 32.2063
5295 1 10.8919 106.826 30.9214
2142 1 8.16459 105.247 30.8989
8383 2 9.98177 105.221 32.1841
8406 2 9.07588 106.849 29.6313
2168 1 2.70696 108.406 30.9432
8444 2 0.890629 108.428 29.6537
8441 2 1.79654 109.965 32.2486
8442 2 3.61808 110.008 29.6753
8396 2 4.52477 108.383 32.2278
8407 2 6.34687 108.428 29.6537
2170 1 5.43471 109.987 30.9643
8394 2 7.25278 109.965 32.2486
5293 1 10.8909 109.987 30.9643
2132 1 8.1632 108.406 30.9432
8382 2 9.98101 108.383 32.2278
8409 2 9.07431 110.008 29.6753
2160 1 2.70638 111.568 30.9847
8443 2 0.889467 111.588 29.6962
8871 2 1.79668 113.132 32.2883
8892 2 3.61724 113.169 29.7164
8395 2 4.52468 111.548 32.2688
8397 2 6.34571 111.588 29.6962
2581 1 5.43442 113.151 31.0045
8836 2 7.25292 113.132 32.2883
2131 1 8.16262 111.568 30.9847
8379 2 9.98092 111.548 32.2688
5702 1 10.8907 113.151 31.0045
8837 2 9.07348 113.169 29.7164
2179 1 0.89368 95.732 33.3268
8414 2 2.70817 95.691 34.61
2177 1 3.61879 97.3039 33.3542
2148 1 6.34992 95.732 33.3268
8415 2 5.43417 97.2657 34.6376
2136 1 4.52 95.6421 35.9076
11710 2 10.8904 97.2657 34.6376
8385 2 8.1644 95.691 34.61
2149 1 9.07503 97.3039 33.3542
2118 1 9.97623 95.6421 35.9076
2180 1 3.61513 100.455 33.4048
2178 1 0.88851 98.8785 33.3801
8400 2 2.70464 98.8428 34.6636
8398 2 5.43188 100.422 34.6883
2140 1 6.34475 98.8785 33.3801
11711 2 10.8881 100.422 34.6883
2138 1 9.07137 100.455 33.4048
8384 2 8.16088 98.8428 34.6636
2163 1 3.61354 103.614 33.4516
2165 1 0.886021 102.034 33.4286
8399 2 2.70329 102.003 34.712
8401 2 5.43123 103.585 34.7348
2139 1 6.34226 102.034 33.4286
11702 2 10.8875 103.585 34.7348
2141 1 9.06978 103.614 33.4516
8381 2 8.15952 102.003 34.712
8392 2 2.70316 105.168 34.7569
2164 1 0.885123 105.195 33.4738
2166 1 3.61317 106.777 33.4953
2129 1 6.34136 105.195 33.4738
8390 2 5.4315 106.751 34.7783
11703 2 10.8877 106.751 34.7783
8380 2 8.1594 105.168 34.7569
2127 1 9.06941 106.777 33.4953
2157 1 3.6135 109.943 33.5365
2159 1 0.88515 108.36 33.5162
8391 2 2.70373 108.336 34.799
8393 2 5.43229 109.921 34.8192
2128 1 6.34139 108.36 33.5162
11701 2 10.8885 109.921 34.8192
2130 1 9.06973 109.943 33.5365
8378 2 8.15997 108.336 34.799
8389 2 2.70468 111.507 34.8389
2158 1 0.8857 111.528 33.5563
2580 1 3.61421 113.112 33.5754
2122 1 6.34194 111.528 33.5563
8821 2 5.43335 113.093 34.8579
12134 2 10.8896 113.093 34.8579
2531 1 9.07045 113.112 33.5754
8377 2 8.16091 111.507 34.8389
8590 2 0.880569 95.5999 37.1841
14271 1 2.69162 95.5409 38.4791
8588 2 3.60828 97.1822 37.2104
2176 1 1.7908 97.2217 35.9323
8579 2 6.33681 95.5999 37.1841
14656 1 5.4213 97.1317 38.5023
2134 1 7.24704 97.2217 35.9323
14241 1 8.14786 95.5409 38.4791
8580 2 9.06452 97.1822 37.2104
17484 1 10.8775 97.1317 38.5023
8589 2 0.880176 98.7662 37.2353
14657 1 2.69455 98.7221 38.525
2161 1 1.79021 100.386 35.9793
8591 2 3.60861 100.351 37.259
8576 2 6.33641 98.7662 37.2353
2135 1 4.51842 98.803 35.9562
14658 1 5.42396 100.312 38.5473
2137 1 7.24645 100.386 35.9793
14622 1 8.15079 98.7221 38.525
2117 1 9.97466 98.803 35.9562
8574 2 9.06485 100.351 37.259
17482 1 10.8802 100.312 38.5473
8586 2 0.881014 101.938 37.2819
14653 1 2.6971 101.902 38.5692
2162 1 1.79082 103.554 36.0236
8584 2 3.6098 103.524 37.3041
8575 2 6.33725 101.938 37.2819
2125 1 4.51853 101.969 36.0017
14651 1 5.42648 103.492 38.5906
2123 1 7.24706 103.554 36.0236
14621 1 8.15334 101.902 38.5692
2116 1 9.97477 101.969 36.0017
8577 2 9.06604 103.524 37.3041
17483 1 10.8827 103.492 38.5906
8585 2 0.882448 105.112 37.3256
14652 1 2.6996 105.082 38.6115
2155 1 1.79203 106.725 36.0657
8587 2 3.6114 106.699 37.3465
8572 2 6.33869 105.112 37.3256
2124 1 4.51949 105.139 36.0449
14654 1 5.42896 106.672 38.6321
2126 1 7.24827 106.725 36.0657
14616 1 8.15584 105.082 38.6115
2115 1 9.97573 105.139 36.0449
8570 2 9.06764 106.699 37.3465
17480 1 10.8852 106.672 38.6321
8583 2 0.88416 108.287 37.3669
14642 1 2.70205 108.262 38.6521
2156 1 1.79353 109.898 36.1058
8581 2 3.61318 109.876 37.3868
8571 2 6.3404 108.287 37.3669
14640 1 5.43136 109.852 38.6717
2121 1 4.52088 108.312 36.086
2119 1 7.24977 109.898 36.1058
14615 1 8.15829 108.262 38.6521
2114 1 9.97711 108.312 36.086
8573 2 9.06942 109.876 37.3868
17481 1 10.8876 109.852 38.6717
9000 2 3.61499 113.053 37.4249
2559 1 1.79513 113.073 36.1438
8582 2 0.885967 111.464 37.4061
14641 1 2.70439 111.443 38.6909
2530 1 7.25137 113.073 36.1438
8569 2 6.34221 111.464 37.4061
14643 1 5.43363 113.033 38.7095
2120 1 4.52244 111.485 36.1251
8986 2 9.07123 113.053 37.4249
14602 1 8.16063 111.443 38.6909
2113 1 9.97868 111.485 36.1251
17479 1 10.8899 113.033 38.7095
20279 2 1.78611 97.0945 39.7742
14269 1 0.869192 95.4383 41.0371
19869 2 2.69483 95.4061 42.3002
14655 1 3.60035 97.0403 41.0613
20261 2 5.4245 97.0076 42.3284
14221 1 6.32543 95.4383 41.0371
19883 2 4.51335 95.5023 39.7478
20268 2 7.24235 97.0945 39.7742
14618 1 9.05659 97.0403 41.0613
19833 2 8.15106 95.4061 42.3002
19835 2 9.96959 95.5023 39.7478
23098 2 10.8807 97.0076 42.3284
20280 2 1.78829 100.279 39.8229
20262 2 2.6979 98.6076 42.3547
14649 1 0.874692 98.6399 41.0848
14647 1 3.60492 100.238 41.1077
20266 2 4.51527 98.6866 39.7991
20263 2 5.42753 100.206 42.3797
14619 1 6.33093 98.6399 41.0848
20264 2 7.24453 100.279 39.8229
14620 1 9.06115 100.238 41.1077
20217 2 8.15414 98.6076 42.3547
20220 2 9.97151 98.6866 39.7991
23094 2 10.8838 100.206 42.3797
20276 2 1.79074 103.463 39.8681
14648 1 0.878686 101.834 41.1301
20254 2 2.70091 101.804 42.4036
14650 1 3.60855 103.43 41.1519
20265 2 4.51762 101.871 39.8459
14613 1 6.33492 101.834 41.1301
20252 2 5.43051 103.401 42.4266
20267 2 7.24698 103.463 39.8681
14611 1 9.06479 103.43 41.1519
20216 2 8.15715 101.804 42.4036
20219 2 9.97386 101.871 39.8459
23095 2 10.8868 103.401 42.4266
20277 2 1.79325 106.646 39.9106
14638 1 0.88208 105.024 41.1732
20253 2 2.70386 104.997 42.4488
14636 1 3.61176 106.619 41.194
20258 2 4.52012 105.054 39.8896
14612 1 6.33832 105.024 41.1732
20255 2 5.43341 106.593 42.4704
20256 2 7.24949 106.646 39.9106
14614 1 9.068 106.619 41.194
20209 2 8.1601 104.997 42.4488
20218 2 9.97635 105.054 39.8896
23090 2 10.8896 106.593 42.4704
20272 2 1.79569 109.83 39.951
14637 1 0.885137 108.212 41.2144
20240 2 2.70668 108.189 42.4913
14639 1 3.61468 109.806 41.2342
20257 2 4.5226 108.238 39.931
14599 1 6.34138 108.212 41.2144
20238 2 5.43615 109.784 42.5117
20259 2 7.25193 109.83 39.951
14597 1 9.07092 109.806 41.2342
20208 2 8.16292 108.189 42.4913
20211 2 9.97884 108.238 39.931
23091 2 10.8924 109.784 42.5117
20273 2 1.79801 113.013 39.9892
14630 1 0.887927 111.399 41.2536
20239 2 2.70934 111.378 42.5314
14628 1 3.61735 112.993 41.2724
14598 1 6.34417 111.399 41.2536
20241 2 5.43871 112.973 42.5506
20244 2 4.52499 111.421 39.9703
20242 2 7.25425 113.013 39.9892
14600 1 9.07358 112.993 41.2724
20194 2 8.16558 111.378 42.5314
20210 2 9.98123 111.421 39.9703
23089 2 10.8949 112.973 42.5506
14645 1 1.78468 96.9539 43.61
19867 2 0.880211 95.3171 44.8445
20260 2 3.61019 96.9259 44.875
14219 1 4.50972 95.3436 43.5827
19814 2 6.33645 95.3171 44.8445
14617 1 7.24092 96.9539 43.61
20213 2 9.06642 96.9259 44.875
14171 1 9.96595 95.3436 43.5827
14646 1 1.78949 100.165 43.6608
20250 2 0.883737 98.5323 44.9035
20248 2 3.61343 100.137 44.9303
14609 1 4.51537 98.5608 43.636
20214 2 6.33997 98.5323 44.9035
14607 1 7.24573 100.165 43.6608
14556 1 9.97161 98.5608 43.636
20215 2 9.06967 100.137 44.9303
14634 1 1.79335 103.368 43.7076
20249 2 0.886827 101.74 44.9558
20251 2 3.61643 103.341 44.9802
14608 1 4.51962 101.767 43.6846
20206 2 6.34307 101.74 44.9558
14610 1 7.24959 103.368 43.7076
14555 1 9.97586 101.767 43.6846
20204 2 9.07267 103.341 44.9802
14635 1 1.79672 106.565 43.7517
20236 2 0.88976 104.942 45.0036
20234 2 3.6193 106.541 45.0262
14595 1 4.5232 104.967 43.73
20205 2 6.346 104.942 45.0036
14593 1 7.25296 106.565 43.7517
14554 1 9.97944 104.967 43.73
20207 2 9.07554 106.541 45.0262
14626 1 1.79976 109.76 43.7932
20235 2 0.89256 108.14 45.048
20237 2 3.62202 109.738 45.0692
14594 1 4.5264 108.163 43.7727
20191 2 6.3488 108.14 45.048
14596 1 7.256 109.76 43.7932
14547 1 9.98264 108.163 43.7727
20189 2 9.07826 109.738 45.0692
14627 1 1.80253 112.952 43.8324
20228 2 0.895197 111.336 45.0896
20226 2 3.62456 112.933 45.1094
14580 1 4.5293 111.356 43.8131
20190 2 6.35144 111.336 45.0896
14578 1 7.25877 112.952 43.8324
20192 2 9.0808 112.933 45.1094
14546 1 9.98554 111.356 43.8131
20246 2 1.79828 96.852 47.417
14203 1 0.889506 95.1906 48.6569
14205 1 2.69862 95.2609 46.1209
14603 1 3.61958 96.808 48.6904
14604 1 5.4292 96.8761 46.1518
14152 1 6.34574 95.1906 48.6569
19812 2 4.52443 95.2385 47.3844
20212 2 7.25452 96.852 47.417
14549 1 9.07582 96.808 48.6904
14169 1 8.15486 95.2609 46.1209
19773 2 9.98066 95.2385 47.3844
17464 1 10.8854 96.8761 46.1518
14587 1 0.893181 98.4226 48.7218
14605 1 2.70324 98.4879 46.1807
20247 2 1.80148 100.072 47.4764
14585 1 3.62286 100.035 48.7514
14550 1 6.34942 98.4226 48.7218
14606 1 5.4333 100.097 46.2079
20202 2 4.52808 98.463 47.4476
20200 2 7.25771 100.072 47.4764
14551 1 9.0791 100.035 48.7514
14553 1 8.15947 98.4879 46.1807
20154 2 9.98432 98.463 47.4476
17452 1 10.8895 100.097 46.2079
14586 1 0.896203 101.645 48.7794
14591 1 2.70696 101.704 46.2338
20232 2 1.80425 103.284 47.5298
14588 1 3.6257 103.253 48.8061
14542 1 6.35244 101.645 48.7794
14589 1 5.43675 103.309 46.2586
20201 2 4.53101 101.679 47.5037
20203 2 7.26048 103.284 47.5298
14540 1 9.08194 103.253 48.8061
14552 1 8.1632 101.704 46.2338
20153 2 9.98725 101.679 47.5037
17453 1 10.893 103.309 46.2586
14572 1 0.898915 104.859 48.8316
14590 1 2.71022 104.912 46.2825
20233 2 1.80685 106.49 47.5786
14570 1 3.62832 106.464 48.8561
14541 1 6.35515 104.859 48.8316
14592 1 5.43986 106.514 46.3054
20187 2 4.53368 104.888 47.5547
20185 2 7.26309 106.49 47.5786
14543 1 9.08456 106.464 48.8561
14545 1 8.16646 104.912 46.2825
20152 2 9.98992 104.888 47.5547
17444 1 10.8961 106.514 46.3054
14571 1 0.901451 108.067 48.8796
14576 1 2.71319 108.114 46.3276
20224 2 1.80934 109.693 47.6238
14573 1 3.63078 109.67 48.9023
14527 1 6.35769 108.067 48.8796
14574 1 5.4427 109.714 46.3491
20186 2 4.53623 108.092 47.6016
20188 2 7.26557 109.693 47.6238
14525 1 9.08702 109.67 48.9023
14544 1 8.16943 108.114 46.3276
20145 2 9.99247 108.092 47.6016
17445 1 10.8989 109.714 46.3491
14564 1 0.90384 111.272 48.9241
14575 1 2.71592 111.314 46.3698
20225 2 1.81168 112.893 47.6657
14562 1 3.6331 112.873 48.945
14526 1 6.36008 111.272 48.9241
14577 1 5.44533 112.912 46.3899
20173 2 4.53865 111.293 47.6451
20171 2 7.26792 112.893 47.6657
14528 1 9.08934 112.873 48.945
14530 1 8.17216 111.314 46.3698
20144 2 9.99489 111.293 47.6451
17443 1 10.9016 112.912 46.3899
14583 1 1.81064 96.7495 51.2288
19800 2 2.71385 95.1713 49.9234
19798 2 0.903982 95.115 52.4638
20196 2 3.63422 96.7313 52.4981
20197 2 5.44402 96.7872 49.9574
14150 1 4.53694 95.1319 51.1941
14548 1 7.26688 96.7495 51.2288
19762 2 6.36022 95.115 52.4638
14120 1 9.99318 95.1319 51.1941
19771 2 8.17009 95.1713 49.9234
20147 2 9.09046 96.7313 52.4981
23065 2 10.9003 96.7872 49.9574
14584 1 1.81348 99.9789 51.2931
20198 2 2.71759 98.4008 49.9895
20179 2 0.907811 98.3459 52.5311
20177 2 3.63735 99.9588 52.5627
14538 1 4.54028 98.3652 51.2618
20199 2 5.44715 100.012 50.02
14536 1 7.26972 99.9789 51.2931
20148 2 6.36405 98.3459 52.5311
23050 2 10.9034 100.012 50.02
14496 1 9.99652 98.3652 51.2618
20151 2 8.17382 98.4008 49.9895
20149 2 9.09359 99.9588 52.5627
14568 1 1.8158 103.201 51.3514
20183 2 2.72033 101.622 50.049
20178 2 0.910456 101.57 52.593
14537 1 4.5428 101.591 51.3229
20181 2 5.44965 103.23 50.0766
14539 1 7.27204 103.201 51.3514
20140 2 6.36669 101.57 52.593
23051 2 10.9059 103.23 50.0766
14495 1 9.99903 101.591 51.3229
20150 2 8.17657 101.622 50.049
14569 1 1.81792 106.416 51.4045
20182 2 2.72269 104.837 50.1031
14523 1 4.54499 104.809 51.3785
20184 2 5.45192 106.442 50.1284
14521 1 7.27415 106.416 51.4045
23042 2 10.9082 106.442 50.1284
14494 1 10.0012 104.809 51.3785
20143 2 8.17892 104.837 50.1031
14560 1 1.81993 109.627 51.4534
20169 2 2.72489 108.046 50.1527
14522 1 4.54705 108.022 51.4294
20167 2 5.45407 109.65 50.176
23043 2 10.9103 109.65 50.176
14488 1 10.0033 108.022 51.4294
14524 1 7.27617 109.627 51.4534
20142 2 8.18113 108.046 50.1527
14561 1 1.82186 112.834 51.4983
20168 2 2.72699 111.252 50.1985
14511 1 4.54903 111.231 51.4763
20170 2 5.45612 112.854 50.22
14487 1 10.0053 111.231 51.4763
14509 1 7.2781 112.834 51.4983
20132 2 8.18323 111.252 50.1985
23041 2 10.9124 112.854 50.22
14582 1 0.00169161 96.6997 53.769
20175 2 1.82473 96.6833 55.0404
14140 1 2.72792 95.083 53.7342
14533 1 5.45793 96.6997 53.769
19760 2 4.55072 95.0678 55.0065
20146 2 7.28097 96.6833 55.0404
14118 1 8.18415 95.083 53.7342
19753 2 10.007 95.0678 55.0065
14534 1 2.73132 98.3152 53.8026
14566 1 0.00445178 99.9293 53.8349
20176 2 1.8279 99.9111 55.1058
14535 1 5.46069 99.9293 53.8349
20136 2 4.55459 98.2978 55.0736
14493 1 8.18756 98.3152 53.8026
20118 2 10.0108 98.2978 55.0736
20134 2 7.28413 99.9111 55.1058
14519 1 2.73364 101.542 53.866
14567 1 0.00648655 103.153 53.8958
20161 2 1.83013 103.134 55.167
14517 1 5.46272 103.153 53.8958
20135 2 4.55722 101.523 55.1369
20180 2 3.63967 103.18 52.622
14492 1 8.18988 101.542 53.866
20117 2 10.0135 101.523 55.1369
20137 2 7.28637 103.134 55.167
20138 2 9.09591 103.18 52.622
14518 1 2.7355 104.763 53.9243
14558 1 0.00822116 106.372 53.9517
20162 2 1.8319 106.353 55.2237
20165 2 0.912562 104.789 52.6498
14520 1 5.46446 106.372 53.9517
20125 2 4.55918 104.744 55.1959
20139 2 6.3688 104.789 52.6498
20163 2 3.64164 106.396 52.6765
14486 1 8.19173 104.763 53.9243
20116 2 10.0154 104.744 55.1959
20123 2 7.28814 106.353 55.2237
20141 2 9.09788 106.396 52.6765
20164 2 0.914437 108.002 52.7021
20155 2 1.83344 109.567 55.2761
14559 1 0.00983556 109.586 54.003
14507 1 2.73716 107.979 53.9779
20166 2 3.64345 109.608 52.7266
20129 2 6.37068 108.002 52.7021
20124 2 4.5608 107.96 55.2504
14505 1 5.46607 109.586 54.003
20127 2 9.09969 109.608 52.7266
20126 2 7.28967 109.567 55.2761
20115 2 10.017 107.96 55.2504
14485 1 8.1934 107.979 53.9779
20159 2 0.916202 111.212 52.7501
20156 2 1.83487 112.779 55.3241
14557 1 0.011389 112.797 54.0502
14506 1 2.73874 111.192 54.0271
20157 2 3.64517 112.816 52.7726
20128 2 6.37244 111.212 52.7501
20121 2 4.56228 111.174 55.3006
14508 1 5.46763 112.797 54.0502
20119 2 7.29111 112.779 55.3241
20114 2 10.0185 111.174 55.3006
14479 1 8.19498 111.192 54.0271
20130 2 9.10141 112.816 52.7726
14831 1 1.83947 96.6194 58.8566
20472 2 0.0153437 96.6418 57.5847
14138 1 0.918704 95.0416 56.2774
20079 2 2.74138 95.0275 57.5515
14532 1 3.64879 96.6569 56.3115
20464 2 5.47158 96.6418 57.5847
14435 1 4.56561 95.0057 58.8233
14113 1 6.37494 95.0416 56.2774
14489 1 9.10503 96.6569 56.3115
14820 1 7.2957 96.6194 58.8566
14387 1 10.0218 95.0057 58.8233
20049 2 8.19761 95.0275 57.5515
14515 1 0.92225 98.2715 56.3451
14832 1 1.84243 99.8456 58.9224
20470 2 0.0185371 99.8683 57.65
20465 2 2.74521 98.2554 57.6177
14513 1 3.65165 99.8852 56.3778
14490 1 6.37849 98.2715 56.3451
14818 1 4.56922 98.2327 58.8897
20466 2 5.47478 99.8683 57.65
14772 1 10.0255 98.2327 58.8897
14491 1 9.10789 99.8852 56.3778
14816 1 7.29867 99.8456 58.9224
20430 2 8.20144 98.2554 57.6177
14514 1 0.924587 101.498 56.4096
14828 1 1.84445 103.069 58.9857
20471 2 0.0207733 103.092 57.7124
20461 2 2.74787 101.48 57.6816
14516 1 3.65361 103.11 56.4403
14817 1 4.57165 101.458 58.9545
14483 1 6.38082 101.498 56.4096
20459 2 5.47701 103.092 57.7124
14771 1 10.0279 101.458 58.9545
14819 1 7.30069 103.069 58.9857
14481 1 9.10985 103.11 56.4403
20429 2 8.20411 101.48 57.6816
14503 1 0.926283 104.72 56.4699
14829 1 1.8459 106.29 59.0453
20468 2 0.022438 106.312 57.7708
20460 2 2.74978 104.702 57.7421
14501 1 3.65512 106.33 56.4984
14810 1 4.57334 104.68 59.016
14482 1 6.38252 104.72 56.4699
20462 2 5.47868 106.312 57.7708
14770 1 10.0296 104.68 59.016
14808 1 7.30214 106.29 59.0453
14484 1 9.11136 106.33 56.4984
20424 2 8.20602 104.702 57.7421
14502 1 0.927681 107.939 56.5257
14824 1 1.84706 109.509 59.1007
20469 2 0.0237969 109.529 57.825
20450 2 2.75126 107.92 57.7985
14504 1 3.65645 109.547 56.5519
14809 1 4.57462 107.9 59.0735
14476 1 6.38392 107.939 56.5257
20448 2 5.48004 109.529 57.825
14763 1 10.0309 107.9 59.0735
14811 1 7.30329 109.509 59.1007
14474 1 9.11268 109.547 56.5519
20423 2 8.2075 107.92 57.7985
14499 1 0.928953 111.154 56.5771
14825 1 1.84808 112.725 59.1515
20467 2 0.0250043 112.743 57.8749
20449 2 2.75253 111.136 57.8505
14497 1 3.65769 112.76 56.6011
14796 1 4.5757 111.117 59.1267
14475 1 6.38519 111.154 56.5771
20451 2 5.48124 112.743 57.8749
14762 1 10.0319 111.117 59.1267
14794 1 7.30432 112.725 59.1515
14477 1 9.11392 112.76 56.6011
20410 2 8.20877 111.136 57.8505
14830 1 0.0299488 96.5856 61.4039
14421 1 2.75613 94.9736 61.3715
20077 2 0.932039 94.9921 60.0986
14813 1 5.48619 96.5856 61.4039
20463 2 3.66218 96.6048 60.131
20029 2 6.38828 94.9921 60.0986
20426 2 9.11841 96.6048 60.131
14385 1 8.21237 94.9736 61.3715
14814 1 2.75972 98.1975 61.4365
14826 1 0.0329938 99.8092 61.469
20457 2 0.935787 98.2172 60.1635
14815 1 5.48923 99.8092 61.469
20427 2 6.39203 98.2172 60.1635
20455 2 3.66537 99.8293 60.1958
14769 1 8.21596 98.1975 61.4365
20428 2 9.12161 99.8293 60.1958
14806 1 2.76227 101.421 61.501
14827 1 0.035122 103.032 61.5325
20456 2 0.938492 101.441 60.2275
14804 1 5.49136 103.032 61.5325
20421 2 6.39473 101.441 60.2275
20458 2 3.66766 103.052 60.2586
14768 1 8.21851 101.421 61.501
20419 2 9.1239 103.052 60.2586
14805 1 2.76405 104.643 61.5632
14822 1 0.0366189 106.253 61.593
20446 2 0.940428 104.663 60.2889
14807 1 5.49286 106.253 61.593
20420 2 6.39667 104.663 60.2889
20444 2 3.66931 106.273 60.3182
14761 1 8.22029 104.643 61.5632
20422 2 9.12555 106.273 60.3182
14792 1 2.76533 107.863 61.6219
14823 1 0.0377351 109.472 61.6497
20445 2 0.941869 107.882 60.3466
14790 1 5.49397 109.472 61.6497
20407 2 6.39811 107.882 60.3466
20447 2 3.67059 109.491 60.3739
14760 1 8.22157 107.863 61.6219
20405 2 9.12683 109.491 60.3739
14791 1 2.76633 111.081 61.6764
14821 1 0.0386545 112.69 61.7019
20438 2 0.943027 111.1 60.4001
14793 1 5.49489 112.69 61.7019
20406 2 6.39927 111.1 60.4001
20436 2 3.67167 112.708 60.4253
14746 1 8.22257 111.081 61.6764
20408 2 9.1279 112.708 60.4253
20452 2 0.0428978 96.5382 65.2284
20453 2 1.85265 96.5708 62.6791
14419 1 0.946402 94.9436 63.9218
20013 2 2.76911 94.9288 65.1974
14812 1 3.67641 96.5539 63.9535
20412 2 5.49914 96.5382 65.2284
14366 1 6.40264 94.9436 63.9218
20027 2 4.57882 94.9598 62.6474
14765 1 9.13265 96.5539 63.9535
20425 2 7.30888 96.5708 62.6791
19977 2 8.22535 94.9288 65.1974
19979 2 10.0351 94.9598 62.6474
14802 1 0.949955 98.1643 63.9855
20413 2 2.77273 98.1478 65.2598
20440 2 0.0461305 99.7577 65.2914
20454 2 1.85585 99.7929 62.743
14766 1 6.40619 98.1643 63.9855
14800 1 3.67951 99.7749 64.0176
20414 2 5.50237 99.7577 65.2914
20417 2 4.58248 98.1819 62.7111
14767 1 9.13575 99.7749 64.0176
20361 2 8.22897 98.1478 65.2598
20364 2 10.0387 98.1819 62.7111
20415 2 7.31208 99.7929 62.743
14801 1 0.952624 101.385 64.0495
20399 2 2.77558 101.368 65.3229
20441 2 0.0486239 102.978 65.3541
20442 2 1.85821 103.014 62.8059
14758 1 6.40886 101.385 64.0495
14803 1 3.68179 102.996 64.081
20397 2 5.50486 102.978 65.3541
20416 2 4.58524 101.404 62.7747
14756 1 9.13802 102.996 64.081
20360 2 8.23182 101.368 65.3229
20363 2 10.0415 101.404 62.7747
20418 2 7.31445 103.014 62.8059
14788 1 0.954549 104.606 64.1119
20398 2 2.77774 104.588 65.3847
20432 2 0.0504828 106.198 65.4147
20443 2 1.85994 106.235 62.8662
14757 1 6.41079 104.606 64.1119
14786 1 3.68341 106.217 64.142
20400 2 5.50672 106.198 65.4147
20403 2 4.58726 104.625 62.8365
14759 1 9.13965 106.217 64.142
20353 2 8.23398 104.588 65.3847
20362 2 10.0435 104.625 62.8365
20401 2 7.31618 106.235 62.8662
14787 1 0.955924 107.827 64.1713
20384 2 2.77934 107.808 65.4439
20433 2 0.0518583 109.418 65.4721
20434 2 1.86123 109.455 62.923
14743 1 6.41216 107.827 64.1713
14789 1 3.68459 109.437 64.1995
20382 2 5.5081 109.418 65.4721
20402 2 4.58874 107.845 62.8951
14741 1 9.14082 109.437 64.1995
20352 2 8.23558 107.808 65.4439
20355 2 10.045 107.845 62.8951
20404 2 7.31746 109.455 62.923
14780 1 0.956949 111.046 64.2267
20383 2 2.78054 111.028 65.4994
20431 2 0.0529297 112.638 65.5255
20435 2 1.86226 112.673 62.9755
14742 1 6.41319 111.046 64.2267
14778 1 3.68551 112.656 64.2528
20385 2 5.50917 112.638 65.5255
20388 2 4.58988 111.064 62.9498
14744 1 9.14175 112.656 64.2528
20338 2 8.23678 111.028 65.4994
20354 2 10.0461 111.064 62.9498
20386 2 7.31849 112.673 62.9755
14798 1 1.8662 96.5232 66.5062
20011 2 0.958996 94.8977 67.7474
14797 1 0.055138 96.4926 69.0652
14352 1 2.78145 94.8858 69.0349
20411 2 3.68903 96.5054 67.7777
14364 1 4.59246 94.9146 66.4752
19960 2 6.41523 94.8977 67.7474
14749 1 5.51138 96.4926 69.0652
14764 1 7.32244 96.5232 66.5062
20357 2 9.14527 96.5054 67.7777
14325 1 10.0487 94.9146 66.4752
14323 1 8.23769 94.8858 69.0349
14799 1 1.86936 99.7415 66.5692
20395 2 0.962657 98.1136 67.8086
14750 1 2.78491 98.1001 69.0959
14782 1 0.0582727 99.7082 69.127
14754 1 4.59599 98.1321 66.5376
20358 2 6.4189 98.1136 67.8086
20393 2 3.69236 99.7223 67.8398
14751 1 5.51451 99.7082 69.127
14706 1 10.0522 98.1321 66.5376
14752 1 7.3256 99.7415 66.5692
20359 2 9.14859 99.7223 67.8398
14703 1 8.24115 98.1001 69.0959
14784 1 1.87181 102.961 66.6322
20394 2 0.965658 101.332 67.8711
14735 1 2.78776 101.317 69.1583
14783 1 0.0608269 102.926 69.1895
14753 1 4.59879 101.351 66.6009
20350 2 6.4219 101.332 67.8711
20396 2 3.69504 102.941 67.9021
14733 1 5.51707 102.926 69.1895
14705 1 10.055 101.351 66.6009
14755 1 7.32805 102.961 66.6322
20348 2 9.15128 102.941 67.9021
14702 1 8.244 101.317 69.1583
14785 1 1.87362 106.181 66.6934
20380 2 0.968038 104.551 67.9328
14734 1 2.79002 104.536 69.2203
14774 1 0.0628126 106.146 69.2505
14739 1 4.60091 104.571 66.6631
20349 2 6.42428 104.551 67.9328
20378 2 3.69712 106.161 67.9629
14736 1 5.51905 106.146 69.2505
14704 1 10.0571 104.571 66.6631
14737 1 7.32986 106.181 66.6934
20351 2 9.15335 106.161 67.9629
14695 1 8.24626 104.536 69.2203
14776 1 1.87493 109.401 66.7513
20379 2 0.969817 107.772 67.9922
14738 1 4.60245 107.791 66.7228
20335 2 6.42606 107.772 67.9922
20381 2 3.69865 109.382 68.0206
14697 1 10.0587 107.791 66.7228
14740 1 7.33117 109.401 66.7513
20333 2 9.15489 109.382 68.0206
14777 1 1.87594 112.622 66.8052
20372 2 0.971157 110.993 68.048
14725 1 4.60358 111.012 66.7788
20334 2 6.4274 110.993 68.048
20370 2 3.69984 112.603 68.0744
14696 1 10.0598 111.012 66.7788
14723 1 7.33217 112.622 66.8052
20336 2 9.15608 112.603 68.0744
20391 2 1.87889 96.4707 70.326
14350 1 0.966524 94.8556 71.6133
14748 1 3.69626 96.4609 71.6429
14314 1 6.42276 94.8556 71.6133
19958 2 4.60517 94.8647 70.2962
14699 1 9.1525 96.4609 71.6429
20356 2 7.33513 96.4707 70.326
19928 2 10.0614 94.8647 70.2962
14731 1 0.969644 98.067 71.673
20392 2 1.88213 99.6852 70.387
14700 1 6.42588 98.067 71.673
14729 1 3.69916 99.6739 71.7035
20346 2 4.6087 98.0776 70.3564
14701 1 9.1554 99.6739 71.7035
20304 2 10.0649 98.0776 70.3564
20344 2 7.33837 99.6852 70.387
14730 1 0.972309 101.282 71.7339
20376 2 1.88488 102.903 70.4486
14692 1 6.42855 101.282 71.7339
14732 1 3.70148 102.89 71.7654
20345 2 4.61164 101.294 70.4179
14690 1 9.15772 102.89 71.7654
20303 2 10.0679 101.294 70.4179
20347 2 7.34112 102.903 70.4486
14717 1 0.974315 104.499 71.7962
20377 2 1.88706 106.123 70.5088
14691 1 6.43055 104.499 71.7962
14715 1 3.7033 106.109 71.8262
20331 2 4.61417 104.512 70.479
14693 1 9.15954 106.109 71.8262
20302 2 10.0704 104.512 70.479
20329 2 7.3433 106.123 70.5088
14716 1 0.975955 107.72 71.8555
14721 1 2.79171 107.756 69.28
14775 1 0.0642784 109.366 69.3085
20368 2 1.88873 109.345 70.5663
14681 1 6.43219 107.72 71.8555
14718 1 3.70477 109.331 71.8839
14719 1 5.52052 109.366 69.3085
20330 2 4.61607 107.733 70.538
14679 1 9.16101 109.331 71.8839
14694 1 8.24795 107.756 69.28
20296 2 10.0723 107.733 70.538
20332 2 7.34496 109.345 70.5663
14711 1 0.977284 110.942 71.9113
14720 1 2.793 110.977 69.3361
14773 1 0.0654368 112.588 69.3626
20369 2 1.89006 112.568 70.62
14680 1 6.43352 110.942 71.9113
14709 1 3.706 112.554 71.9378
14722 1 5.52168 112.588 69.3626
20319 2 4.61754 110.956 70.5937
14682 1 9.16224 112.554 71.9378
14684 1 8.24924 110.977 69.3361
20295 2 10.0738 110.956 70.5937
20317 2 7.3463 112.568 70.62
14727 1 1.8343 96.4369 74.2997
20390 2 0.0670714 96.4336 72.8619
19946 2 0.959789 94.8017 75.3163
19948 2 2.79342 94.829 72.8326
20340 2 3.68895 96.4052 75.3449
20341 2 5.52331 96.4336 72.8619
14312 1 4.56262 94.8327 74.2703
19921 2 6.41603 94.8017 75.3163
14698 1 7.29054 96.4369 74.2997
20297 2 9.14519 96.4052 75.3449
14305 1 10.0189 94.8327 74.2703
19926 2 8.24966 94.829 72.8326
14728 1 1.83386 99.6479 74.3602
20323 2 0.961792 98.0101 75.3741
20342 2 2.79684 98.0393 72.8918
20374 2 0.0702269 99.6462 72.9221
14688 1 4.5622 98.0419 74.3298
20298 2 6.41803 98.0101 75.3741
20321 2 3.69083 99.6161 75.4037
20343 2 5.52647 99.6462 72.9221
14670 1 10.0184 98.0419 74.3298
14686 1 7.2901 99.6479 74.3602
20299 2 9.14706 99.6161 75.4037
20301 2 8.25308 98.0393 72.8918
14713 1 1.83325 102.862 74.4206
20322 2 0.9635 101.223 75.4335
20327 2 2.79966 101.254 72.9524
20375 2 0.072995 102.862 72.9825
14687 1 4.56185 101.254 74.3904
20291 2 6.41974 101.223 75.4335
20324 2 3.69242 102.832 75.4622
20325 2 5.52923 102.862 72.9825
14669 1 10.0181 101.254 74.3904
14689 1 7.28949 102.862 74.4206
20289 2 9.14866 102.832 75.4622
20300 2 8.2559 101.254 72.9524
14714 1 1.83269 106.081 74.4797
20311 2 0.964964 104.441 75.4909
20326 2 2.80232 104.472 73.0124
20366 2 0.0752143 106.083 73.0418
14677 1 4.56103 104.471 74.4504
20290 2 6.4212 104.441 75.4909
20309 2 3.69371 106.052 75.5195
20328 2 5.53145 106.083 73.0418
14668 1 10.0173 104.471 74.4504
14675 1 7.28893 106.081 74.4797
20292 2 9.14994 106.052 75.5195
20294 2 8.25855 104.472 73.0124
14707 1 1.83239 109.302 74.5365
20310 2 0.966159 107.663 75.5475
20315 2 2.80426 107.694 73.0706
20367 2 0.0769571 109.306 73.0986
14676 1 4.56062 107.691 74.5085
20284 2 6.4224 107.663 75.5475
20312 2 3.69479 109.276 75.575
20313 2 5.5332 109.306 73.0986
14667 1 10.0169 107.691 74.5085
14678 1 7.28863 109.302 74.5365
20282 2 9.15103 109.276 75.575
20293 2 8.2605 107.694 73.0706
14708 1 1.83243 112.525 74.5898
20307 2 0.967177 110.888 75.6017
20314 2 2.80582 110.918 73.1257
20365 2 0.0783923 112.531 73.1519
14673 1 4.56048 110.913 74.5637
20283 2 6.42342 110.888 75.6017
20305 2 3.69581 112.502 75.6275
20316 2 5.53463 112.531 73.1519
14666 1 10.0167 110.913 74.5637
14671 1 7.28867 112.525 74.5898
20285 2 9.15205 112.502 75.6275
20287 2 8.26206 110.918 73.1257
2495 1 1.81434 113.538 -2.5982
8769 2 0.911916 115.103 -1.13241
8777 2 2.72705 115.132 -3.63688
8784 2 0.000642233 113.561 -3.65931
2482 1 4.53954 115.11 -2.57539
8739 2 6.36815 115.103 -1.13241
8775 2 3.64113 113.531 -1.15526
8776 2 5.45688 113.561 -3.65931
2484 1 7.27058 113.538 -2.5982
2436 1 9.99578 115.11 -2.57539
8738 2 9.09737 113.531 -1.15526
8742 2 8.18329 115.132 -3.63688
2496 1 1.80864 116.682 -2.55323
8768 2 0.909745 118.245 -1.08869
8773 2 2.72381 118.273 -3.59392
2481 1 4.53414 118.253 -2.53178
8733 2 6.36598 118.245 -1.08869
8767 2 3.63894 116.674 -1.1102
8778 2 5.45352 116.703 -3.61506
2480 1 7.26488 116.682 -2.55323
2435 1 9.99038 118.253 -2.53178
8740 2 9.09518 116.674 -1.1102
8741 2 8.18005 118.273 -3.59392
12046 2 10.9098 116.703 -3.61506
2492 1 1.80355 119.823 -2.5111
8758 2 0.907639 121.385 -1.04807
8772 2 2.72082 121.411 -3.55392
8770 2 3.6368 119.815 -1.06797
2474 1 4.52937 121.393 -2.49125
8732 2 6.36388 121.385 -1.04807
8771 2 5.4504 119.842 -3.57352
2483 1 7.25979 119.823 -2.5111
2434 1 9.9856 121.393 -2.49125
8731 2 9.09304 119.815 -1.06797
8736 2 8.17706 121.411 -3.55392
12047 2 10.9066 119.842 -3.57352
2493 1 1.7991 122.962 -2.47228
8757 2 0.905637 124.524 -1.01095
8762 2 2.71812 124.548 -3.51731
8756 2 3.63474 122.955 -1.02905
2473 1 4.52522 124.531 -2.45422
8719 2 6.36188 124.524 -1.01095
8774 2 5.44755 122.98 -3.53517
2472 1 7.25533 122.962 -2.47228
2427 1 9.98146 124.531 -2.45422
8734 2 9.09098 122.955 -1.02905
8735 2 8.17436 124.548 -3.51731
12044 2 10.9038 122.98 -3.53517
2488 1 1.79525 126.1 -2.43711
8750 2 0.903779 127.661 -0.977614
8761 2 2.71571 127.683 -3.48438
8759 2 3.63281 126.093 -0.993795
2460 1 4.52167 127.668 -2.42097
8718 2 6.36002 127.661 -0.977614
8760 2 5.44499 126.115 -3.50037
2475 1 7.25149 126.1 -2.43711
2426 1 9.97791 127.668 -2.42097
8717 2 9.08905 126.093 -0.993795
8722 2 8.17194 127.683 -3.48438
12045 2 10.9012 126.115 -3.50037
2489 1 1.79199 129.236 -2.40582
8749 2 0.902099 130.798 -0.948254
8751 2 2.7136 130.816 -3.45534
8748 2 3.63103 129.23 -0.962428
2459 1 4.51868 130.804 -2.39168
8701 2 6.35834 130.798 -0.948254
8763 2 5.44273 129.25 -3.46936
2458 1 7.24823 129.236 -2.40582
2411 1 9.97492 130.804 -2.39168
8720 2 9.08727 129.23 -0.962428
8721 2 8.16984 130.816 -3.45534
12043 2 10.899 129.25 -3.46936
2478 1 2.72917 115.084 0.0895948
2494 1 0.00246646 113.512 0.066592
8765 2 1.82196 113.499 1.39775
2477 1 5.4587 113.512 0.066592
8729 2 4.54879 115.072 1.42086
2433 1 8.18541 115.084 0.0895948
8676 2 10.005 115.072 1.42086
8737 2 7.2782 113.499 1.39775
2470 1 2.72643 118.228 0.133575
8766 2 1.81939 116.644 1.44331
2479 1 5.4559 116.656 0.111947
8728 2 4.54626 118.215 1.46503
2432 1 8.18266 118.228 0.133575
8675 2 10.0025 118.215 1.46503
8727 2 7.27563 116.644 1.44331
5562 1 10.9121 116.656 0.111947
2469 1 2.72384 121.369 0.174414
8754 2 1.81692 119.786 1.48595
2468 1 5.45323 119.799 0.154415
8715 2 4.54385 121.357 1.50602
8730 2 7.27316 119.786 1.48595
2425 1 8.18007 121.369 0.174414
8674 2 10.0001 121.357 1.50602
5563 1 10.9095 119.799 0.154415
2456 1 2.72144 124.509 0.211709
8755 2 1.81458 122.928 1.5252
2471 1 5.45073 122.939 0.193524
8714 2 4.54159 124.498 1.54344
8713 2 7.27082 122.928 1.5252
2424 1 8.17768 124.509 0.211709
8667 2 9.99783 124.498 1.54344
5558 1 10.907 122.939 0.193524
2455 1 2.71927 127.648 0.24518
8746 2 1.81242 126.069 1.56072
2454 1 5.44844 126.079 0.228936
8700 2 4.53953 127.638 1.57701
8716 2 7.26866 126.069 1.56072
2410 1 8.1755 127.648 0.24518
8666 2 9.99577 127.638 1.57701
5559 1 10.9047 126.079 0.228936
2445 1 2.71734 130.786 0.274644
8747 2 1.81047 129.208 1.5923
2457 1 5.44639 129.217 0.260421
8699 2 4.53769 130.778 1.60655
8698 2 7.2667 129.208 1.5923
2409 1 8.17358 130.786 0.274644
8651 2 9.99393 130.778 1.60655
5557 1 10.9026 129.217 0.260421
2466 1 0.910734 115.055 2.68643
2462 1 1.82088 113.454 5.24486
8725 2 2.7293 115.042 3.98755
8764 2 0.0026593 113.469 3.96424
2430 1 6.36697 115.055 2.68643
2476 1 3.64029 113.482 2.66314
2418 1 4.54743 115.027 5.26831
8724 2 5.4589 113.469 3.96424
2429 1 9.09653 113.482 2.66314
2364 1 10.0037 115.027 5.26831
2428 1 7.27712 113.454 5.24486
8673 2 8.18554 115.042 3.98755
2465 1 0.90794 118.199 2.73091
2464 1 3.63744 116.627 2.70905
2463 1 1.81778 116.6 5.29105
8711 2 2.72645 118.187 4.03203
2422 1 6.36418 118.199 2.73091
2417 1 4.54441 118.173 5.31302
8726 2 5.45598 116.615 4.01017
2416 1 7.27402 116.6 5.29105
2431 1 9.09368 116.627 2.70905
2363 1 10.0006 118.173 5.31302
8672 2 8.18269 118.187 4.03203
12016 2 10.9122 116.615 4.01017
2452 1 0.905303 121.343 2.77215
2467 1 3.63472 119.771 2.75196
2448 1 1.81486 119.745 5.33414
8710 2 2.72376 121.331 4.07326
2421 1 6.36154 121.343 2.77215
2403 1 4.5416 121.318 5.35439
8709 2 5.4532 119.759 4.05308
2419 1 7.2711 119.745 5.33414
2420 1 9.09096 119.771 2.75196
2362 1 9.99784 121.318 5.35439
8665 2 8.18 121.331 4.07326
12017 2 10.9094 119.759 4.05308
2451 1 0.902865 124.485 2.80976
2450 1 3.63218 122.914 2.79143
2449 1 1.81216 122.89 5.37371
8696 2 2.72129 124.474 4.11085
2407 1 6.3591 124.485 2.80976
2402 1 4.53903 124.462 5.39207
8712 2 5.45062 122.903 4.09253
2401 1 7.2684 122.89 5.37371
2423 1 9.08841 122.914 2.79143
2355 1 9.99527 124.462 5.39207
8664 2 8.17753 124.474 4.11085
12008 2 10.9069 122.903 4.09253
2444 1 0.900659 127.627 2.84346
2453 1 3.62985 126.056 2.82711
2440 1 1.80973 126.034 5.40945
8695 2 2.71906 127.617 4.14454
2406 1 6.3569 127.627 2.84346
2388 1 4.53673 127.606 5.42581
8694 2 5.44826 126.046 4.12819
2404 1 7.26596 126.034 5.40945
2405 1 9.08609 126.056 2.82711
2354 1 9.99297 127.606 5.42581
8650 2 8.1753 127.617 4.14454
12009 2 10.9045 126.046 4.12819
2443 1 0.89871 130.767 2.8731
2442 1 3.62777 129.197 2.8588
2441 1 1.80757 129.178 5.44116
8685 2 2.7171 130.759 4.17415
2389 1 6.35495 130.767 2.8731
2387 1 4.53472 130.75 5.45546
8697 2 5.44617 129.188 4.15986
2386 1 7.26381 129.178 5.44116
2408 1 9.08401 129.197 2.8588
2340 1 9.99096 130.75 5.45546
8649 2 8.17334 130.759 4.17415
12007 2 10.9024 129.188 4.15986
2414 1 2.72738 115 7.84566
2461 1 0.00093676 113.427 7.82218
8703 2 1.8189 113.414 9.11074
8707 2 0.909297 115.014 6.55982
2413 1 5.45718 113.427 7.82218
8658 2 4.54532 114.987 9.13407
8670 2 6.36553 115.014 6.55982
8723 2 3.63902 113.441 6.53646
2361 1 8.18362 115 7.84566
8616 2 10.0016 114.987 9.13407
8668 2 7.27514 113.414 9.11074
8669 2 9.09526 113.441 6.53646
2399 1 2.7242 118.147 7.89034
8704 2 1.81557 116.561 9.15665
8706 2 0.906234 118.16 6.60433
8705 2 3.63586 116.587 6.58246
2415 1 5.45388 116.574 7.8684
8657 2 4.54213 118.135 9.17843
8662 2 6.36247 118.16 6.60433
8656 2 7.27181 116.561 9.15665
2360 1 8.18043 118.147 7.89034
8615 2 9.99837 118.135 9.17843
8671 2 9.0921 116.587 6.58246
5518 1 10.9101 116.574 7.8684
2398 1 2.72127 121.293 7.93162
8688 2 1.81252 119.708 9.19936
8692 2 0.9034 121.306 6.64551
8708 2 3.63291 119.733 6.62536
8689 2 1.80977 122.855 9.23851
2397 1 5.45082 119.72 7.91143
8643 2 4.53923 121.282 9.2194
8661 2 6.35964 121.306 6.64551
8659 2 7.26876 119.708 9.19936
8641 2 7.26601 122.855 9.23851
2353 1 8.17751 121.293 7.93162
8614 2 9.99546 121.282 9.2194
8660 2 9.08914 119.733 6.62536
5519 1 10.9071 119.72 7.91143
2384 1 2.71864 124.44 7.96917
8691 2 0.900829 124.451 6.68302
8690 2 3.6302 122.879 6.66474
2400 1 5.44804 122.867 7.95088
8647 2 6.35707 124.451 6.68302
2352 1 8.17488 124.44 7.96917
8663 2 9.08644 122.879 6.66474
5510 1 10.9043 122.867 7.95088
2383 1 2.71632 127.586 8.00277
8684 2 0.898541 127.596 6.71661
8693 2 3.62777 126.024 6.70031
2382 1 5.44556 126.013 7.98647
8646 2 6.35478 127.596 6.71661
2339 1 8.17256 127.586 8.00277
8645 2 9.08401 126.024 6.70031
5511 1 10.9018 126.013 7.98647
2373 1 2.7143 130.732 8.03228
8683 2 0.896546 130.741 6.74613
8682 2 3.62563 129.169 6.73189
2385 1 5.44339 129.159 8.01804
8632 2 6.35278 130.741 6.74613
2797 1 5.44153 132.305 8.04547
2338 1 8.17054 130.732 8.03228
8648 2 9.08186 129.169 6.73189
5509 1 10.8996 129.159 8.01804
5917 1 10.8978 132.305 8.04547
2395 1 0.907023 114.974 10.4218
8654 2 2.72483 114.961 11.7093
2393 1 3.63347 116.548 10.4444
2358 1 6.36326 114.974 10.4218
8655 2 5.45129 116.535 11.7317
8613 2 8.18107 114.961 11.7093
2359 1 9.08971 116.548 10.4444
11950 2 10.9075 116.535 11.7317
2394 1 0.903753 118.122 10.4662
8639 2 2.7216 118.109 11.7533
2396 1 3.63036 119.696 10.4872
2350 1 6.35999 118.122 10.4662
8637 2 5.44823 119.683 11.774
8612 2 8.17784 118.109 11.7533
2348 1 9.0866 119.696 10.4872
11951 2 10.9045 119.683 11.774
2380 1 0.900807 121.27 10.5072
8638 2 2.71872 121.258 11.7938
2378 1 3.62758 122.844 10.5263
2349 1 6.35705 121.27 10.5072
8640 2 5.44553 122.833 11.8127
8606 2 8.17496 121.258 11.7938
2351 1 9.08382 122.844 10.5263
11942 2 10.9018 122.833 11.8127
2379 1 0.898197 124.418 10.5444
8627 2 2.71619 124.407 11.8307
2381 1 3.62514 125.992 10.5616
8680 2 1.80733 126.003 9.27384
8642 2 4.53663 124.429 9.25667
2336 1 6.35443 124.418 10.5444
8625 2 5.44317 125.982 11.8477
8644 2 7.26357 126.003 9.27384
8608 2 9.99287 124.429 9.25667
8605 2 8.17242 124.407 11.8307
2334 1 9.08138 125.992 10.5616
11943 2 10.8994 125.982 11.8477
2372 1 0.895922 127.567 10.5777
8626 2 2.71399 127.557 11.8637
8681 2 1.80521 129.15 9.30519
2370 1 3.62303 129.141 10.5929
8631 2 4.53435 127.576 9.29003
2335 1 6.35216 127.567 10.5777
8629 2 7.26145 129.15 9.30519
8628 2 5.44114 129.132 11.8787
8607 2 9.99059 127.576 9.29003
8599 2 8.17023 127.557 11.8637
2337 1 9.07927 129.141 10.5929
11941 2 10.8974 129.132 11.8787
2371 1 0.893973 130.715 10.607
8620 2 2.71213 130.707 11.8927
9111 2 1.8034 132.298 9.33245
2796 1 3.62124 132.29 10.62
8630 2 4.53239 130.724 9.31934
2325 1 6.35021 130.715 10.607
9076 2 7.25964 132.298 9.33245
9061 2 5.43943 132.282 11.9056
8600 2 9.98863 130.724 9.31934
8598 2 8.16837 130.707 11.8927
2741 1 9.07747 132.29 10.62
12374 2 10.8957 132.282 11.9056
2342 1 2.72159 114.921 15.574
8635 2 0.90403 114.934 14.285
2392 1 1.81279 116.522 13.0202
8633 2 3.63051 116.509 14.3071
2346 1 4.54259 114.948 12.9978
8610 2 6.36027 114.934 14.285
2343 1 5.44809 116.496 15.596
2344 1 7.26903 116.522 13.0202
2313 1 8.17783 114.921 15.574
2316 1 9.99883 114.948 12.9978
5446 1 10.9043 116.496 15.596
8611 2 9.08675 116.509 14.3071
2328 1 2.71846 118.071 15.6172
8634 2 0.900864 118.084 14.3285
2376 1 1.80973 119.671 13.0625
8636 2 3.62755 119.659 14.3489
2345 1 4.53933 118.096 13.0418
8603 2 6.3571 118.084 14.3285
2326 1 5.44519 119.646 15.6376
2347 1 7.26597 119.671 13.0625
5447 1 10.9014 119.646 15.6376
2312 1 8.1747 118.071 15.6172
2315 1 9.99557 118.096 13.0418
8601 2 9.08379 119.659 14.3489
8621 2 3.62499 122.81 14.3871
2327 1 2.71577 121.222 15.657
8623 2 0.898106 121.234 14.3684
2377 1 1.80705 122.821 13.1011
2330 1 7.26328 122.821 13.1011
2332 1 4.53646 121.246 13.0822
8602 2 6.35434 121.234 14.3684
2329 1 5.4427 122.798 15.6755
8604 2 9.08123 122.81 14.3871
5438 1 10.8989 122.798 15.6755
2309 1 8.17201 121.222 15.657
2314 1 9.9927 121.246 13.0822
8624 2 3.6228 125.962 14.4215
2368 1 1.80473 125.972 13.1359
2320 1 2.71349 124.375 15.693
8622 2 0.895732 124.386 14.4047
2333 1 7.26097 125.972 13.1359
2318 1 5.4406 125.951 15.7096
8596 2 6.35197 124.386 14.4047
2331 1 4.53396 124.396 13.1189
8594 2 9.07904 125.962 14.4215
2311 1 9.9902 124.396 13.1189
2308 1 8.16973 124.375 15.693
5439 1 10.8968 125.951 15.7096
8617 2 3.62094 129.114 14.452
2369 1 1.80275 129.123 13.1667
8619 2 0.89371 127.538 14.4372
2319 1 2.71156 127.528 15.7253
2322 1 7.25899 129.123 13.1667
2321 1 5.43883 129.105 15.74
8595 2 6.34995 127.538 14.4372
2324 1 4.53182 127.547 13.1518
8597 2 9.07718 129.114 14.452
2310 1 9.98806 127.547 13.1518
2306 1 8.1678 127.528 15.7253
5437 1 10.8951 129.105 15.74
8618 2 0.892009 130.69 14.4658
2317 1 2.70995 130.682 15.7536
2775 1 1.80109 132.274 13.1935
9060 2 3.61939 132.267 14.4785
2725 1 5.43737 132.259 15.7663
2740 1 7.25733 132.274 13.1935
2323 1 4.53 130.699 13.1806
8593 2 6.34825 130.69 14.4658
9017 2 9.07563 132.267 14.4785
5846 1 10.8936 132.259 15.7663
2305 1 8.16618 130.682 15.7536
2307 1 9.98624 130.699 13.1806
2686 1 0.900298 114.893 18.1503
8976 2 1.8095 116.482 16.8828
2684 1 3.62692 116.469 18.1719
8962 2 4.53916 114.907 16.861
2663 1 6.35654 114.893 18.1503
8960 2 7.26574 116.482 16.8828
8916 2 9.9954 114.907 16.861
2664 1 9.08316 116.469 18.1719
2685 1 0.897431 118.045 18.1926
8972 2 1.80675 119.634 16.9238
2687 1 3.6243 119.621 18.2125
8961 2 4.53619 118.058 16.9037
2659 1 6.35367 118.045 18.1926
8963 2 7.26299 119.634 16.9238
8915 2 9.99243 118.058 16.9037
2657 1 9.08054 119.621 18.2125
2679 1 0.89504 121.198 18.2315
8973 2 1.80444 122.787 16.9612
2677 1 3.62212 122.775 18.2496
8954 2 4.53366 121.21 16.9429
2658 1 6.35128 121.198 18.2315
8952 2 7.26068 122.787 16.9612
8914 2 9.9899 121.21 16.9429
2660 1 9.07836 122.775 18.2496
2678 1 0.893057 124.353 18.2667
8968 2 1.8025 125.941 16.9949
2680 1 3.62032 125.931 18.283
8953 2 4.53154 124.364 16.9785
2647 1 6.3493 124.353 18.2667
8955 2 7.25873 125.941 16.9949
8907 2 9.98778 124.364 16.9785
2645 1 9.07656 125.931 18.283
2672 1 0.891419 127.509 18.2983
8969 2 1.80088 129.096 17.0249
2670 1 3.61883 129.087 18.3126
2646 1 6.34766 127.509 18.2983
8940 2 4.52977 127.519 17.0104
8938 2 7.25712 129.096 17.0249
8906 2 9.98601 127.519 17.0104
2648 1 9.07507 129.087 18.3126
2671 1 0.890074 130.665 18.3261
9383 2 1.79955 132.252 17.0509
3072 1 3.61762 132.244 18.3385
2629 1 6.34631 130.665 18.3261
8939 2 4.5283 130.674 17.0384
9372 2 7.25578 132.252 17.0509
8891 2 9.98454 130.674 17.0384
3046 1 9.07386 132.244 18.3385
8958 2 2.71781 114.878 19.4372
8946 2 0.896303 114.849 22.0131
2683 1 1.8056 116.441 20.7475
8944 2 3.62326 116.426 22.0338
8959 2 5.44454 116.455 19.4584
2655 1 4.53502 114.864 20.7265
8910 2 6.35254 114.849 22.0131
2653 1 7.26184 116.441 20.7475
8913 2 8.17405 114.878 19.4372
2604 1 9.99126 114.864 20.7265
8911 2 9.0795 116.426 22.0338
12234 2 10.9008 116.455 19.4584
8950 2 2.71516 118.031 19.4789
8945 2 0.89411 118.004 22.0537
2675 1 1.80339 119.596 20.7871
8947 2 3.62132 119.582 22.0727
8948 2 5.44213 119.609 19.4985
2654 1 4.53256 118.018 20.7677
8902 2 6.35035 118.004 22.0537
2656 1 7.25963 119.596 20.7871
8912 2 8.17139 118.031 19.4789
2603 1 9.98879 118.018 20.7677
8900 2 9.07755 119.582 22.0727
12235 2 10.8984 119.609 19.4985
8949 2 2.71298 121.186 19.5172
8932 2 0.892387 121.161 22.0909
2676 1 1.80162 122.752 20.8232
8930 2 3.61979 122.74 22.1083
8951 2 5.44016 122.764 19.535
2643 1 4.53058 121.174 20.8056
8901 2 6.34863 121.161 22.0909
2641 1 7.25786 122.752 20.8232
8905 2 8.16922 121.186 19.5172
2602 1 9.98681 121.174 20.8056
8903 2 9.07603 122.74 22.1083
12230 2 10.8964 122.764 19.535
8936 2 2.7112 124.342 19.5519
8931 2 0.891029 124.32 22.1248
2668 1 1.80019 125.91 20.8558
8933 2 3.61858 125.9 22.1404
8934 2 5.43855 125.921 19.5679
2642 1 4.52899 124.331 20.8399
8887 2 6.34727 124.32 22.1248
2644 1 7.25643 125.91 20.8558
8904 2 8.16744 124.342 19.5519
2595 1 9.98522 124.331 20.8399
8885 2 9.07482 125.9 22.1404
12231 2 10.8948 125.921 19.5679
8935 2 2.70975 127.499 19.5831
8924 2 0.889956 127.48 22.1551
2669 1 1.79905 129.069 20.8847
8922 2 3.61762 129.06 22.169
8937 2 5.43724 129.078 19.5972
2628 1 4.52771 127.49 20.8707
8886 2 6.34619 127.48 22.1551
2626 1 7.25529 129.069 20.8847
8890 2 8.16598 127.499 19.5831
2594 1 9.98395 127.49 20.8707
8888 2 9.07386 129.06 22.169
12229 2 10.8935 129.078 19.5972
8925 2 2.70856 130.657 19.6105
8923 2 0.889103 130.641 22.1819
3066 1 1.79813 132.229 20.91
9364 2 3.61686 132.221 22.1939
2627 1 4.52668 130.649 20.8978
8869 2 6.34534 130.641 22.1819
9365 2 5.43618 132.237 19.6228
3045 1 7.25437 132.229 20.91
8889 2 8.1648 130.657 19.6105
2579 1 9.98292 130.649 20.8978
9317 2 9.0731 132.221 22.1939
12646 2 10.8924 132.237 19.6228
2635 1 0.891894 114.802 25.8774
2651 1 2.71341 114.833 23.3023
8943 2 1.80205 116.396 24.6085
2633 1 3.61932 116.381 25.8971
2598 1 6.34813 114.802 25.8774
8898 2 4.53104 114.818 24.5884
2652 1 5.4405 116.411 23.3227
8896 2 7.25829 116.396 24.6085
2601 1 8.16965 114.833 23.3023
8844 2 9.98728 114.818 24.5884
2599 1 9.07556 116.381 25.8971
5745 1 10.8967 116.411 23.3227
2634 1 0.890625 117.961 25.9161
2639 1 2.71149 117.99 23.3423
8928 2 1.80068 119.556 24.6463
2590 1 6.34686 117.961 25.9161
8897 2 4.52943 117.976 24.6278
2637 1 5.43882 119.569 23.3611
8899 2 7.25692 119.556 24.6463
2600 1 8.16772 117.99 23.3423
8843 2 9.98567 117.976 24.6278
5746 1 10.8951 119.569 23.3611
2638 1 2.71002 121.149 23.379
8929 2 1.79966 122.716 24.6808
8883 2 4.52825 121.136 24.664
2640 1 5.43754 122.728 23.3962
8881 2 7.2559 122.716 24.6808
2593 1 8.16626 121.149 23.379
8842 2 9.98449 121.136 24.664
5738 1 10.8938 122.728 23.3962
2624 1 2.7089 124.309 23.4124
8920 2 1.79891 125.879 24.7121
8882 2 4.52738 124.297 24.6969
2622 1 5.43656 125.889 23.4279
8884 2 7.25515 125.879 24.7121
2592 1 8.16514 124.309 23.4124
8835 2 9.98362 124.297 24.6969
5739 1 10.8928 125.889 23.4279
2623 1 2.70803 127.47 23.4424
8921 2 1.79834 129.042 24.7399
8868 2 4.52672 127.46 24.7264
2625 1 5.43579 129.051 23.4561
8866 2 7.25458 129.042 24.7399
2578 1 8.16427 127.47 23.4424
8834 2 9.98296 127.46 24.7264
5737 1 10.892 129.051 23.4561
2613 1 2.70736 130.632 23.4689
9350 2 1.79791 132.206 24.7643
8867 2 4.52623 130.624 24.7526
3034 1 5.4352 132.214 23.4808
9316 2 7.25415 132.206 24.7643
2577 1 8.1636 130.632 23.4689
8820 2 9.98247 130.624 24.7526
6137 1 10.8914 132.214 23.4808
8894 2 2.70974 114.785 27.1629
2632 1 1.7985 116.349 28.4704
2586 1 4.52693 114.768 28.4513
8895 2 5.43735 116.365 27.1823
2584 1 7.25474 116.349 28.4704
12190 2 10.8936 116.365 27.1823
2538 1 9.98317 114.768 28.4513
8841 2 8.16598 114.785 27.1629
2636 1 3.61827 119.542 25.9343
8879 2 2.70882 117.946 27.2009
2616 1 1.79813 119.514 28.5063
2585 1 4.5264 117.931 28.4887
8877 2 5.43661 119.528 27.2189
2587 1 7.25437 119.514 28.5063
12191 2 10.8929 119.528 27.2189
2588 1 9.0745 119.542 25.9343
2537 1 9.98264 117.931 28.4887
8840 2 8.16506 117.946 27.2009
2620 1 0.889749 121.123 25.9517
2618 1 3.61754 122.704 25.9683
8878 2 2.70824 121.11 27.236
2617 1 1.79799 122.679 28.5394
2589 1 6.34599 121.123 25.9517
2571 1 4.52616 121.096 28.5232
8880 2 5.43616 122.692 27.2524
2569 1 7.25423 122.679 28.5394
12182 2 10.8924 122.692 27.2524
2591 1 9.07378 122.704 25.9683
2536 1 9.9824 121.096 28.5232
8833 2 8.16448 121.11 27.236
2619 1 0.889144 124.286 25.9841
2621 1 3.61703 125.868 25.9991
8864 2 2.70788 124.274 27.268
2608 1 1.79798 125.846 28.5694
2575 1 6.34538 124.286 25.9841
2570 1 4.52609 124.263 28.5548
8862 2 5.43588 125.857 27.2828
2572 1 7.25421 125.846 28.5694
12183 2 10.8921 125.857 27.2828
2573 1 9.07327 125.868 25.9991
2529 1 9.98233 124.263 28.5548
8832 2 8.16412 124.274 27.268
2612 1 0.888722 127.45 26.0133
2610 1 3.61668 129.033 26.0267
8863 2 2.70767 127.44 27.2968
2609 1 1.79803 129.015 28.5963
2574 1 6.34496 127.45 26.0133
2557 1 4.52612 127.43 28.5833
8865 2 5.43572 129.024 27.31
2555 1 7.25427 129.015 28.5963
12181 2 10.892 129.024 27.31
2576 1 9.07292 129.033 26.0267
2528 1 9.98236 127.43 28.5833
8819 2 8.16391 127.44 27.2968
2611 1 0.888422 130.616 26.0392
8853 2 2.70754 130.607 27.3224
3033 1 3.61642 132.199 26.0508
3015 1 1.79811 132.183 28.6199
2558 1 6.34466 130.616 26.0392
2556 1 4.52619 130.599 28.6085
9301 2 5.43562 132.191 27.3339
2980 1 7.25435 132.183 28.6199
2517 1 9.98243 130.599 28.6085
8818 2 8.16378 130.607 27.3224
2981 1 9.07266 132.199 26.0508
12613 2 10.8919 132.191 27.3339
2582 1 2.70631 114.733 31.0236
8875 2 0.888899 114.751 29.7359
8872 2 1.79713 116.3 32.3255
8873 2 3.61689 116.333 29.7547
8826 2 4.525 114.716 32.3072
8838 2 6.34514 114.751 29.7359
2583 1 5.43452 116.317 31.0421
8824 2 7.25336 116.3 32.3255
5686 1 10.8908 116.317 31.0421
2535 1 8.16255 114.733 31.0236
8796 2 9.98124 114.716 32.3072
8839 2 9.07312 116.333 29.7547
2567 1 2.70654 117.901 31.0599
8874 2 0.888708 117.916 29.7728
8856 2 1.79772 119.47 32.3601
8876 2 3.61683 119.499 29.7902
8825 2 4.52553 117.885 32.3431
8830 2 6.34495 117.916 29.7728
2565 1 5.43484 119.485 31.077
8827 2 7.25396 119.47 32.3601
5687 1 10.8911 119.485 31.077
2534 1 8.16278 117.901 31.0599
8795 2 9.98177 117.885 32.3431
8828 2 9.07306 119.499 29.7902
2566 1 2.70693 121.069 31.0935
8860 2 0.888747 121.083 29.8069
8857 2 1.79837 122.641 32.392
8858 2 3.61694 122.667 29.8229
8812 2 4.52616 121.056 32.3764
8829 2 6.34499 121.083 29.8069
2568 1 5.43527 122.654 31.1092
8810 2 7.25461 122.641 32.392
5678 1 10.8915 122.654 31.1092
2527 1 8.16317 121.069 31.0935
8794 2 9.9824 121.056 32.3764
8831 2 9.07318 122.667 29.8229
2553 1 2.70738 124.239 31.1243
8859 2 0.88891 124.251 29.8381
8848 2 1.79901 125.814 32.4211
8861 2 3.61714 125.836 29.8526
8811 2 4.52681 124.227 32.4069
8816 2 6.34515 124.251 29.8381
2551 1 5.43573 125.825 31.1386
8813 2 7.25525 125.814 32.4211
5679 1 10.892 125.825 31.1386
2526 1 8.16362 124.239 31.1243
8791 2 9.98305 124.227 32.4069
8814 2 9.07337 125.836 29.8526
2552 1 2.70784 127.41 31.1521
8852 2 0.88913 127.42 29.8662
8849 2 1.7996 128.987 32.4471
8850 2 3.61737 129.005 29.8791
8804 2 4.52743 127.4 32.4345
8815 2 6.34537 127.42 29.8662
2554 1 5.43617 128.996 31.1649
8802 2 7.25584 128.987 32.4471
5677 1 10.8924 128.996 31.1649
2516 1 8.16407 127.41 31.1521
8790 2 9.98367 127.4 32.4345
8817 2 9.0736 129.005 29.8791
2544 1 2.70826 130.582 31.1768
8851 2 0.889361 130.591 29.8912
9279 2 1.80012 132.16 32.4701
9300 2 3.61759 132.176 29.9025
8803 2 4.52799 130.573 32.459
8805 2 6.3456 130.591 29.8912
2965 1 5.43657 132.168 31.188
9244 2 7.25636 132.16 32.4701
2515 1 8.1645 130.582 31.1768
8787 2 9.98423 130.573 32.459
6086 1 10.8928 132.168 31.188
9245 2 9.07383 132.176 29.9025
2563 1 0.886528 114.697 33.594
8822 2 2.7058 114.679 34.8764
2561 1 3.61511 116.283 33.612
2532 1 6.34277 114.697 33.594
8823 2 5.43451 116.266 34.8943
12118 2 10.8908 116.266 34.8943
8793 2 8.16204 114.679 34.8764
2533 1 9.07135 116.283 33.612
2564 1 3.61608 119.455 33.6461
2562 1 0.887476 117.869 33.6293
8808 2 2.70699 117.853 34.9115
8806 2 5.43569 119.44 34.9282
2524 1 6.34371 117.869 33.6293
12119 2 10.8919 119.44 34.9282
2522 1 9.07232 119.455 33.6461
8792 2 8.16323 117.853 34.9115
2547 1 3.61703 122.628 33.6776
2549 1 0.888444 121.042 33.6622
8807 2 2.70814 121.028 34.9442
8809 2 5.43681 122.615 34.9596
2523 1 6.34468 121.042 33.6622
12110 2 10.8931 122.615 34.9596
2525 1 9.07327 122.628 33.6776
8789 2 8.16438 121.028 34.9442
2550 1 3.61792 125.803 33.7064
8800 2 2.70922 124.203 34.9743
2548 1 0.889367 124.215 33.6924
8798 2 5.43784 125.791 34.9882
2513 1 6.34561 124.215 33.6924
12111 2 10.8941 125.791 34.9882
2511 1 9.07416 125.803 33.7064
8788 2 8.16546 124.203 34.9743
2541 1 3.61871 128.977 33.7323
8799 2 2.71018 127.38 35.0015
2543 1 0.890207 127.39 33.7198
8801 2 5.43874 128.968 35.014
2512 1 6.34645 127.39 33.7198
2514 1 9.07495 128.977 33.7323
8786 2 8.16642 127.38 35.0015
12109 2 10.895 128.968 35.014
8797 2 2.71102 130.556 35.0257
2542 1 0.890941 130.565 33.7441
2964 1 3.61938 132.153 33.7551
2506 1 6.34718 130.565 33.7441
9229 2 5.43951 132.145 35.0367
8785 2 8.16726 130.556 35.0257
12542 2 10.8957 132.145 35.0367
2915 1 9.07562 132.153 33.7551
8998 2 0.887758 114.642 37.4432
14631 1 2.70659 114.623 38.7277
2560 1 1.79673 116.249 36.1798
8996 2 3.61674 116.231 37.4609
8987 2 6.344 114.642 37.4432
2520 1 4.52405 114.661 36.1621
15016 1 5.43574 116.214 38.7453
2518 1 7.25296 116.249 36.1798
2502 1 9.98029 114.661 36.1621
14601 1 8.16283 114.623 38.7277
8988 2 9.07298 116.231 37.4609
17844 1 10.892 116.214 38.7453
8997 2 0.889462 117.821 37.478
15017 1 2.7086 117.804 38.7623
2545 1 1.79824 119.425 36.2134
8999 2 3.61839 119.41 37.4945
8984 2 6.3457 117.821 37.478
2519 1 4.52561 117.837 36.1969
15018 1 5.43765 119.395 38.7787
2521 1 7.25448 119.425 36.2134
14982 1 8.16484 117.804 38.7623
2501 1 9.98185 117.837 36.1969
8982 2 9.07462 119.41 37.4945
17842 1 10.8939 119.395 38.7787
8994 2 0.891033 121 37.5104
15013 1 2.71042 120.985 38.7945
2546 1 1.79963 122.602 36.2445
8992 2 3.61988 122.589 37.5256
8983 2 6.34727 121 37.5104
2509 1 4.52707 121.014 36.2293
15011 1 5.43936 122.576 38.8097
2507 1 7.25586 122.602 36.2445
14981 1 8.16665 120.985 38.7945
2500 1 9.98331 121.014 36.2293
8985 2 9.07612 122.589 37.5256
17843 1 10.8956 122.576 38.8097
8993 2 0.892444 124.179 37.5402
15012 1 2.71202 124.167 38.8242
2539 1 1.80086 125.78 36.273
8995 2 3.6212 125.769 37.554
8980 2 6.34868 124.179 37.5402
2508 1 4.52838 124.191 36.2591
15014 1 5.44086 125.758 38.838
2510 1 7.2571 125.78 36.273
14976 1 8.16826 124.167 38.8242
2499 1 9.98462 124.191 36.2591
8978 2 9.07744 125.769 37.554
17840 1 10.8971 125.758 38.838
8991 2 0.893682 127.359 37.5672
15002 1 2.71341 127.348 38.8511
2540 1 1.80194 128.958 36.2985
8989 2 3.62235 128.949 37.5796
8979 2 6.34992 127.359 37.5672
15000 1 5.44215 128.939 38.8635
2505 1 4.52954 127.369 36.2861
2503 1 7.25817 128.958 36.2985
14975 1 8.16965 127.348 38.8511
2498 1 9.98578 127.369 36.2861
8981 2 9.07859 128.949 37.5796
17841 1 10.8984 128.939 38.8635
8990 2 0.894741 130.539 37.5912
15001 1 2.71459 130.53 38.8751
2943 1 1.80284 132.137 36.3211
9408 2 3.62332 132.129 37.6021
8977 2 6.35098 130.539 37.5912
15003 1 5.44323 132.121 38.8859
2504 1 4.53053 130.548 36.3102
2914 1 7.25908 132.137 36.3211
14962 1 8.17083 130.53 38.8751
2497 1 9.98677 130.548 36.3102
17839 1 10.8995 132.121 38.8859
9394 2 9.07956 132.129 37.6021
20639 2 1.80016 116.196 40.0252
14629 1 0.890462 114.586 41.2907
20229 2 2.71179 114.567 42.5692
15015 1 3.61975 116.178 41.3084
20621 2 5.44105 116.161 42.5872
14581 1 6.3467 114.586 41.2907
20243 2 4.52723 114.605 40.0075
20628 2 7.2564 116.196 40.0252
14978 1 9.07599 116.178 41.3084
20193 2 8.16803 114.567 42.5692
20195 2 9.98347 114.605 40.0075
23458 2 10.8973 116.161 42.5872
20640 2 1.80212 119.379 40.0589
15009 1 0.892745 117.771 41.3256
15007 1 3.62191 119.364 41.3421
20626 2 4.52929 117.788 40.0423
14979 1 6.34898 117.771 41.3256
20624 2 7.25836 119.379 40.0589
14980 1 9.07815 119.364 41.3421
20580 2 9.98552 117.788 40.0423
20636 2 1.80387 122.563 40.09
15008 1 0.894774 120.957 41.358
15010 1 3.62381 122.549 41.3733
20625 2 4.53114 120.971 40.0748
14973 1 6.35101 120.957 41.358
20627 2 7.26011 122.563 40.09
14971 1 9.08005 122.549 41.3733
20579 2 9.98738 120.971 40.0748
20637 2 1.8054 125.746 40.1184
14998 1 0.896553 124.142 41.3878
14996 1 3.62547 125.735 41.4017
20618 2 4.53278 124.154 40.1045
14972 1 6.35279 124.142 41.3878
20616 2 7.26164 125.746 40.1184
14974 1 9.08171 125.735 41.4017
20578 2 9.98902 124.154 40.1045
20632 2 1.80672 128.93 40.1439
14997 1 0.898088 127.327 41.4148
14999 1 3.62689 128.92 41.4272
20617 2 4.53421 127.338 40.1315
14959 1 6.35433 127.327 41.4148
20619 2 7.26296 128.93 40.1439
14957 1 9.08313 128.92 41.4272
20571 2 9.99045 127.338 40.1315
20633 2 1.80783 132.113 40.1663
14990 1 0.899391 130.513 41.4388
14988 1 3.62808 132.105 41.4496
14958 1 6.35563 130.513 41.4388
20604 2 4.53542 130.521 40.1555
20602 2 7.26407 132.113 40.1663
14960 1 9.08432 132.105 41.4496
20570 2 9.99166 130.521 40.1555
15005 1 1.80502 116.143 43.8693
20227 2 0.897641 114.529 45.1285
20620 2 3.6269 116.126 45.1469
14579 1 4.53193 114.548 43.8512
20174 2 6.35388 114.529 45.1285
14977 1 7.26126 116.143 43.8693
20573 2 9.08314 116.126 45.1469
14531 1 9.98816 114.548 43.8512
20622 2 2.71402 117.755 42.6045
15006 1 1.80725 119.333 43.9035
20610 2 0.899872 117.722 45.1647
20608 2 3.62902 119.318 45.1818
20623 2 5.44316 119.349 42.6213
14969 1 4.53429 117.738 43.8867
20574 2 6.35611 117.722 45.1647
14967 1 7.26349 119.333 43.9035
20577 2 8.17026 117.755 42.6045
14916 1 9.99053 117.738 43.8867
20575 2 9.08526 119.318 45.1818
23454 2 10.8994 119.349 42.6213
20614 2 2.71601 120.942 42.6373
14994 1 1.80922 122.523 43.9351
20609 2 0.901877 120.914 45.1981
20611 2 3.63091 122.509 45.2137
20612 2 5.44504 122.536 42.6527
14968 1 4.53639 120.928 43.9197
20566 2 6.35811 120.914 45.1981
14970 1 7.26546 122.523 43.9351
20576 2 8.17225 120.942 42.6373
14915 1 9.99262 120.928 43.9197
20564 2 9.08715 122.509 45.2137
23455 2 10.9013 122.536 42.6527
20613 2 2.71777 124.13 42.6674
14995 1 1.81094 125.712 43.9639
20596 2 0.903652 124.105 45.2286
20594 2 3.63257 125.7 45.2428
20615 2 5.44669 125.723 42.6813
14955 1 4.53823 124.117 43.9499
20565 2 6.35989 124.105 45.2286
14953 1 7.26717 125.712 43.9639
20569 2 8.17401 124.13 42.6674
14914 1 9.99447 124.117 43.9499
20567 2 9.08881 125.7 45.2428
23450 2 10.9029 125.723 42.6813
20600 2 2.7193 127.317 42.6945
14986 1 1.81241 128.901 43.9896
20595 2 0.905201 127.295 45.2561
20597 2 3.63401 128.891 45.2687
20598 2 5.4481 128.91 42.7069
14954 1 4.53982 127.306 43.9771
20551 2 6.36144 127.295 45.2561
14956 1 7.26865 128.901 43.9896
20568 2 8.17554 127.317 42.6945
14907 1 9.99606 127.306 43.9771
20549 2 9.09025 128.891 45.2687
23451 2 10.9043 128.91 42.7069
20599 2 2.7206 130.504 42.7186
14987 1 1.81365 132.089 44.0122
20588 2 0.906527 130.486 45.2805
20586 2 3.63523 132.081 45.2914
20601 2 5.44929 132.097 42.7295
14940 1 4.54118 130.495 44.0013
20550 2 6.36277 130.486 45.2805
14938 1 7.26989 132.089 44.0122
20554 2 8.17684 130.504 42.7186
14906 1 9.99741 130.495 44.0013
20552 2 9.09147 132.081 45.2914
23449 2 10.9055 132.097 42.7295
20606 2 1.81387 116.091 47.7046
14563 1 0.906074 114.473 48.9652
14565 1 2.71843 114.51 46.4092
14963 1 3.63525 116.073 48.9846
14964 1 5.44772 116.108 46.4279
14512 1 6.36231 114.473 48.9652
20172 2 4.54092 114.492 47.6855
20572 2 7.27011 116.091 47.7046
14909 1 9.09149 116.073 48.9846
14529 1 8.17467 114.51 46.4092
20133 2 9.99716 114.492 47.6855
17824 1 10.904 116.108 46.4279
14947 1 0.908136 117.673 49.0032
14965 1 2.7207 117.705 46.4459
20607 2 1.81587 119.287 47.7405
14945 1 3.63722 119.272 49.021
14910 1 6.36437 117.673 49.0032
14966 1 5.44987 119.302 46.4631
20562 2 4.54301 117.689 47.7229
20560 2 7.27211 119.287 47.7405
14911 1 9.09346 119.272 49.021
14913 1 8.17694 117.705 46.4459
20514 2 9.99925 117.689 47.7229
17812 1 10.9061 119.302 46.4631
14946 1 0.910012 120.87 49.038
14951 1 2.72274 120.899 46.4796
20592 2 1.81768 122.482 47.7733
14902 1 6.36625 120.87 49.038
14948 1 3.639 122.469 49.0542
14949 1 5.45179 122.496 46.4954
20561 2 4.54492 120.885 47.7573
20563 2 7.27391 122.482 47.7733
17813 1 10.908 122.496 46.4954
14900 1 9.09524 122.469 49.0542
14912 1 8.17898 120.899 46.4796
20513 2 10.0012 120.885 47.7573
14932 1 0.911694 124.067 49.0695
14950 1 2.72454 124.092 46.5104
20593 2 1.81928 125.677 47.8029
14901 1 6.36793 124.067 49.0695
14930 1 3.64058 125.665 49.0841
14952 1 5.45348 125.689 46.5246
20547 2 4.54662 124.08 47.7885
17804 1 10.9097 125.689 46.5246
14903 1 9.09682 125.665 49.0841
14905 1 8.18078 124.092 46.5104
20512 2 10.0029 124.08 47.7885
20545 2 7.27551 125.677 47.8029
14931 1 0.913178 127.263 49.0978
14936 1 2.72612 127.285 46.5381
20584 2 1.82067 128.871 47.8292
14887 1 6.36942 127.263 49.0978
14933 1 3.64197 128.861 49.1106
14934 1 5.45493 128.881 46.5507
20546 2 4.54812 127.274 47.8164
17805 1 10.9112 128.881 46.5507
14885 1 9.0982 128.861 49.1106
14904 1 8.18235 127.285 46.5381
20505 2 10.0044 127.274 47.8164
20548 2 7.27691 128.871 47.8292
14924 1 0.914466 130.459 49.1227
14935 1 2.72746 130.477 46.5626
20585 2 1.82187 132.065 47.8522
14886 1 6.3707 130.459 49.1227
14922 1 3.64316 132.057 49.1338
14937 1 5.45617 132.073 46.5736
20533 2 4.54942 130.468 47.8411
17803 1 10.9124 132.073 46.5736
14888 1 9.09939 132.057 49.1338
14890 1 8.1837 130.477 46.5626
20504 2 10.0057 130.468 47.8411
20531 2 7.27811 132.065 47.8522
14943 1 1.8237 116.039 51.5396
20605 2 0.0018156 116.056 50.2605
20160 2 2.72898 114.455 50.2407
20557 2 5.45805 116.056 50.2605
14510 1 4.55091 114.437 51.5194
14908 1 7.27993 116.039 51.5396
14480 1 10.0072 114.437 51.5194
20131 2 8.18522 114.455 50.2407
14944 1 1.82541 119.241 51.5773
20558 2 2.73085 117.656 50.2795
20590 2 0.0036149 119.256 50.2976
14898 1 4.55269 117.64 51.5589
20559 2 5.45985 119.256 50.2976
14856 1 10.0089 117.64 51.5589
14896 1 7.28165 119.241 51.5773
20511 2 8.18709 117.656 50.2795
14928 1 1.82699 122.442 51.6116
20543 2 2.73258 120.856 50.3149
20591 2 0.00526189 122.455 50.3313
14897 1 4.55434 120.842 51.5949
20541 2 5.4615 122.455 50.3313
14855 1 10.0106 120.842 51.5949
14899 1 7.28323 122.442 51.6116
20510 2 8.18882 120.856 50.3149
14929 1 1.82842 125.642 51.6423
20542 2 2.73414 124.055 50.3469
20582 2 0.00674523 125.654 50.3616
14883 1 4.55585 124.042 51.6274
20544 2 5.46298 125.654 50.3616
14854 1 10.0121 124.042 51.6274
14881 1 7.28466 125.642 51.6423
20503 2 8.19038 124.055 50.3469
14920 1 1.8297 128.841 51.6694
20529 2 2.73554 127.253 50.3755
20583 2 0.00805786 128.851 50.3885
14882 1 4.5572 127.242 51.6563
20527 2 5.4643 128.851 50.3885
14848 1 10.0134 127.242 51.6563
14884 1 7.28594 128.841 51.6694
20502 2 8.19178 127.253 50.3755
14921 1 1.83081 132.04 51.693
20528 2 2.73677 130.45 50.4006
20581 2 0.0091956 132.049 50.4119
14871 1 4.5584 130.441 51.6816
20530 2 5.46543 132.049 50.4119
14847 1 10.0146 130.441 51.6816
14869 1 7.28705 132.04 51.693
20492 2 8.19301 130.45 50.4006
14942 1 0.0128892 116.005 54.0933
20535 2 1.83623 115.988 55.3681
14500 1 2.74027 114.401 54.0722
20158 2 0.917887 114.419 52.7942
14893 1 5.46913 116.005 54.0933
20556 2 3.64682 116.022 52.8149
20120 2 4.56368 114.384 55.3466
20122 2 6.37413 114.419 52.7942
20506 2 7.29247 115.988 55.3681
20507 2 9.10306 116.022 52.8149
14478 1 8.1965 114.401 54.0722
20113 2 10.0199 114.384 55.3466
14894 1 2.74174 117.608 54.1133
14926 1 0.0143252 119.211 54.1324
20536 2 1.83754 119.196 55.4079
20539 2 0.919489 117.624 52.8346
14895 1 5.47056 119.211 54.1324
20496 2 4.56501 117.592 55.3885
20508 2 6.37573 117.624 52.8346
20537 2 3.64837 119.226 52.8533
14853 1 8.19797 117.608 54.1133
20478 2 10.0213 117.592 55.3885
20494 2 7.29378 119.196 55.4079
20509 2 9.10461 119.226 52.8533
14879 1 2.74313 120.813 54.1506
14927 1 0.0156813 122.415 54.1678
20521 2 1.83879 122.402 55.4438
20538 2 0.920994 120.827 52.8712
14877 1 5.47192 122.415 54.1678
20495 2 4.5663 120.799 55.4264
20500 2 6.37723 120.827 52.8712
20540 2 3.64982 122.429 52.8881
14852 1 8.19937 120.813 54.1506
20477 2 10.0225 120.799 55.4264
20497 2 7.29503 122.402 55.4438
20498 2 9.10606 122.429 52.8881
14878 1 2.74444 124.017 54.184
14918 1 0.016941 125.619 54.1993
20522 2 1.83996 125.607 55.4758
20525 2 0.922387 124.029 52.9041
14880 1 5.47318 125.619 54.1993
20485 2 4.56751 124.004 55.4603
20499 2 6.37863 124.029 52.9041
20523 2 3.65116 125.63 52.9192
14846 1 8.20068 124.017 54.184
20476 2 10.0237 124.004 55.4603
20483 2 7.2962 125.607 55.4758
20501 2 9.1074 125.63 52.9192
14867 1 2.74565 127.22 54.2136
14919 1 0.0180882 128.821 54.2271
20515 2 1.84105 128.811 55.5038
20524 2 0.923655 127.231 52.9334
20526 2 3.65236 128.831 52.9467
20489 2 6.37989 127.231 52.9334
14865 1 5.47433 128.821 54.2271
20484 2 4.56864 127.209 55.4903
20487 2 9.1086 128.831 52.9467
20486 2 7.29728 128.811 55.5038
20475 2 10.0249 127.209 55.4903
14845 1 8.20189 127.22 54.2136
20519 2 0.924785 130.432 52.9591
20516 2 1.84202 132.015 55.5281
14917 1 0.019109 132.024 54.2511
14866 1 2.74673 130.423 54.2395
20517 2 3.65341 132.032 52.9705
20488 2 6.38102 130.432 52.9591
20481 2 4.56967 130.413 55.5164
14868 1 5.47535 132.024 54.2511
20490 2 9.10965 132.032 52.9705
20479 2 7.29826 132.015 55.5281
20474 2 10.0259 130.413 55.5164
14839 1 8.20297 130.423 54.2395
15191 1 1.84906 115.938 59.1979
20832 2 0.0261397 115.955 57.9204
14498 1 0.930171 114.366 56.624
20439 2 2.7537 114.349 57.8982
14892 1 3.65889 115.971 56.6459
20824 2 5.48238 115.955 57.9204
14795 1 4.57669 114.332 59.1753
14473 1 6.38641 114.366 56.624
14849 1 9.11513 115.971 56.6459
15180 1 7.30529 115.938 59.1979
14747 1 10.0329 114.332 59.1753
20409 2 8.20994 114.349 57.8982
14875 1 0.93136 117.576 56.6667
15192 1 1.85002 119.151 59.2398
20830 2 0.0272388 119.166 57.9616
20825 2 2.75481 117.561 57.9415
14873 1 3.66006 119.18 56.6865
14850 1 6.3876 117.576 56.6667
15178 1 4.57766 117.545 59.2194
20826 2 5.48348 119.166 57.9616
15132 1 10.0339 117.545 59.2194
14851 1 9.1163 119.18 56.6865
15176 1 7.30626 119.151 59.2398
20790 2 8.21105 117.561 57.9415
14874 1 0.93252 120.785 56.7052
20831 2 0.0283083 122.375 57.9985
20821 2 2.7559 120.77 57.9806
14876 1 3.6612 122.388 56.7229
15177 1 4.57862 120.756 59.259
14843 1 6.38876 120.785 56.7052
20819 2 5.48455 122.375 57.9985
15131 1 10.0349 120.756 59.259
14841 1 9.11744 122.388 56.7229
20789 2 8.21214 120.77 57.9806
14863 1 0.933639 123.992 56.7396
20828 2 0.0293386 125.583 58.0313
20820 2 2.75695 123.979 58.0154
14861 1 3.6623 125.595 56.7553
14842 1 6.38988 123.992 56.7396
20822 2 5.48558 125.583 58.0313
14844 1 9.11853 125.595 56.7553
20784 2 8.21319 123.979 58.0154
14862 1 0.934697 127.198 56.77
20829 2 0.030311 128.791 58.06
20810 2 2.75795 127.187 58.0461
14864 1 3.66332 128.801 56.7837
14836 1 6.39094 127.198 56.77
20808 2 5.48655 128.791 58.06
14834 1 9.11956 128.801 56.7837
20783 2 8.21419 127.187 58.0461
14859 1 0.935675 130.404 56.7964
20827 2 0.031205 131.999 58.0847
20809 2 2.75889 130.395 58.0728
14857 1 3.66425 132.007 56.8082
14835 1 6.39191 130.404 56.7964
20811 2 5.48744 131.999 58.0847
14837 1 9.12049 132.007 56.8082
20770 2 8.21513 130.395 58.0728
15190 1 0.0394957 115.906 61.7496
14781 1 2.7672 114.298 61.7263
20437 2 0.944042 114.315 60.4493
15173 1 5.49573 115.906 61.7496
20823 2 3.67264 115.922 60.4721
20389 2 6.40028 114.315 60.4493
20786 2 9.12888 115.922 60.4721
14745 1 8.22344 114.298 61.7263
15174 1 2.76803 117.514 61.7716
15186 1 0.0403272 119.121 61.7925
20817 2 0.944999 117.529 60.4939
15175 1 5.49657 119.121 61.7925
20787 2 6.40124 117.529 60.4939
20815 2 3.67359 119.136 60.5145
15129 1 8.22427 117.514 61.7716
20788 2 9.12983 119.136 60.5145
15188 1 1.85099 122.362 59.2772
15166 1 2.76887 120.728 61.8123
15187 1 0.04118 122.335 61.8309
20816 2 0.94594 120.742 60.534
15164 1 5.49742 122.335 61.8309
20781 2 6.40218 120.742 60.534
20818 2 3.67453 122.348 60.5524
15179 1 7.30723 122.362 59.2772
15128 1 8.22511 120.728 61.8123
20779 2 9.13077 122.348 60.5524
15189 1 1.85194 125.572 59.3104
15165 1 2.76973 123.942 61.8485
15182 1 0.0420397 125.548 61.8649
20806 2 0.946873 123.954 60.5697
15170 1 4.57959 123.967 59.2944
15167 1 5.49828 125.548 61.8649
20780 2 6.40311 123.954 60.5697
20804 2 3.67545 125.56 60.5859
15130 1 10.0358 123.967 59.2944
15168 1 7.30818 125.572 59.3104
15121 1 8.22597 123.942 61.8485
20782 2 9.13169 125.56 60.5859
15184 1 1.85286 128.781 59.3394
15152 1 2.77059 127.155 61.8802
15183 1 0.0428881 128.761 61.8944
20805 2 0.947784 127.166 60.6011
15169 1 4.58052 127.177 59.3255
15150 1 5.49913 128.761 61.8944
20767 2 6.40402 127.166 60.6011
20807 2 3.67634 128.771 60.6152
15123 1 10.0368 127.177 59.3255
15171 1 7.30909 128.781 59.3394
15120 1 8.22682 127.155 61.8802
20765 2 9.13258 128.771 60.6152
15185 1 1.85371 131.99 59.3644
15151 1 2.77142 130.367 61.9076
15181 1 0.0436985 131.973 61.9197
20798 2 0.948652 130.376 60.6283
15156 1 4.58141 130.386 59.3524
15153 1 5.49994 131.973 61.9197
20766 2 6.40489 130.376 60.6283
20796 2 3.67718 131.982 60.6403
15122 1 10.0377 130.386 59.3524
15154 1 7.30995 131.99 59.3644
15106 1 8.22766 130.367 61.9076
20768 2 9.13342 131.982 60.6403
20812 2 0.0538347 115.858 65.5743
20813 2 1.86316 115.89 63.0235
14779 1 0.957801 114.265 64.2777
20373 2 2.78152 114.248 65.5504
15172 1 3.68633 115.874 64.3014
20772 2 5.51007 115.858 65.5743
14726 1 6.41404 114.265 64.2777
20387 2 4.59084 114.281 63
15125 1 9.14257 115.874 64.3014
20785 2 7.3194 115.89 63.0235
20337 2 8.23776 114.248 65.5504
20339 2 10.0471 114.281 63
15162 1 0.958586 117.483 64.3239
20773 2 2.78241 117.467 65.5969
20800 2 0.0547268 119.077 65.6183
20814 2 1.86403 119.106 63.0668
15126 1 6.41482 117.483 64.3239
15160 1 3.68711 119.092 64.3452
20774 2 5.51097 119.077 65.6183
20777 2 4.59171 117.498 63.0457
15127 1 9.14335 119.092 64.3452
20721 2 8.23865 117.467 65.5969
20724 2 10.048 117.498 63.0457
20775 2 7.32027 119.106 63.0668
15161 1 0.959395 120.7 64.3654
20759 2 2.78328 120.686 65.6386
20801 2 0.0555959 122.295 65.6577
20802 2 1.8649 122.322 63.1055
15118 1 6.41563 120.7 64.3654
15163 1 3.68792 122.309 64.3844
20757 2 5.51183 122.295 65.6577
20776 2 4.59258 120.714 63.0867
15116 1 9.14416 122.309 64.3844
20720 2 8.23952 120.686 65.6386
20723 2 10.0488 120.714 63.0867
20778 2 7.32114 122.322 63.1055
15148 1 0.960213 123.917 64.4022
20758 2 2.78415 123.904 65.6756
20792 2 0.0564663 125.513 65.6924
20803 2 1.86577 125.536 63.1397
15117 1 6.41645 123.917 64.4022
15146 1 3.68875 125.525 64.4189
20760 2 5.5127 125.513 65.6924
20763 2 4.59345 123.929 63.1231
15119 1 9.14499 125.525 64.4189
20713 2 8.24039 123.904 65.6756
20722 2 10.0497 123.929 63.1231
20761 2 7.32201 125.536 63.1397
15147 1 0.961044 127.133 64.4345
20744 2 2.78502 127.122 65.708
20793 2 0.0573289 128.731 65.7226
20794 2 1.86662 128.751 63.1694
15103 1 6.41728 127.133 64.4345
15149 1 3.68958 128.741 64.4489
20742 2 5.51357 128.731 65.7226
20762 2 4.59432 127.144 63.1551
15101 1 9.14582 128.741 64.4489
20712 2 8.24126 127.122 65.708
20715 2 10.0506 127.144 63.1551
20764 2 7.32286 128.751 63.1694
15140 1 0.961865 130.349 64.4623
20743 2 2.78587 130.339 65.736
20791 2 0.0581575 131.948 65.7484
20795 2 1.86744 131.965 63.1949
15102 1 6.4181 130.349 64.4623
15138 1 3.69038 131.957 64.4746
20745 2 5.5144 131.948 65.7484
20748 2 4.59515 130.358 63.1827
15104 1 9.14662 131.957 64.4746
20698 2 8.24211 130.339 65.736
20714 2 10.0514 130.358 63.1827
20746 2 7.32367 131.965 63.1949
15158 1 1.87691 115.842 66.8542
20371 2 0.972241 114.214 68.0997
20771 2 3.70085 115.825 68.1237
14724 1 4.60453 114.232 66.8304
20320 2 6.42848 114.214 68.0997
15124 1 7.33315 115.842 66.8542
20717 2 9.15709 115.825 68.1237
14685 1 10.0608 114.232 66.8304
15159 1 1.87773 119.063 66.8988
20755 2 0.973207 117.436 68.1466
15114 1 4.60544 117.453 66.8771
20718 2 6.42945 117.436 68.1466
20753 2 3.70179 119.047 68.1683
15066 1 10.0617 117.453 66.8771
15112 1 7.33397 119.063 66.8988
20719 2 9.15803 119.047 68.1683
15144 1 1.87856 122.282 66.9386
20754 2 0.97414 120.657 68.1888
15113 1 4.60626 120.673 66.9193
20710 2 6.43038 120.657 68.1888
20756 2 3.70273 122.268 68.2082
15065 1 10.0625 120.673 66.9193
15115 1 7.33479 122.282 66.9386
20708 2 9.15896 122.268 68.2082
15145 1 1.87941 125.502 66.9736
20740 2 0.975075 123.879 68.2263
15099 1 4.6071 123.892 66.9567
20709 2 6.43131 123.879 68.2263
20738 2 3.70366 125.489 68.2432
15064 1 10.0633 123.892 66.9567
15097 1 7.33565 125.502 66.9736
20711 2 9.1599 125.489 68.2432
15136 1 1.88027 128.721 67.004
20739 2 0.976009 127.1 68.2591
15098 1 4.60796 127.112 66.9893
20695 2 6.43225 127.1 68.2591
20741 2 3.70459 128.71 68.2737
15057 1 10.0642 127.112 66.9893
15100 1 7.33651 128.721 67.004
20693 2 9.16083 128.71 68.2737
15137 1 1.88111 131.94 67.0299
20732 2 0.976919 130.321 68.2873
15085 1 4.60882 130.331 67.0175
20694 2 6.43316 130.321 68.2873
20730 2 3.70547 131.931 68.2998
15056 1 10.0651 130.331 67.0175
15083 1 7.33735 131.94 67.0299
20696 2 9.16171 131.931 68.2998
15157 1 0.0664446 115.81 69.4121
20751 2 1.89122 115.792 70.6694
14710 1 0.978457 114.166 71.9631
14712 1 2.79407 114.199 69.3879
15108 1 3.70715 115.778 71.9873
15109 1 5.52268 115.81 69.4121
14674 1 6.4347 114.166 71.9631
20318 2 4.61878 114.18 70.6453
15059 1 9.16338 115.778 71.9873
20716 2 7.34746 115.792 70.6694
14683 1 8.25031 114.199 69.3879
20288 2 10.075 114.18 70.6453
15091 1 0.979599 117.391 72.0103
15110 1 2.79505 117.422 69.4351
15142 1 0.0674116 119.033 69.457
20752 2 1.89232 119.016 70.7141
15060 1 6.43584 117.391 72.0103
15089 1 3.7083 119.003 72.0322
15111 1 5.52365 119.033 69.457
20706 2 4.6199 117.404 70.6924
15061 1 9.16454 119.003 72.0322
15063 1 8.25129 117.422 69.4351
20664 2 10.0761 117.404 70.6924
20704 2 7.34856 119.016 70.7141
15090 1 0.980773 120.616 72.0528
15095 1 2.79602 120.644 69.4776
15143 1 0.0683909 122.256 69.497
20736 2 1.89341 122.241 70.7541
15052 1 6.43701 120.616 72.0528
15092 1 3.70949 122.229 72.0723
15093 1 5.52463 122.256 69.497
20705 2 4.62098 120.628 70.7347
15050 1 9.16573 122.229 72.0723
15062 1 8.25226 120.644 69.4776
20663 2 10.0772 120.628 70.7347
20707 2 7.34965 122.241 70.7541
15077 1 0.981983 123.841 72.0906
15094 1 2.79701 123.867 69.5152
15134 1 0.0693882 125.478 69.5322
20737 2 1.89449 125.465 70.7894
15051 1 6.43822 123.841 72.0906
15075 1 3.71071 125.454 72.1077
15096 1 5.52563 125.478 69.5322
20691 2 4.62207 123.853 70.7723
15053 1 9.16695 125.454 72.1077
15055 1 8.25325 123.867 69.5152
20662 2 10.0783 123.853 70.7723
20689 2 7.35073 125.465 70.7894
15076 1 0.983197 127.067 72.1236
15081 1 2.79801 127.09 69.5481
15135 1 0.0703797 128.701 69.5629
20728 2 1.89555 128.69 70.82
15041 1 6.43944 127.067 72.1236
15078 1 3.71191 128.68 72.1384
15079 1 5.52662 128.701 69.5629
20690 2 4.62314 127.077 70.8053
15039 1 9.16815 128.68 72.1384
15054 1 8.25424 127.09 69.5481
20656 2 10.0794 127.077 70.8053
20692 2 7.35178 128.69 70.82
15071 1 0.984367 130.293 72.1521
15080 1 2.79898 130.312 69.5765
15133 1 0.0713282 131.923 69.589
20729 2 1.89654 131.914 70.8463
15040 1 6.44061 130.293 72.1521
15069 1 3.71304 131.906 72.1647
15082 1 5.52757 131.923 69.589
20679 2 4.62417 130.302 70.8337
15042 1 9.16928 131.906 72.1647
15044 1 8.25522 130.312 69.5765
20655 2 10.0804 130.302 70.8337
20677 2 7.35278 131.914 70.8463
15087 1 1.83291 115.75 74.639
20750 2 0.0796912 115.758 73.2011
20306 2 0.968231 114.116 75.6524
20308 2 2.80717 114.144 73.1771
20700 2 3.69693 115.73 75.6761
20701 2 5.53593 115.758 73.2011
14672 1 4.56073 114.138 74.615
20281 2 6.42447 114.116 75.6524
15058 1 7.28915 115.75 74.639
20657 2 9.15317 115.73 75.6761
14665 1 10.017 114.138 74.615
20286 2 8.26341 114.144 73.1771
15088 1 1.83381 118.976 74.6836
20683 2 0.969437 117.344 75.6989
20702 2 2.80844 117.372 73.224
20734 2 0.0809599 118.985 73.2458
15048 1 4.56143 117.363 74.6619
20658 2 6.42568 117.344 75.6989
20681 2 3.69823 118.959 75.7204
20703 2 5.5372 118.985 73.2458
15030 1 10.0177 117.363 74.6619
15046 1 7.29004 118.976 74.6836
20659 2 9.15446 118.959 75.7204
20661 2 8.26468 117.372 73.224
15073 1 1.83504 122.203 74.7236
20682 2 0.970813 120.574 75.7409
20687 2 2.80972 120.599 73.2663
20735 2 0.0822365 122.213 73.2857
15047 1 4.56251 120.59 74.7042
20651 2 6.42705 120.574 75.7409
20684 2 3.69967 122.189 75.7602
20685 2 5.53847 122.213 73.2857
15029 1 10.0187 120.59 74.7042
15049 1 7.29128 122.203 74.7236
20649 2 9.15591 122.189 75.7602
20660 2 8.26595 120.599 73.2663
15074 1 1.83648 125.431 74.7589
20671 2 0.972304 123.804 75.7784
20686 2 2.81099 123.827 73.304
20726 2 0.083509 125.441 73.3211
15037 1 4.56386 123.817 74.7418
20650 2 6.42854 123.804 75.7784
20669 2 3.70119 125.419 75.7954
20688 2 5.53975 125.441 73.3211
15028 1 10.0201 123.817 74.7418
15035 1 7.29272 125.431 74.7589
20652 2 9.15742 125.419 75.7954
20654 2 8.26723 123.827 73.304
15067 1 1.83798 128.66 74.7896
20670 2 0.973824 127.034 75.8113
20675 2 2.81225 127.055 73.337
20727 2 0.0847395 128.669 73.3518
15036 1 4.56535 127.046 74.7748
20644 2 6.43006 127.034 75.8113
20672 2 3.70269 128.649 75.8261
20673 2 5.54098 128.669 73.3518
15027 1 10.0216 127.046 74.7748
15038 1 7.29422 128.66 74.7896
20642 2 9.15892 128.649 75.8261
20653 2 8.26849 127.055 73.337
15068 1 1.83944 131.889 74.8159
20667 2 0.975286 130.265 75.8398
20674 2 2.81344 130.282 73.3655
20725 2 0.0858838 131.896 73.3781
15033 1 4.56684 130.274 74.8033
20643 2 6.43152 130.265 75.8398
20665 2 3.70409 131.88 75.8524
20676 2 5.54212 131.896 73.3781
15026 1 10.0231 130.274 74.8033
15031 1 7.29568 131.889 74.8159
20645 2 9.16033 131.88 75.8524
20647 2 8.26968 130.282 73.3655
2879 1 1.78927 132.371 -2.37854
9177 2 0.90062 133.934 -0.923009
9185 2 2.71183 133.949 -3.43033
9183 2 3.62945 132.366 -0.935108
2866 1 4.51627 133.938 -2.36644
9147 2 6.35686 133.934 -0.923009
9184 2 5.44079 132.383 -3.44232
2868 1 7.24551 132.371 -2.37854
2820 1 9.97251 133.938 -2.36644
9146 2 9.08569 132.366 -0.935108
9150 2 8.16807 133.949 -3.43033
12456 2 10.897 132.383 -3.44232
2880 1 1.78723 135.506 -2.35548
9176 2 0.899339 137.069 -0.901999
9181 2 2.71041 137.081 -3.40947
9175 2 3.62807 135.501 -0.911974
2865 1 4.5146 137.073 -2.34559
9141 2 6.35558 137.069 -0.901999
9186 2 5.43919 135.515 -3.41938
2864 1 7.24347 135.506 -2.35548
2819 1 9.97084 137.073 -2.34559
9148 2 9.08431 135.501 -0.911974
9149 2 8.16665 137.081 -3.40947
12454 2 10.8954 135.515 -3.41938
2876 1 1.78585 138.639 -2.33672
9166 2 0.898294 140.204 -0.885202
9180 2 2.70931 140.213 -3.39276
9178 2 3.6269 138.636 -0.893077
2858 1 4.51341 140.206 -2.32889
9140 2 6.35453 140.204 -0.885202
9179 2 5.43794 138.647 -3.40059
2867 1 7.24208 138.639 -2.33672
2818 1 9.96965 140.206 -2.32889
9139 2 9.08314 138.636 -0.893077
9144 2 8.16555 140.213 -3.39276
12455 2 10.8942 138.647 -3.40059
2877 1 1.78481 141.773 -2.3221
9165 2 0.897505 143.339 -0.8726
9170 2 2.70849 143.345 -3.38022
9164 2 3.62599 141.771 -0.878376
2872 1 1.78408 144.906 -2.31165
9167 2 3.62533 144.906 -0.867873
2857 1 4.51253 143.34 -2.31636
9127 2 6.35374 143.339 -0.8726
9182 2 5.43698 141.779 -3.38597
2856 1 7.24105 141.773 -2.3221
2859 1 7.24032 144.906 -2.31165
2811 1 9.96877 143.34 -2.31636
9142 2 9.08222 141.771 -0.878376
9143 2 8.16473 143.345 -3.38022
12452 2 10.8932 141.779 -3.38597
9125 2 9.08157 144.906 -0.867873
9158 2 0.896977 146.473 -0.864196
9169 2 2.70794 146.476 -3.37185
2873 1 1.78364 148.039 -2.30538
9156 2 3.62493 148.04 -0.86157
2844 1 4.51194 146.473 -2.30799
9126 2 6.35322 146.473 -0.864196
9168 2 5.4363 144.911 -3.37551
9171 2 5.43589 148.042 -3.36924
2842 1 7.23988 148.039 -2.30538
2810 1 9.96818 146.473 -2.30799
9130 2 8.16418 146.476 -3.37185
12453 2 10.8925 144.911 -3.37551
9128 2 9.08117 148.04 -0.86157
12451 2 10.8921 148.042 -3.36924
9157 2 0.896713 149.608 -0.859994
9159 2 2.70766 149.608 -3.36767
191 1 1.7835 151.172 -2.30329
6327 2 3.6248 151.175 -0.859469
2843 1 4.51165 149.606 -2.30381
9109 2 6.35295 149.608 -0.859994
6328 2 5.43575 151.173 -3.36715
180 1 7.23973 151.172 -2.30329
2795 1 9.96789 149.606 -2.30381
9129 2 8.1639 149.608 -3.36767
6290 2 9.08104 151.175 -0.859469
9600 2 10.892 151.173 -3.36715
2862 1 2.71568 133.924 0.299961
9173 2 1.80875 132.347 1.61976
2861 1 5.4446 132.355 0.287831
9137 2 4.5361 133.917 1.63192
9145 2 7.26498 132.347 1.61976
2817 1 8.17192 133.924 0.299961
9084 2 9.99233 133.917 1.63192
5950 1 10.9008 132.355 0.287831
2854 1 2.71431 137.061 0.321006
9174 2 1.80727 135.486 1.64301
2863 1 5.44308 135.493 0.311018
9136 2 4.53475 137.055 1.65304
9135 2 7.26351 135.486 1.64301
2816 1 8.17055 137.061 0.321006
9083 2 9.99098 137.055 1.65304
5946 1 10.8993 135.493 0.311018
2853 1 2.71321 140.198 0.337818
9162 2 1.80605 138.625 1.66201
2852 1 5.44184 138.629 0.329937
9123 2 4.53366 140.194 1.66992
9138 2 7.26229 138.625 1.66201
2809 1 8.16945 140.198 0.337818
9082 2 9.98989 140.194 1.66992
5947 1 10.8981 138.629 0.329937
2840 1 2.71239 143.334 0.350429
9163 2 1.80509 141.763 1.67677
9154 2 1.80441 144.901 1.68731
2855 1 5.44088 141.766 0.344648
9122 2 4.53284 143.332 1.68257
9121 2 7.26133 141.763 1.67677
9124 2 7.26065 144.901 1.68731
2838 1 5.4402 144.902 0.355159
2808 1 8.16862 143.334 0.350429
9075 2 9.98907 143.332 1.68257
5942 1 10.8971 141.766 0.344648
5943 1 10.8964 144.902 0.355159
2839 1 2.71184 146.47 0.358838
9155 2 1.804 148.038 1.69364
9108 2 4.53229 146.47 1.691
2841 1 5.43978 148.038 0.361465
9106 2 7.26024 148.038 1.69364
2794 1 8.16808 146.47 0.358838
9074 2 9.98853 146.47 1.691
5941 1 10.896 148.038 0.361465
2829 1 2.71156 149.607 0.363042
6317 2 1.80386 151.176 1.69574
9107 2 4.53202 149.607 1.69522
173 1 5.43965 151.175 0.363568
6289 2 7.2601 151.176 1.69574
2793 1 8.1678 149.607 0.363042
9059 2 9.98826 149.607 1.69522
3262 1 10.8959 151.175 0.363568
2850 1 0.897029 133.908 2.89853
2860 1 3.62595 132.338 2.88635
2846 1 1.8057 132.321 5.46871
9133 2 2.71541 133.901 4.19957
2814 1 6.35327 133.908 2.89853
2802 1 4.533 133.893 5.4809
9132 2 5.44434 132.33 4.18739
2812 1 7.26194 132.321 5.46871
2813 1 9.08219 132.338 2.88635
2748 1 9.98924 133.893 5.4809
9081 2 8.17165 133.901 4.19957
12436 2 10.9006 132.33 4.18739
2849 1 0.895623 137.048 2.9197
2848 1 3.62441 135.478 2.90965
2847 1 1.80413 135.465 5.49202
9119 2 2.714 137.043 4.22074
2806 1 6.35186 137.048 2.9197
2801 1 4.53157 137.036 5.50208
9134 2 5.44279 135.472 4.21069
2800 1 7.26037 135.465 5.49202
2815 1 9.08065 135.478 2.90965
2747 1 9.98781 137.036 5.50208
9080 2 8.17024 137.043 4.22074
12424 2 10.899 135.472 4.21069
2836 1 0.894497 140.188 2.93661
2851 1 3.62314 138.618 2.92869
2832 1 1.80285 138.608 5.51108
9118 2 2.71287 140.184 4.23766
2833 1 1.80185 141.751 5.52588
2805 1 6.35074 140.188 2.93661
2787 1 4.53043 140.179 5.51901
9117 2 5.44152 138.613 4.22974
2803 1 7.25908 138.608 5.51108
2785 1 7.25809 141.751 5.52588
9120 2 5.44053 141.755 4.24453
2804 1 9.07938 138.618 2.92869
2746 1 9.98667 140.179 5.51901
9073 2 8.16911 140.184 4.23766
12425 2 10.8978 138.613 4.22974
12416 2 10.8968 141.755 4.24453
2835 1 0.893654 143.328 2.94927
2834 1 3.62216 141.758 2.94347
9104 2 2.71203 143.325 4.25034
2837 1 3.62146 144.898 2.95402
2824 1 1.80115 144.894 5.53644
2791 1 6.34989 143.328 2.94927
2786 1 4.52958 143.322 5.53169
9102 2 5.43983 144.896 4.25509
2788 1 7.25739 144.894 5.53644
2807 1 9.0784 141.758 2.94347
2739 1 9.98582 143.322 5.53169
9072 2 8.16827 143.325 4.25034
2789 1 9.0777 144.898 2.95402
12417 2 10.8961 144.896 4.25509
2828 1 0.893094 146.467 2.95771
9103 2 2.71147 146.466 4.25878
2826 1 3.62104 148.037 2.96035
2825 1 1.80073 148.036 5.54278
2790 1 6.34933 146.467 2.95771
2772 1 4.52902 146.465 5.54014
9105 2 5.43941 148.037 4.26142
2770 1 7.25697 148.036 5.54278
9058 2 8.16771 146.466 4.25878
2738 1 9.98526 146.465 5.54014
12415 2 10.8957 148.037 4.26142
2792 1 9.07728 148.037 2.96035
9093 2 2.71119 149.608 4.263
2827 1 0.892815 149.607 2.96193
158 1 1.80059 151.179 5.5449
172 1 3.6209 151.176 2.96246
2771 1 4.52875 149.608 5.54436
2773 1 6.34905 149.607 2.96193
124 1 7.25683 151.179 5.5449
6276 2 5.43927 151.178 4.26353
9057 2 8.16743 149.608 4.263
2724 1 9.98499 149.608 5.54436
9580 2 10.8955 151.178 4.26353
125 1 9.07714 151.176 2.96246
2798 1 2.7126 133.879 8.05761
9115 2 0.894847 133.886 6.77148
9131 2 3.62378 132.314 6.75933
9078 2 6.35109 133.886 6.77148
2799 1 5.43998 135.452 8.0687
2745 1 8.16884 133.879 8.05761
9077 2 9.08002 132.314 6.75933
5902 1 10.8962 135.452 8.0687
2783 1 2.71119 137.025 8.07873
9114 2 0.89344 137.031 6.7926
9113 2 3.62223 135.458 6.78257
9116 2 3.62096 138.603 6.80158
9070 2 6.34968 137.031 6.7926
2781 1 5.43872 138.598 8.08769
2744 1 8.16743 137.025 8.07873
9079 2 9.07846 135.458 6.78257
5903 1 10.895 138.598 8.08769
9068 2 9.0772 138.603 6.80158
2782 1 2.71008 140.171 8.09561
9100 2 0.892322 140.175 6.80949
9098 2 3.61999 141.747 6.81635
9069 2 6.34856 140.175 6.80949
2784 1 5.43775 141.744 8.10246
2737 1 8.16632 140.171 8.09561
9071 2 9.07623 141.747 6.81635
5894 1 10.894 141.744 8.10246
2768 1 2.70925 143.317 8.10826
9099 2 0.891491 143.32 6.82215
9101 2 3.6193 144.892 6.8269
9055 2 6.34773 143.32 6.82215
2766 1 5.43707 144.89 8.113
2736 1 8.16549 143.317 8.10826
9053 2 9.07554 144.892 6.8269
5895 1 10.8933 144.89 8.113
2767 1 2.70871 146.463 8.11669
9092 2 0.890943 146.464 6.83059
9090 2 3.61889 148.036 6.83323
9054 2 6.34718 146.464 6.83059
2769 1 5.43666 148.036 8.11933
2723 1 8.16495 146.463 8.11669
9056 2 9.07513 148.036 6.83323
5893 1 10.8929 148.036 8.11933
2757 1 2.70844 149.609 8.12092
9091 2 0.890673 149.608 6.83481
6275 2 3.61876 151.181 6.83534
9040 2 6.34691 149.608 6.83481
109 1 5.43653 151.182 8.12145
2722 1 8.16468 149.609 8.12092
6221 2 9.075 151.181 6.83534
3229 1 10.8928 151.182 8.12145
2779 1 0.892336 133.864 10.6321
9062 2 2.71057 133.857 11.9176
9112 2 1.80189 135.445 9.35554
2777 1 3.61975 135.439 10.6431
9066 2 4.53073 133.872 9.34452
2742 1 6.34857 133.864 10.6321
9064 2 7.25813 135.445 9.35554
9063 2 5.43801 135.433 11.9285
9024 2 9.98697 133.872 9.34452
9021 2 8.1668 133.857 11.9176
2743 1 9.07599 135.439 10.6431
12358 2 10.8943 135.433 11.9285
2778 1 0.890997 137.013 10.653
9047 2 2.70929 137.008 11.9384
9096 2 1.80067 138.593 9.37444
2780 1 3.61855 138.588 10.6619
9065 2 4.52937 137.019 9.36552
2734 1 6.34724 137.013 10.653
9067 2 7.25691 138.593 9.37444
9045 2 5.43688 138.583 11.9472
9023 2 9.98561 137.019 9.36552
9020 2 8.16553 137.008 11.9384
2732 1 9.07479 138.588 10.6619
12359 2 10.8931 138.583 11.9472
2764 1 0.889943 140.162 10.6698
9046 2 2.70829 140.158 11.955
9097 2 1.79974 141.741 9.38915
2762 1 3.61764 141.737 10.6766
9051 2 4.52829 140.167 9.38232
2733 1 6.34618 140.162 10.6698
9049 2 7.25598 141.741 9.38915
9048 2 5.43601 141.734 11.9618
9022 2 9.98453 140.167 9.38232
9014 2 8.16453 140.158 11.955
2735 1 9.07388 141.737 10.6766
12350 2 10.8923 141.734 11.9618
2763 1 0.889166 143.312 10.6824
9035 2 2.70756 143.309 11.9675
9088 2 1.79908 144.888 9.39965
2765 1 3.617 144.886 10.6871
9050 2 4.52749 143.314 9.39492
2720 1 6.3454 143.312 10.6824
9052 2 7.25532 144.888 9.39965
9033 2 5.4354 144.884 11.9722
9016 2 9.98373 143.314 9.39492
9013 2 8.1638 143.309 11.9675
2718 1 9.07324 144.886 10.6871
12351 2 10.8916 144.884 11.9722
2756 1 0.888656 146.461 10.6908
9034 2 2.70707 146.46 11.9759
9089 2 1.79869 148.036 9.40596
2754 1 3.61662 148.035 10.6934
9039 2 4.52697 146.462 9.40333
2719 1 6.34489 146.461 10.6908
9037 2 7.25493 148.036 9.40596
9036 2 5.43505 148.035 11.9785
9015 2 9.98321 146.462 9.40333
9007 2 8.16331 146.46 11.9759
2721 1 9.07286 148.035 10.6934
12349 2 10.8913 148.035 11.9785
2755 1 0.88841 149.61 10.695
9028 2 2.70684 149.61 11.9801
6255 2 1.79857 151.183 9.40808
108 1 3.6165 151.184 10.6955
9038 2 4.52672 149.609 9.40754
2709 1 6.34465 149.61 10.695
6220 2 7.25481 151.183 9.40808
6205 2 5.43494 151.186 11.9806
9008 2 9.98296 149.609 9.40754
9006 2 8.16308 149.61 11.9801
53 1 9.07274 151.184 10.6955
9518 2 10.8912 151.186 11.9806
2726 1 2.70862 133.836 15.778
9043 2 0.890601 133.843 14.4903
2776 1 1.79973 135.426 13.2163
9041 2 3.61812 135.42 14.5011
2730 1 4.5285 133.85 13.2054
9018 2 6.34684 133.843 14.4903
2727 1 5.43617 135.414 15.7887
2728 1 7.25597 135.426 13.2163
5830 1 10.8924 135.414 15.7887
2697 1 8.16486 133.836 15.778
2700 1 9.98473 133.85 13.2054
9019 2 9.07436 135.42 14.5011
2712 1 2.70755 136.991 15.7984
9042 2 0.889461 136.997 14.5108
2760 1 1.79864 138.578 13.2349
9044 2 3.6171 138.574 14.5196
2729 1 4.52727 137.002 13.2261
9011 2 6.3457 136.997 14.5108
2710 1 5.43523 138.569 15.8071
2731 1 7.25488 138.578 13.2349
5831 1 10.8915 138.569 15.8071
2696 1 8.16379 136.991 15.7984
2699 1 9.98351 137.002 13.2261
9009 2 9.07334 138.574 14.5196
9029 2 3.61633 141.727 14.534
2711 1 2.70672 140.146 15.8148
9031 2 0.888571 140.15 14.5273
2761 1 1.79781 141.73 13.2495
2713 1 5.43451 141.724 15.8214
2716 1 4.52631 140.154 13.2427
9010 2 6.34481 140.15 14.5273
2714 1 7.25405 141.73 13.2495
9012 2 9.07257 141.727 14.534
5822 1 10.8907 141.724 15.8214
2693 1 8.16296 140.146 15.8148
2698 1 9.98255 140.154 13.2427
9032 2 3.6158 144.881 14.5443
9030 2 0.887918 143.304 14.5396
2704 1 2.70611 143.302 15.8271
2752 1 1.79723 144.883 13.2599
2702 1 5.43401 144.879 15.8317
9004 2 6.34416 143.304 14.5396
2715 1 4.52561 143.307 13.2552
2717 1 7.25346 144.883 13.2599
9002 2 9.07203 144.881 14.5443
2695 1 9.98184 143.307 13.2552
2692 1 8.16235 143.302 15.8271
5823 1 10.8902 144.879 15.8317
9027 2 0.887492 146.458 14.5479
2703 1 2.70571 146.457 15.8353
9025 2 3.61548 148.035 14.5505
2753 1 1.79689 148.035 13.2661
2706 1 7.25313 148.035 13.2661
2705 1 5.43371 148.035 15.8379
9003 2 6.34373 146.458 14.5479
2708 1 4.52515 146.459 13.2635
5821 1 10.89 148.035 15.8379
9005 2 9.07172 148.035 14.5505
2690 1 8.16195 146.457 15.8353
2694 1 9.98138 146.459 13.2635
2701 1 2.70553 149.612 15.8395
9026 2 0.887289 149.612 14.5521
6204 2 3.61539 151.188 14.5526
87 1 1.79679 151.187 13.2682
2707 1 4.52493 149.611 13.2677
9001 2 6.34353 149.612 14.5521
52 1 7.25302 151.187 13.2682
37 1 5.43363 151.19 15.84
2689 1 8.16176 149.612 15.8395
2691 1 9.98116 149.611 13.2677
3158 1 10.8899 151.19 15.84
6161 2 9.07163 151.188 14.5526
3070 1 0.88898 133.823 18.35
9384 2 1.79846 135.408 17.0731
3068 1 3.61664 135.402 18.3605
9370 2 4.52709 133.83 17.0625
3047 1 6.34522 133.823 18.35
9368 2 7.2547 135.408 17.0731
9324 2 9.98333 133.83 17.0625
3048 1 9.07287 135.402 18.3605
3069 1 0.888106 136.98 18.37
9380 2 1.79761 138.564 17.0913
3071 1 3.61586 138.559 18.3785
9369 2 4.52613 136.986 17.0827
3043 1 6.34434 136.98 18.37
9371 2 7.25385 138.564 17.0913
9323 2 9.98237 136.986 17.0827
3041 1 9.0721 138.559 18.3785
3063 1 0.887429 140.138 18.3861
9381 2 1.79696 141.721 17.1055
3061 1 3.61528 141.718 18.3927
9362 2 4.52538 140.142 17.0989
3042 1 6.34367 140.138 18.3861
9360 2 7.2532 141.721 17.1055
9322 2 9.98162 140.142 17.0989
3044 1 9.07152 141.718 18.3927
3062 1 0.886935 143.297 18.3982
9376 2 1.79651 144.878 17.1157
3064 1 3.61487 144.876 18.4028
9361 2 4.52483 143.299 17.1111
3031 1 6.34317 143.297 18.3982
9363 2 7.25275 144.878 17.1157
9315 2 9.98107 143.299 17.1111
3029 1 9.07111 144.876 18.4028
3056 1 0.886615 146.455 18.4063
9377 2 1.79624 148.034 17.1218
3054 1 3.61464 148.034 18.4089
3030 1 6.34285 146.455 18.4063
9348 2 4.52447 146.456 17.1193
9346 2 7.25248 148.034 17.1218
9314 2 9.98071 146.456 17.1193
3032 1 9.07088 148.034 18.4089
3055 1 0.886464 149.613 18.4104
6527 2 1.79617 151.191 17.1239
384 1 3.61457 151.193 18.411
3013 1 6.3427 149.613 18.4104
9347 2 4.5243 149.613 17.1234
6516 2 7.25241 151.191 17.1239
9299 2 9.98054 149.613 17.1234
358 1 9.07081 151.193 18.411
9366 2 2.70761 133.816 19.6341
9354 2 0.888427 133.802 22.205
3067 1 1.79739 135.389 20.9315
9352 2 3.61626 135.383 22.2152
9367 2 5.43532 135.395 19.6445
3039 1 4.52586 133.809 20.9213
9318 2 6.34467 133.802 22.205
3037 1 7.25363 135.389 20.9315
9321 2 8.16384 133.816 19.6341
2988 1 9.9821 133.809 20.9213
9319 2 9.0725 135.383 22.2152
12642 2 10.8916 135.395 19.6445
9358 2 2.70685 136.975 19.6539
9353 2 0.887896 136.964 22.2244
3059 1 1.79682 138.55 20.9493
9355 2 3.6158 138.546 22.2327
9356 2 5.43465 138.555 19.6624
3038 1 4.52521 136.97 20.9409
9310 2 6.34413 136.964 22.2244
3040 1 7.25306 138.55 20.9493
9320 2 8.16308 136.975 19.6539
2987 1 9.98145 136.97 20.9409
9308 2 9.07204 138.546 22.2327
12643 2 10.8909 138.555 19.6624
9357 2 2.70626 140.135 19.6698
9340 2 0.887489 140.127 22.2401
3060 1 1.79639 141.711 20.9631
9338 2 3.61545 141.708 22.2464
9359 2 5.43414 141.714 19.6763
3027 1 4.52471 140.131 20.9567
9309 2 6.34373 140.127 22.2401
3025 1 7.25263 141.711 20.9631
9313 2 8.1625 140.135 19.6698
2986 1 9.98094 140.131 20.9567
9311 2 9.07169 141.708 22.2464
12638 2 10.8904 141.714 19.6763
9344 2 2.70583 143.294 19.6818
9339 2 0.887193 143.29 22.2519
3052 1 1.79609 144.873 20.9731
9341 2 3.6152 144.871 22.2563
9342 2 5.43379 144.874 19.6864
3026 1 4.52434 143.292 20.9686
9295 2 6.34343 143.29 22.2519
3028 1 7.25233 144.873 20.9731
9312 2 8.16207 143.294 19.6818
2979 1 9.98058 143.292 20.9686
9293 2 9.07144 144.871 22.2563
12639 2 10.89 144.874 19.6864
9343 2 2.70555 146.454 19.6899
9332 2 0.887002 146.453 22.2598
3053 1 1.79592 148.034 20.9791
9330 2 3.61506 148.034 22.2623
9345 2 5.43359 148.034 19.6924
3012 1 4.52411 146.453 20.9766
9294 2 6.34324 146.453 22.2598
3010 1 7.25215 148.034 20.9791
9298 2 8.16179 146.454 19.6899
2978 1 9.98034 146.453 20.9766
9296 2 9.0713 148.034 22.2623
12637 2 10.8898 148.034 19.6924
9333 2 2.70542 149.614 19.694
9331 2 0.886913 149.616 22.2638
378 1 1.79587 151.196 20.9812
6508 2 3.61503 151.197 22.2644
3011 1 4.52399 149.615 20.9806
9277 2 6.34315 149.616 22.2638
6509 2 5.43353 151.194 19.6945
357 1 7.25211 151.196 20.9812
9297 2 8.16166 149.614 19.694
2963 1 9.98023 149.615 20.9806
6461 2 9.07126 151.197 22.2644
9790 2 10.8898 151.194 19.6945
3035 1 2.70683 133.795 23.4918
9351 2 1.79758 135.371 24.7852
9306 2 4.52585 133.789 24.7752
3036 1 5.43473 135.377 23.5019
9304 2 7.25382 135.371 24.7852
2985 1 8.16307 133.795 23.4918
9252 2 9.98209 133.789 24.7752
6129 1 10.891 135.377 23.5019
3023 1 2.70642 136.959 23.511
9336 2 1.79733 138.536 24.8023
9305 2 4.52556 136.954 24.7942
3021 1 5.43437 138.541 23.5192
9307 2 7.25356 138.536 24.8023
2984 1 8.16266 136.959 23.511
9251 2 9.9818 136.954 24.7942
6130 1 10.8906 138.541 23.5192
3022 1 2.70611 140.123 23.5265
9337 2 1.79714 141.702 24.8158
9291 2 4.52534 140.119 24.8095
3024 1 5.43411 141.705 23.5328
9289 2 7.25338 141.702 24.8158
2977 1 8.16235 140.123 23.5265
9250 2 9.98158 140.119 24.8095
6122 1 10.8903 141.705 23.5328
3008 1 2.70588 143.287 23.5382
9328 2 1.79701 144.868 24.8255
9290 2 4.52518 143.285 24.8211
3006 1 5.43392 144.87 23.5426
9292 2 7.25325 144.868 24.8255
2976 1 8.16212 143.287 23.5382
9243 2 9.98142 143.285 24.8211
6123 1 10.8902 144.87 23.5426
3007 1 2.70574 146.452 23.5461
9329 2 1.79693 148.034 24.8314
9274 2 7.25317 148.034 24.8314
3009 1 5.43381 148.034 23.5486
9276 2 4.52508 146.451 24.8289
6121 1 10.89 148.034 23.5486
9242 2 9.98132 146.451 24.8289
2962 1 8.16197 146.452 23.5461
2997 1 2.70567 149.616 23.5501
6494 2 1.79691 151.2 24.8334
9275 2 4.52504 149.617 24.8329
6460 2 7.25315 151.2 24.8334
346 1 5.43378 151.199 23.5506
9228 2 9.98127 149.617 24.8329
2961 1 8.16191 149.616 23.5501
3449 1 10.89 151.199 23.5506
3019 1 0.888204 133.782 26.0615
3017 1 3.61624 135.365 26.0714
9302 2 2.70747 133.775 27.3445
3016 1 1.7982 135.353 28.6401
2982 1 6.34444 133.782 26.0615
2970 1 4.52627 133.768 28.6304
9303 2 5.43556 135.359 27.3543
2968 1 7.25443 135.353 28.6401
12598 2 10.8918 135.359 27.3543
2983 1 9.07247 135.365 26.0714
2922 1 9.98251 133.768 28.6304
9249 2 8.16371 133.775 27.3445
3018 1 0.888042 136.948 26.0804
3020 1 3.6161 138.532 26.0884
9287 2 2.70742 136.943 27.3631
3000 1 1.79827 138.523 28.6568
2974 1 6.34428 136.948 26.0804
2969 1 4.52635 136.938 28.6489
9285 2 5.43552 138.527 27.3711
2971 1 7.25451 138.523 28.6568
12599 2 10.8918 138.527 27.3711
2972 1 9.07233 138.532 26.0884
2921 1 9.98259 136.938 28.6489
9248 2 8.16366 136.943 27.3631
3004 1 0.887921 140.115 26.0956
3002 1 3.61599 141.699 26.1018
9286 2 2.70739 140.112 27.3782
3001 1 1.79833 141.693 28.6699
2973 1 6.34416 140.115 26.0956
2955 1 4.52642 140.108 28.6638
9288 2 5.43549 141.696 27.3843
2953 1 7.25456 141.693 28.6699
12590 2 10.8917 141.696 27.3843
2975 1 9.07223 141.699 26.1018
2920 1 9.98266 140.108 28.6638
9241 2 8.16363 140.112 27.3782
3003 1 0.887833 143.283 26.107
3005 1 3.61592 144.866 26.1114
9272 2 2.70736 143.28 27.3896
2992 1 1.79836 144.863 28.6794
2959 1 6.34407 143.283 26.107
2954 1 4.52647 143.278 28.6751
9270 2 5.43548 144.865 27.3939
2956 1 7.2546 144.863 28.6794
12591 2 10.8917 144.865 27.3939
2957 1 9.07216 144.866 26.1114
2913 1 9.9827 143.278 28.6751
9240 2 8.1636 143.28 27.3896
2996 1 0.887776 146.45 26.1148
2994 1 3.61588 148.034 26.1172
9271 2 2.70735 146.449 27.3973
2993 1 1.79839 148.034 28.6851
2958 1 6.34401 146.45 26.1148
2941 1 4.5265 146.449 28.6827
9273 2 5.43546 148.034 27.3997
2939 1 7.25462 148.034 28.6851
12589 2 10.8917 148.034 27.3997
2960 1 9.07212 148.034 26.1172
2912 1 9.98273 146.449 28.6827
9227 2 8.16359 146.449 27.3973
2995 1 0.88775 149.618 26.1187
9261 2 2.70734 149.618 27.4012
345 1 3.61587 151.202 26.1193
327 1 1.79839 151.205 28.6872
2942 1 6.34399 149.618 26.1187
2940 1 4.52651 149.619 28.6866
6445 2 5.43546 151.203 27.4017
292 1 7.25463 151.205 28.6872
2901 1 9.98275 149.619 28.6866
9226 2 8.16358 149.618 27.4012
293 1 9.07211 151.202 26.1193
9757 2 10.8917 151.203 27.4017
2966 1 2.70863 133.754 31.1983
9283 2 0.889575 133.761 29.9129
9280 2 1.80056 135.335 32.4898
9281 2 3.61779 135.347 29.9225
9234 2 4.52847 133.747 32.4804
9246 2 6.34581 133.761 29.9129
2967 1 5.43691 135.341 31.2078
9232 2 7.2568 135.335 32.4898
6070 1 10.8931 135.341 31.2078
2919 1 8.16487 133.754 31.1983
9204 2 9.98471 133.747 32.4804
9247 2 9.07403 135.347 29.9225
2951 1 2.70893 136.927 31.2165
9282 2 0.889758 136.932 29.9312
9264 2 1.80091 138.509 32.5061
9284 2 3.61795 138.518 29.9391
9233 2 4.52886 136.922 32.4984
9238 2 6.346 136.932 29.9312
2949 1 5.43718 138.514 31.2243
9235 2 7.25714 138.509 32.5061
6071 1 10.8934 138.514 31.2243
2918 1 8.16517 136.927 31.2165
9203 2 9.9851 136.922 32.4984
9236 2 9.07419 138.518 29.9391
2950 1 2.70917 140.1 31.2312
9268 2 0.889903 140.104 29.946
9265 2 1.80117 141.684 32.5189
9266 2 3.61808 141.69 29.9521
9220 2 4.52917 140.096 32.513
9237 2 6.34614 140.104 29.946
2952 1 5.43738 141.687 31.2372
9218 2 7.25741 141.684 32.5189
6062 1 10.8936 141.687 31.2372
2911 1 8.16541 140.1 31.2312
9202 2 9.98541 140.096 32.513
9239 2 9.07432 141.69 29.9521
2937 1 2.70934 143.274 31.2423
9267 2 0.890009 143.276 29.9572
9256 2 1.80135 144.859 32.5282
9269 2 3.61817 144.862 29.9615
9219 2 4.52939 143.271 32.524
9224 2 6.34625 143.276 29.9572
2935 1 5.43752 144.86 31.2465
9221 2 7.25759 144.859 32.5282
6063 1 10.8938 144.86 31.2465
2910 1 8.16558 143.274 31.2423
9199 2 9.98563 143.271 32.524
9222 2 9.0744 144.862 29.9615
2936 1 2.70945 146.447 31.2498
9260 2 0.890076 146.448 29.9648
9257 2 1.80145 148.034 32.5339
9258 2 3.61822 148.034 29.9672
9212 2 4.52953 146.446 32.5315
9223 2 6.34631 146.448 29.9648
2938 1 5.4376 148.034 31.2522
9210 2 7.25769 148.034 32.5339
6061 1 10.8938 148.034 31.2522
2900 1 8.16569 146.447 31.2498
9198 2 9.98577 146.446 32.5315
9225 2 9.07445 148.034 29.9672
2928 1 2.7095 149.621 31.2537
9259 2 0.890108 149.62 29.9687
6444 2 3.61823 151.206 29.9692
9211 2 4.5296 149.622 32.5353
9213 2 6.34635 149.62 29.9687
277 1 5.43763 151.208 31.2542
2899 1 8.16574 149.621 31.2537
9195 2 9.98584 149.622 32.5353
3398 1 10.8939 151.208 31.2542
6389 2 9.07447 151.206 29.9692
2947 1 0.89156 133.74 33.7653
9230 2 2.71173 133.733 35.0468
2945 1 3.61995 135.328 33.7746
2916 1 6.3478 133.74 33.7653
9231 2 5.44015 135.322 35.0561
12526 2 10.8964 135.322 35.0561
9201 2 8.16796 133.733 35.0468
2917 1 9.07618 135.328 33.7746
2948 1 3.62039 138.505 33.7908
2946 1 0.892063 136.916 33.7832
9216 2 2.7123 136.911 35.0646
9214 2 5.44065 138.5 35.0722
2908 1 6.3483 136.916 33.7832
12527 2 10.8969 138.5 35.0722
2906 1 9.07663 138.505 33.7908
9200 2 8.16854 136.911 35.0646
2931 1 3.62072 141.681 33.8036
2933 1 0.892452 140.093 33.7977
9215 2 2.71274 140.089 35.079
9217 2 5.44104 141.678 35.0849
2907 1 6.34869 140.093 33.7977
12518 2 10.8973 141.678 35.0849
2909 1 9.07696 141.681 33.8036
9197 2 8.16898 140.089 35.079
2934 1 3.62095 144.857 33.8128
9208 2 2.71306 143.267 35.0899
2932 1 0.892732 143.269 33.8087
9206 2 5.4413 144.856 35.0941
2897 1 6.34897 143.269 33.8087
12519 2 10.8975 144.856 35.0941
2895 1 9.07719 144.857 33.8128
9196 2 8.1693 143.267 35.0899
2925 1 3.62108 148.034 33.8184
9207 2 2.71327 146.445 35.0973
2927 1 0.892911 146.446 33.8161
2896 1 6.34915 146.446 33.8161
9209 2 5.44145 148.034 35.0997
12517 2 10.8977 148.034 35.0997
9194 2 8.16951 146.445 35.0973
2898 1 9.07732 148.034 33.8184
2926 1 0.892994 149.622 33.8199
9205 2 2.71336 149.623 35.1011
2890 1 6.34923 149.622 33.8199
9193 2 8.1696 149.623 35.1011
9406 2 0.895625 133.719 37.6121
14991 1 2.71557 133.712 38.896
2944 1 1.80359 135.316 36.3404
9404 2 3.62412 135.31 37.6214
9395 2 6.35186 133.719 37.6121
15345 1 5.44411 135.304 38.9052
2904 1 4.53136 133.727 36.3312
2902 1 7.25983 135.316 36.3404
2886 1 9.98759 133.727 36.3312
14961 1 8.17181 133.712 38.896
9396 2 9.08036 135.31 37.6214
18172 1 10.9003 135.304 38.9052
9405 2 0.896339 136.9 37.6298
15346 1 2.71636 136.895 38.9136
2929 1 1.80418 138.495 36.3565
9407 2 3.62475 138.491 37.6374
9392 2 6.35258 136.9 37.6298
15347 1 5.44481 138.486 38.9211
2903 1 4.53202 136.906 36.3489
2905 1 7.26042 138.495 36.3565
15317 1 8.1726 136.895 38.9136
2885 1 9.98826 136.906 36.3489
9390 2 9.08099 138.491 37.6374
18170 1 10.901 138.486 38.9211
9402 2 0.896892 140.081 37.6441
15342 1 2.71697 140.077 38.9278
2930 1 1.80462 141.675 36.3691
9400 2 3.62523 141.672 37.65
9391 2 6.35313 140.081 37.6441
15340 1 5.44533 141.669 38.9337
2893 1 4.53254 140.085 36.3632
2891 1 7.26086 141.675 36.3691
15316 1 8.17321 140.077 38.9278
2884 1 9.98877 140.085 36.3632
9393 2 9.08147 141.672 37.65
18171 1 10.9016 141.669 38.9337
9401 2 0.897292 143.262 37.6549
15341 1 2.71741 143.26 38.9387
2923 1 1.80492 144.854 36.3782
9403 2 3.62556 144.853 37.6591
9388 2 6.35353 143.262 37.6549
15343 1 5.44569 144.851 38.9428
2892 1 4.53291 143.265 36.3741
2894 1 7.26116 144.854 36.3782
15311 1 8.17365 143.26 38.9387
2883 1 9.98914 143.265 36.3741
9386 2 9.0818 144.853 37.6591
18168 1 10.9019 144.851 38.9428
9399 2 0.897549 146.443 37.6623
15332 1 2.71769 146.443 38.946
2924 1 1.80509 148.034 36.3838
9397 2 3.62574 148.034 37.6646
9387 2 6.35379 146.443 37.6623
15330 1 5.4459 148.034 38.9483
2889 1 4.53314 146.444 36.3815
2887 1 7.26133 148.034 36.3838
15310 1 8.17393 146.443 38.946
2882 1 9.98938 146.444 36.3815
9389 2 9.08198 148.034 37.6646
18169 1 10.9021 148.034 38.9483
9398 2 0.897668 149.625 37.6661
15331 1 2.71782 149.626 38.9498
9385 2 6.35391 149.625 37.6661
2888 1 4.53325 149.624 36.3853
15297 1 8.17406 149.626 38.9498
2881 1 9.98949 149.624 36.3853
20971 2 1.80875 135.297 40.1856
14989 1 0.900472 133.698 41.4597
15344 1 3.62905 135.291 41.4689
14941 1 6.35671 133.698 41.4597
20603 2 4.53643 133.705 40.1764
20962 2 7.26498 135.297 40.1856
15313 1 9.08529 135.291 41.4689
20555 2 9.99267 133.705 40.1764
20972 2 1.80947 138.481 40.2015
15338 1 0.901344 136.884 41.4773
15336 1 3.62982 138.477 41.4848
20960 2 4.53725 136.889 40.194
15314 1 6.35758 136.884 41.4773
20958 2 7.26571 138.481 40.2015
15315 1 9.08606 138.477 41.4848
20922 2 9.99349 136.889 40.194
20968 2 1.81001 141.665 40.2141
15337 1 0.902019 140.07 41.4915
15339 1 3.63041 141.662 41.4973
20959 2 4.53788 140.073 40.2082
15308 1 6.35826 140.07 41.4915
20961 2 7.26625 141.665 40.2141
15306 1 9.08664 141.662 41.4973
20921 2 9.99412 140.073 40.2082
20969 2 1.81039 144.85 40.2231
15328 1 0.902509 143.255 41.5023
15326 1 3.63081 144.848 41.5064
15307 1 6.35875 143.255 41.5023
20952 2 4.53834 143.258 40.219
20950 2 7.26663 144.85 40.2231
15309 1 9.08704 144.848 41.5064
20920 2 9.99458 143.258 40.219
20965 2 1.81061 148.034 40.2287
15327 1 0.902823 146.441 41.5096
15329 1 3.63104 148.034 41.5119
15296 1 6.35906 146.441 41.5096
20951 2 4.53864 146.442 40.2263
20953 2 7.26684 148.034 40.2287
15294 1 9.08727 148.034 41.5119
20913 2 9.99488 146.442 40.2263
15321 1 0.902968 149.627 41.5133
15295 1 6.35921 149.627 41.5133
20938 2 4.53877 149.626 40.2301
20912 2 9.99501 149.626 40.2301
20589 2 2.72169 133.691 42.7395
15334 1 1.81467 135.278 44.0315
20587 2 0.907639 133.677 45.3015
20954 2 3.63624 135.272 45.3108
20955 2 5.45027 135.285 42.7487
14939 1 4.5423 133.684 44.0223
20534 2 6.36388 133.677 45.3015
15312 1 7.27091 135.278 44.0315
20553 2 8.17793 133.691 42.7395
20915 2 9.09247 135.272 45.3108
14891 1 9.99854 133.684 44.0223
23790 2 10.9065 135.285 42.7487
20956 2 2.72257 136.878 42.7571
15335 1 1.81548 138.467 44.0475
20944 2 0.908545 136.867 45.3193
20942 2 3.63704 138.462 45.3268
20957 2 5.45105 138.472 42.7647
15304 1 4.54322 136.873 44.0399
20916 2 6.36478 136.867 45.3193
15302 1 7.27172 138.467 44.0475
23786 2 10.9073 138.472 42.7647
20919 2 8.17881 136.878 42.7571
15262 1 9.99946 136.873 44.0399
20917 2 9.09328 138.462 45.3268
20948 2 2.72325 140.066 42.7714
15324 1 1.81609 141.656 44.06
20943 2 0.909253 140.058 45.3335
20946 2 5.45165 141.659 42.7772
15303 1 4.54393 140.062 44.0542
20908 2 6.36549 140.058 45.3335
20945 2 3.63765 141.653 45.3394
15305 1 7.27233 141.656 44.06
23787 2 10.9079 141.659 42.7772
20918 2 8.17949 140.066 42.7714
15261 1 10.0002 140.062 44.0542
20906 2 9.09389 141.653 45.3394
20947 2 2.72375 143.253 42.7822
15325 1 1.81652 144.845 44.0691
20933 2 0.909772 143.248 45.3444
20949 2 5.45205 144.847 42.7863
15292 1 4.54445 143.251 44.065
20907 2 6.36601 143.248 45.3444
20931 2 3.63808 144.843 45.3485
15290 1 7.27276 144.845 44.0691
23783 2 10.9083 144.847 42.7863
20911 2 8.17999 143.253 42.7822
15260 1 10.0007 143.251 44.065
20909 2 9.09432 144.843 45.3485
20937 2 2.72407 146.44 42.7895
15320 1 1.81676 148.034 44.0746
20932 2 0.910106 146.439 45.3517
20935 2 5.45229 148.034 42.7918
15291 1 4.54478 146.44 44.0723
20896 2 6.36634 146.439 45.3517
20934 2 3.63833 148.034 45.354
15293 1 7.273 148.034 44.0746
23784 2 10.9085 148.034 42.7918
20910 2 8.18031 146.44 42.7895
15253 1 10.001 146.44 44.0723
20894 2 9.09456 148.034 45.354
20936 2 2.72422 149.628 42.7932
20926 2 0.910262 149.629 45.3554
15278 1 4.54494 149.629 44.076
20895 2 6.3665 149.629 45.3554
20897 2 8.18046 149.628 42.7932
15252 1 10.0012 149.629 44.076
15333 1 0.000958206 135.265 46.593
20940 2 1.82287 135.259 47.8718
14923 1 0.915559 133.655 49.1441
14925 1 2.72859 133.669 46.5837
15298 1 3.64415 135.252 49.1535
15299 1 5.4572 135.265 46.593
14872 1 6.3718 133.655 49.1441
20532 2 4.55051 133.662 47.8624
15255 1 9.10039 135.252 49.1535
20914 2 7.27911 135.259 47.8718
14889 1 8.18483 133.669 46.5837
20493 2 10.0068 133.662 47.8624
15284 1 0.916459 136.85 49.1621
15300 1 2.72951 136.862 46.6015
15322 1 0.00177895 138.458 46.6091
20941 2 1.82367 138.453 47.888
15256 1 6.3727 136.85 49.1621
15282 1 3.64496 138.448 49.1697
15301 1 5.45802 138.458 46.6091
20904 2 4.55141 136.856 47.8803
15257 1 9.1012 138.448 49.1697
15259 1 8.18575 136.862 46.6015
20867 2 10.0077 136.856 47.8803
20902 2 7.27991 138.453 47.888
15283 1 0.91717 140.046 49.1765
15288 1 2.73023 140.054 46.6158
15323 1 0.00240327 141.65 46.6217
20929 2 1.82429 141.646 47.9006
15248 1 6.37341 140.046 49.1765
15285 1 3.64558 141.643 49.1824
15286 1 5.45864 141.65 46.6217
20903 2 4.55212 140.05 47.8947
15246 1 9.10181 141.643 49.1824
15258 1 8.18647 140.054 46.6158
20866 2 10.0084 140.05 47.8947
20905 2 7.28053 141.646 47.9006
15273 1 0.917695 143.241 49.1874
15287 1 2.73076 143.246 46.6267
15318 1 0.00283766 144.842 46.6308
20930 2 1.82472 144.84 47.9097
15247 1 6.37393 143.241 49.1874
15271 1 3.64601 144.839 49.1915
15289 1 5.45908 144.842 46.6308
20892 2 4.55264 143.243 47.9056
15249 1 9.10225 144.839 49.1915
15251 1 8.187 143.246 46.6267
20865 2 10.0089 143.243 47.9056
20890 2 7.28096 144.84 47.9097
15272 1 0.918036 146.436 49.1948
15277 1 2.7311 146.438 46.634
15319 1 0.00308731 148.034 46.6363
20925 2 1.82497 148.034 47.9152
15236 1 6.37427 146.436 49.1948
15274 1 3.64626 148.034 49.1971
15275 1 5.45933 148.034 46.6363
20891 2 4.55298 146.437 47.9129
15234 1 9.1025 148.034 49.1971
15250 1 8.18734 146.438 46.634
20858 2 10.0092 146.437 47.9129
20893 2 7.2812 148.034 47.9152
15266 1 0.918196 149.632 49.1985
15276 1 2.73126 149.63 46.6377
15235 1 6.37443 149.632 49.1985
20879 2 4.55314 149.631 47.9167
15237 1 8.1875 149.63 46.6377
20857 2 10.0094 149.631 47.9167
15280 1 1.83176 135.239 51.713
20939 2 0.0101562 135.246 50.4318
20520 2 2.73782 133.647 50.4223
20899 2 5.46639 135.246 50.4318
14870 1 4.55943 133.64 51.7034
15254 1 7.288 135.239 51.713
14840 1 10.0157 133.64 51.7034
20491 2 8.19406 133.647 50.4223
15281 1 1.83253 138.438 51.7294
20900 2 2.73869 136.844 50.4404
20927 2 0.0109386 138.443 50.4481
15244 1 4.56028 136.839 51.7216
20901 2 5.46718 138.443 50.4481
15212 1 10.0165 136.839 51.7216
15242 1 7.28877 138.438 51.7294
20864 2 8.19493 136.844 50.4404
15269 1 1.83313 141.637 51.7421
20888 2 2.73938 140.041 50.4549
20928 2 0.0115423 141.64 50.4608
15243 1 4.56097 140.037 51.7362
20886 2 5.46778 141.64 50.4608
15211 1 10.0172 140.037 51.7362
15245 1 7.28937 141.637 51.7421
20863 2 8.19562 140.041 50.4549
15270 1 1.83355 144.835 51.7513
20887 2 2.7399 143.238 50.4658
20923 2 0.0119677 144.837 50.47
15232 1 4.56148 143.236 51.7472
20889 2 5.46821 144.837 50.47
15210 1 10.0177 143.236 51.7472
15230 1 7.28979 144.835 51.7513
20856 2 8.19613 143.238 50.4658
15265 1 1.8338 148.034 51.7569
20878 2 2.74023 146.435 50.4732
20924 2 0.0122151 148.034 50.4755
15231 1 4.56182 146.435 51.7546
20876 2 5.46845 148.034 50.4755
15204 1 10.0181 146.435 51.7546
15233 1 7.29004 148.034 51.7569
20855 2 8.19647 146.435 50.4732
20877 2 2.74039 149.632 50.477
15221 1 4.56198 149.633 51.7583
15203 1 10.0182 149.633 51.7583
20846 2 8.19663 149.632 50.477
15279 1 0.0199909 135.226 54.2714
20880 2 1.84286 135.219 55.5486
14860 1 2.74769 133.625 54.2617
20518 2 0.925768 133.632 52.981
15239 1 5.47623 135.226 54.2714
20898 2 3.65432 135.233 52.9907
20480 2 4.57058 133.617 55.5388
20482 2 6.38201 133.632 52.981
20859 2 7.2991 135.219 55.5486
20860 2 9.11056 135.233 52.9907
14838 1 8.20393 133.625 54.2617
20473 2 10.0268 133.617 55.5388
15240 1 2.7485 136.827 54.2801
15267 1 0.0207237 138.428 54.288
20881 2 1.84357 138.423 55.5653
20884 2 0.926597 136.833 52.9994
15241 1 5.47696 138.428 54.288
20849 2 4.57136 136.821 55.5574
20861 2 6.38284 136.833 52.9994
20882 2 3.65507 138.433 53.0072
15209 1 8.20473 136.827 54.2801
20837 2 10.0276 136.821 55.5574
20847 2 7.29981 138.423 55.5653
20862 2 9.11131 138.433 53.0072
15228 1 2.74915 140.029 54.2949
15268 1 0.0212986 141.63 54.3009
20870 2 1.84414 141.626 55.5783
20883 2 0.927263 140.033 53.0141
15226 1 5.47754 141.63 54.3009
20848 2 4.57199 140.025 55.5722
20853 2 6.3835 140.033 53.0141
20885 2 3.65565 141.633 53.02
15208 1 8.20539 140.029 54.2949
20836 2 10.0282 140.025 55.5722
20850 2 7.30037 141.626 55.5783
20851 2 9.11189 141.633 53.02
15227 1 2.74964 143.231 54.306
15263 1 0.021709 144.832 54.3101
20871 2 1.84454 144.83 55.5876
20874 2 0.927763 143.233 53.0251
15229 1 5.47795 144.832 54.3101
20841 2 4.57248 143.228 55.5834
20852 2 6.384 143.233 53.0251
20872 2 3.65607 144.833 53.0293
15202 1 8.20588 143.231 54.306
20835 2 10.0287 143.228 55.5834
20839 2 7.30078 144.83 55.5876
20854 2 9.11231 144.833 53.0293
15220 1 2.74997 146.433 54.3134
15264 1 0.0219505 148.034 54.3157
20868 2 1.84478 148.034 55.5932
20873 2 0.928092 146.434 53.0325
15218 1 5.47819 148.034 54.3157
20840 2 4.5728 146.432 55.5908
20845 2 6.38433 146.434 53.0325
20875 2 3.65631 148.034 53.0348
20843 2 9.11255 148.034 53.0348
20842 2 7.30101 148.034 55.5932
20834 2 10.029 146.432 55.5908
15201 1 8.20621 146.433 54.3134
20869 2 0.928249 149.634 53.0363
15219 1 2.75013 149.635 54.3172
20844 2 6.38449 149.634 53.0363
20838 2 4.57295 149.635 55.5946
20833 2 10.0292 149.635 55.5946
15196 1 8.20636 149.635 54.3172
21132 2 0.0319998 135.206 58.1055
14858 1 0.936553 133.61 56.819
20799 2 2.75974 133.602 58.0956
21125 2 5.48824 135.206 58.1055
15238 1 3.66507 135.213 56.8288
14833 1 6.39279 133.61 56.819
15205 1 9.12131 135.213 56.8288
20769 2 8.21597 133.602 58.0956
21126 2 2.76047 136.809 58.1144
21130 2 0.0326759 138.413 58.1224
15224 1 0.937311 136.815 56.8377
21127 2 5.48891 138.413 58.1224
15206 1 6.39355 136.815 56.8377
15222 1 3.66576 138.418 56.8456
21097 2 8.21671 136.809 58.1144
15207 1 9.122 138.418 56.8456
21122 2 2.76108 140.016 58.1294
21131 2 0.0332168 141.62 58.1355
15223 1 0.937935 140.021 56.8526
21120 2 5.48946 141.62 58.1355
15199 1 6.39417 140.021 56.8526
15225 1 3.66631 141.623 56.8587
21096 2 8.21732 140.016 58.1294
15197 1 9.12255 141.623 56.8587
21121 2 2.76155 143.223 58.1407
21128 2 0.0336093 144.827 58.1449
15216 1 0.938411 143.226 56.8638
21123 2 5.48985 144.827 58.1449
15198 1 6.39465 143.226 56.8638
15214 1 3.66671 144.828 56.868
21091 2 8.21779 143.223 58.1407
15200 1 9.12295 144.828 56.868
21112 2 2.76187 146.43 58.1482
21129 2 0.0338442 148.033 58.1506
15215 1 0.938729 146.431 56.8713
21110 2 5.49008 148.033 58.1506
15195 1 6.39497 146.431 56.8713
15217 1 3.66695 148.034 56.8736
21090 2 8.2181 146.43 58.1482
15193 1 9.12318 148.034 56.8736
21111 2 2.76202 149.637 58.152
15213 1 0.938883 149.636 56.8751
15194 1 6.39512 149.636 56.8751
21077 2 8.21826 149.637 58.152
15491 1 1.85448 135.199 59.3853
15490 1 0.0444415 135.186 61.9409
15141 1 2.7722 133.58 61.9308
20797 2 0.949453 133.587 60.6514
15155 1 4.58223 133.595 59.3753
15475 1 5.50068 135.186 61.9409
21124 2 3.67794 135.192 60.6614
20749 2 6.40569 133.587 60.6514
15482 1 7.31072 135.199 59.3853
15107 1 10.0385 133.595 59.3753
21093 2 9.13418 135.192 60.6614
15105 1 8.22844 133.58 61.9308
15492 1 1.85514 138.408 59.4023
15476 1 2.7729 136.792 61.95
15486 1 0.0450888 138.398 61.9582
21118 2 0.950163 136.797 60.6704
15480 1 4.58295 136.803 59.3943
15477 1 5.50133 138.398 61.9582
21094 2 6.4064 136.797 60.6704
21116 2 3.67859 138.403 60.6785
15442 1 10.0392 136.803 59.3943
15478 1 7.31138 138.408 59.4023
15439 1 8.22914 136.792 61.95
21095 2 9.13483 138.403 60.6785
15488 1 1.85568 141.616 59.4155
15468 1 2.77349 140.003 61.9653
15487 1 0.045616 141.609 61.9715
21117 2 0.950757 140.008 60.6856
15479 1 4.58355 140.012 59.4094
15466 1 5.50185 141.609 61.9715
21088 2 6.407 140.008 60.6856
21119 2 3.67912 141.613 60.6918
15441 1 10.0398 140.012 59.4094
15481 1 7.31192 141.616 59.4155
15438 1 8.22973 140.003 61.9653
21086 2 9.13536 141.613 60.6918
15489 1 1.85607 144.825 59.4249
15467 1 2.77395 143.215 61.9767
15483 1 0.0460041 144.821 61.981
21108 2 0.951217 143.218 60.697
15472 1 4.58401 143.221 59.4207
15469 1 5.50224 144.821 61.981
21087 2 6.40746 143.218 60.697
21106 2 3.67951 144.823 60.7012
15440 1 10.0402 143.221 59.4207
15470 1 7.31231 144.825 59.4249
15431 1 8.23019 143.215 61.9767
21089 2 9.13575 144.823 60.7012
15485 1 1.8563 148.033 59.4306
15457 1 2.77426 146.427 61.9843
15484 1 0.0462396 148.033 61.9866
21107 2 0.951529 146.428 60.7045
15471 1 4.58432 146.429 59.4282
15455 1 5.50248 148.033 61.9866
21076 2 6.40777 146.428 60.7045
21109 2 3.67975 148.033 60.7069
15433 1 10.0406 146.429 59.4282
15473 1 7.31254 148.033 59.4306
15430 1 8.2305 146.427 61.9843
21074 2 9.13598 148.033 60.7069
15456 1 2.77442 149.639 61.9881
21101 2 0.951684 149.638 60.7084
15458 1 4.58448 149.638 59.432
21075 2 6.40792 149.638 60.7084
15432 1 10.0407 149.638 59.432
15417 1 8.23066 149.639 61.9881
21113 2 0.0589204 135.165 65.77
21114 2 1.86818 135.179 63.2163
15139 1 0.962644 133.564 64.4858
20733 2 2.78667 133.557 65.7597
15474 1 3.69113 135.172 64.4961
21079 2 5.51516 135.165 65.77
15086 1 6.41888 133.564 64.4858
20747 2 4.59594 133.572 63.2061
15435 1 9.14736 135.172 64.4961
21092 2 7.32442 135.179 63.2163
20697 2 8.24291 133.557 65.7597
20699 2 10.0522 133.572 63.2061
15464 1 0.963346 136.78 64.5053
21080 2 2.78739 136.774 65.7792
21102 2 0.0595872 138.382 65.7874
21115 2 1.86883 138.392 63.2336
15436 1 6.41958 136.78 64.5053
15462 1 3.69178 138.387 64.5135
21081 2 5.51583 138.382 65.7874
21084 2 4.59664 136.786 63.2255
15437 1 9.14802 138.387 64.5135
21039 2 8.24363 136.774 65.7792
21042 2 10.0529 136.786 63.2255
21082 2 7.32507 138.392 63.2336
15463 1 0.963944 139.995 64.5207
21068 2 2.788 139.991 65.7947
21103 2 0.0601319 141.599 65.8009
21104 2 1.86936 141.606 63.247
15428 1 6.42018 139.995 64.5207
15465 1 3.69231 141.603 64.5269
21066 2 5.51637 141.599 65.8009
21083 2 4.59723 139.999 63.2408
15426 1 9.14855 141.603 64.5269
21038 2 8.24423 139.991 65.7947
21041 2 10.0535 139.999 63.2408
21085 2 7.3256 141.606 63.247
15453 1 0.964411 143.21 64.5321
21067 2 2.78847 143.207 65.8062
21098 2 0.0605342 144.816 65.8105
21105 2 1.86975 144.819 63.2565
15427 1 6.42065 143.21 64.5321
15451 1 3.69271 144.818 64.5364
21069 2 5.51677 144.816 65.8105
21072 2 4.59769 143.213 63.2522
15429 1 9.14895 144.818 64.5364
21031 2 8.24471 143.207 65.8062
21040 2 10.0539 143.213 63.2522
21070 2 7.32599 144.819 63.2565
15452 1 0.964731 146.425 64.5398
21057 2 2.7888 146.424 65.8139
21099 2 0.0607804 148.032 65.8163
21100 2 1.86999 148.033 63.2622
15416 1 6.42097 146.425 64.5398
15454 1 3.69295 148.033 64.5421
21055 2 5.51702 148.032 65.8163
21071 2 4.59801 146.426 63.2598
15414 1 9.14919 148.033 64.5421
21030 2 8.24504 146.424 65.8139
21033 2 10.0542 146.426 63.2598
21073 2 7.32623 148.033 63.2622
15446 1 0.964893 149.64 64.5436
21056 2 2.78896 149.641 65.8177
15415 1 6.42113 149.64 64.5436
21058 2 4.59817 149.639 63.2637
21017 2 8.2452 149.641 65.8177
21032 2 10.0544 149.639 63.2637
15460 1 1.88189 135.159 67.0516
20731 2 0.977771 133.541 68.3112
21078 2 3.70628 135.152 68.3216
15084 1 4.60963 133.55 67.0413
20680 2 6.43401 133.541 68.3112
15434 1 7.33812 135.159 67.0516
21035 2 9.16252 135.152 68.3216
15045 1 10.0659 133.55 67.0413
15461 1 1.88257 138.378 67.0692
21064 2 0.978533 136.762 68.3309
15424 1 4.61036 136.768 67.0609
21036 2 6.43477 136.762 68.3309
21062 2 3.70699 138.372 68.3392
15387 1 10.0666 136.768 67.0609
15422 1 7.33881 138.378 67.0692
21037 2 9.16323 138.372 68.3392
15449 1 1.88313 141.596 67.0827
21063 2 0.979175 139.982 68.3465
15423 1 4.61098 139.987 67.0764
21028 2 6.43541 139.982 68.3465
21065 2 3.70756 141.592 68.3528
15386 1 10.0672 139.987 67.0764
15425 1 7.33937 141.596 67.0827
21026 2 9.1638 141.592 68.3528
15450 1 1.88354 144.815 67.0923
21053 2 0.979675 143.202 68.3581
15412 1 4.61147 143.205 67.088
21027 2 6.43591 143.202 68.3581
21051 2 3.70799 144.812 68.3624
15385 1 10.0677 143.205 67.088
15410 1 7.33978 144.815 67.0923
21029 2 9.16422 144.812 68.3624
15445 1 1.88379 148.033 67.098
21052 2 0.980017 146.422 68.3658
15411 1 4.61181 146.424 67.0956
21016 2 6.43626 146.422 68.3658
21054 2 3.70824 148.032 68.3682
15378 1 10.068 146.424 67.0956
15413 1 7.34003 148.033 67.098
21014 2 9.16448 148.032 68.3682
21046 2 0.98019 149.642 68.3696
15399 1 4.61198 149.642 67.0995
21015 2 6.43643 149.642 68.3696
15377 1 10.0682 149.642 67.0995
15459 1 0.0721948 135.145 69.6109
21060 2 1.89744 135.137 70.8682
15070 1 0.985444 133.518 72.1763
15072 1 2.79989 133.534 69.6005
15418 1 3.71405 135.131 72.1867
15419 1 5.52843 135.145 69.6109
15034 1 6.44168 133.518 72.1763
20678 2 4.62512 133.526 70.8577
15380 1 9.17029 135.131 72.1867
21034 2 7.35368 135.137 70.8682
15043 1 8.25613 133.534 69.6005
20648 2 10.0814 133.526 70.8577
15404 1 0.986387 136.744 72.1961
15420 1 2.80071 136.756 69.6202
15447 1 0.0729456 138.367 69.6286
21061 2 1.89821 138.361 70.8859
15381 1 6.44263 136.744 72.1961
15402 1 3.71492 138.357 72.2045
15421 1 5.52918 138.367 69.6286
21024 2 4.62596 136.749 70.8775
15382 1 9.17116 138.357 72.2045
15384 1 8.25694 136.756 69.6202
20992 2 10.0822 136.749 70.8775
21022 2 7.35445 138.361 70.8859
15403 1 0.987168 139.969 72.2119
15408 1 2.80139 139.978 69.6359
15448 1 0.0735538 141.589 69.6422
21049 2 1.89883 141.584 70.8996
15373 1 6.44341 139.969 72.2119
15405 1 3.71561 141.582 72.2182
15406 1 5.52979 141.589 69.6422
21023 2 4.62666 139.973 70.8932
15371 1 9.17185 141.582 72.2182
15383 1 8.25763 139.978 69.6359
20991 2 10.0829 139.973 70.8932
21025 2 7.35507 141.584 70.8996
15394 1 0.987767 143.194 72.2236
15407 1 2.80192 143.2 69.6475
15443 1 0.0740003 144.811 69.6519
21050 2 1.89928 144.807 70.9093
15372 1 6.44401 143.194 72.2236
15392 1 3.71611 144.807 72.2279
15409 1 5.53024 144.811 69.6519
21012 2 4.6272 143.196 70.9049
15374 1 9.17235 144.807 72.2279
15376 1 8.25816 143.2 69.6475
20990 2 10.0834 143.196 70.9049
21010 2 7.35552 144.807 70.9093
15393 1 0.988171 146.419 72.2313
15398 1 2.80228 146.422 69.6552
15444 1 0.0742729 148.032 69.6576
21045 2 1.89956 148.031 70.9151
15365 1 6.44441 146.419 72.2313
15395 1 3.71642 148.032 72.2338
15396 1 5.53051 148.032 69.6576
21011 2 4.62756 146.419 70.9126
15363 1 9.17266 148.032 72.2338
15375 1 8.25852 146.422 69.6552
20984 2 10.0838 146.419 70.9126
21013 2 7.3558 148.031 70.9151
15389 1 0.988375 149.644 72.2352
15397 1 2.80246 149.643 69.6591
15364 1 6.44461 149.644 72.2352
21001 2 4.62775 149.642 70.9165
15366 1 8.2587 149.643 69.6591
20983 2 10.084 149.642 70.9165
15400 1 1.84076 135.118 74.8379
21059 2 0.086902 135.123 73.4001
20666 2 0.976618 133.495 75.864
20668 2 2.81453 133.51 73.3896
21018 2 3.70534 135.11 75.8745
21019 2 5.54314 135.123 73.4001
15032 1 4.56824 133.503 74.8274
20641 2 6.43286 133.495 75.864
15379 1 7.297 135.118 74.8379
20985 2 9.16158 135.11 75.8745
15025 1 10.0245 133.503 74.8274
20646 2 8.27077 133.51 73.3896
15401 1 1.84188 138.347 74.8558
21004 2 0.977769 136.725 75.8839
21020 2 2.81547 136.736 73.4095
21047 2 0.0877641 138.35 73.4179
15369 1 4.56947 136.732 74.8474
20986 2 6.43401 136.725 75.8839
21002 2 3.70639 138.34 75.8924
21021 2 5.544 138.35 73.4179
15357 1 10.0257 136.732 74.8474
15367 1 7.29812 138.347 74.8558
20987 2 9.16262 138.34 75.8924
20989 2 8.27171 136.736 73.4095
15390 1 1.84278 141.576 74.8695
21003 2 0.978709 139.955 75.8998
21008 2 2.81625 139.963 73.4253
21048 2 0.0884495 141.576 73.4317
15368 1 4.57048 139.962 74.8631
20979 2 6.43495 139.955 75.8998
21005 2 3.70721 141.57 75.9062
21006 2 5.54469 141.576 73.4317
15356 1 10.0267 139.962 74.8631
15370 1 7.29902 141.576 74.8695
20977 2 9.16345 141.57 75.9062
20988 2 8.27249 139.963 73.4253
15391 1 1.84343 144.806 74.8793
20996 2 0.979421 143.185 75.9116
21007 2 2.81684 143.19 73.437
21043 2 0.0889456 144.803 73.4414
15361 1 4.57126 143.191 74.8749
20978 2 6.43566 143.185 75.9116
20994 2 3.70781 144.8 75.916
21009 2 5.54518 144.803 73.4414
15355 1 10.0275 143.191 74.8749
15359 1 7.29967 144.806 74.8793
20980 2 9.16405 144.8 75.916
20982 2 8.27308 143.19 73.437
15388 1 1.84382 148.035 74.8851
20995 2 0.979898 146.415 75.9194
21000 2 2.81724 146.416 73.4448
21044 2 0.0892454 148.029 73.4473
15360 1 4.57178 146.42 74.8827
20975 2 6.43614 146.415 75.9194
20997 2 3.70817 148.03 75.9219
20998 2 5.54548 148.029 73.4473
15354 1 10.028 146.42 74.8827
15362 1 7.30006 148.035 74.8851
20973 2 9.1644 148.03 75.9219
20981 2 8.27348 146.416 73.4448
20993 2 0.980136 149.645 75.9233
20999 2 2.81744 149.642 73.4487
15358 1 4.57204 149.65 74.8866
20974 2 6.43637 149.645 75.9233
15353 1 10.0283 149.65 74.8866
20976 2 8.27368 149.642 73.4487
9585 2 11.8092 1.53425 -0.859994
9593 2 13.6201 1.53118 -3.36767
3264 1 12.6961 3.09749 -2.30538
9583 2 14.5374 3.10142 -0.86157
3250 1 15.4241 1.53103 -2.30381
9555 2 17.2654 1.53425 -0.859994
9594 2 16.3484 3.09679 -3.36924
3248 1 18.1524 3.09749 -2.30538
3204 1 20.8804 1.53103 -2.30381
9558 2 19.0764 1.53118 -3.36767
9556 2 19.9936 3.10142 -0.86157
6334 2 21.8046 3.09679 -3.36924
9584 2 11.8095 4.6686 -0.864196
9589 2 13.6204 4.6624 -3.37185
3260 1 12.6966 6.23045 -2.31165
9586 2 14.5378 6.23578 -0.867873
3249 1 15.4244 4.66397 -2.30799
9549 2 17.2657 4.6686 -0.864196
9587 2 16.3488 6.22803 -3.37551
3251 1 18.1528 6.23045 -2.31165
3203 1 20.8807 4.66397 -2.30799
9557 2 19.0767 4.6624 -3.37185
9547 2 19.994 6.23578 -0.867873
6335 2 21.805 6.22803 -3.37551
9574 2 11.81 7.80297 -0.8726
9588 2 13.621 7.79368 -3.38022
3261 1 12.6973 9.36349 -2.3221
9572 2 14.5385 9.37018 -0.878376
3242 1 15.425 7.79696 -2.31636
9548 2 17.2662 7.80297 -0.8726
9590 2 16.3495 9.35935 -3.38597
3240 1 18.1535 9.36349 -2.3221
3202 1 20.8812 7.79696 -2.31636
9552 2 19.0772 7.79368 -3.38022
9550 2 19.9947 9.37018 -0.878376
6332 2 21.8057 9.35935 -3.38597
9573 2 11.8108 10.9374 -0.885202
9578 2 13.6218 10.9251 -3.39276
3256 1 12.6983 12.4967 -2.33672
9575 2 14.5394 12.5047 -0.893077
3241 1 15.4259 10.9301 -2.32889
9535 2 17.267 10.9374 -0.885202
9576 2 16.3504 12.4908 -3.40059
3243 1 18.1546 12.4967 -2.33672
3195 1 20.8821 10.9301 -2.32889
9551 2 19.078 10.9251 -3.39276
9533 2 19.9956 12.5047 -0.893077
6333 2 21.8067 12.4908 -3.40059
9566 2 11.8118 14.072 -0.902
9577 2 13.6229 14.0566 -3.40947
3257 1 12.6997 15.6302 -2.35548
9564 2 14.5405 15.6394 -0.911974
3228 1 15.4271 14.0634 -2.34559
9534 2 17.2681 14.072 -0.902
9579 2 16.3517 15.6225 -3.41938
3226 1 18.1559 15.6302 -2.35548
3194 1 20.8833 14.0634 -2.34559
9538 2 19.0791 14.0566 -3.40947
9536 2 19.9968 15.6394 -0.911974
6331 2 21.8079 15.6225 -3.41938
9565 2 11.8131 17.2069 -0.92301
9567 2 13.6243 17.1884 -3.43033
3647 1 12.7017 18.7641 -2.37854
9999 2 14.5419 18.7745 -0.935108
3227 1 15.4287 17.1971 -2.36644
9517 2 17.2693 17.2069 -0.92301
10000 2 16.3533 18.7545 -3.44232
3636 1 18.158 18.7641 -2.37854
3179 1 20.885 17.1971 -2.36644
9537 2 19.0805 17.1884 -3.43033
9962 2 19.9982 18.7745 -0.935108
6744 2 21.8095 18.7545 -3.44232
3246 1 13.624 1.53485 0.363042
9582 2 12.7165 3.10608 1.69364
9545 2 15.4445 1.53725 1.69522
3247 1 16.3523 3.10287 0.361465
9543 2 18.1727 3.10608 1.69364
3201 1 19.0803 1.53485 0.363042
9492 2 20.9007 1.53725 1.69522
186 1 21.8085 3.10287 0.361465
3238 1 13.6243 4.67089 0.358837
9570 2 12.7169 6.24374 1.68731
9544 2 15.4448 4.67491 1.691
3236 1 16.3527 6.23892 0.355159
9546 2 18.1731 6.24374 1.68731
3200 1 19.0806 4.67089 0.358837
9491 2 20.901 4.67491 1.691
187 1 21.8089 6.23892 0.355159
3237 1 13.6249 7.80696 0.350429
9571 2 12.7176 9.38143 1.67677
9531 2 15.4453 7.81258 1.68257
3239 1 16.3534 9.37502 0.344648
9529 2 18.1738 9.38143 1.67677
3193 1 19.0811 7.80696 0.350429
9490 2 20.9016 7.81258 1.68257
182 1 21.8096 9.37502 0.344648
3224 1 13.6257 10.9431 0.337817
9562 2 12.7185 12.5192 1.66201
9530 2 15.4461 10.9503 1.66992
3222 1 16.3543 12.5112 0.329937
9532 2 18.1748 12.5192 1.66201
3192 1 19.0819 10.9431 0.337817
9483 2 20.9024 10.9503 1.66992
183 1 21.8106 12.5112 0.329937
3223 1 13.6268 14.0794 0.321006
9563 2 12.7197 15.6572 1.64301
9516 2 15.4472 14.0882 1.65304
3225 1 16.3556 15.6477 0.311018
9514 2 18.176 15.6572 1.64301
3178 1 19.083 14.0794 0.321006
9482 2 20.9035 14.0882 1.65304
181 1 21.8118 15.6477 0.311018
3213 1 13.6282 17.216 0.29996
9989 2 12.7212 18.7954 1.61976
9515 2 15.4486 17.2262 1.63192
3629 1 16.3571 18.7845 0.28783
9961 2 18.1775 18.7954 1.61976
3177 1 19.0844 17.216 0.29996
9467 2 20.9048 17.2262 1.63192
574 1 21.8133 18.7845 0.28783
3234 1 11.8053 1.53841 2.96193
3232 1 14.5335 3.10808 2.96035
9541 2 13.6237 1.54081 4.263
3231 1 12.7132 3.11403 5.54279
3198 1 17.2615 1.53841 2.96193
3186 1 15.4412 1.54273 5.54437
9542 2 16.3519 3.11129 4.26142
3184 1 18.1695 3.11403 5.54279
3199 1 19.9898 3.10808 2.96035
3132 1 20.8975 1.54273 5.54437
9489 2 19.0799 1.54081 4.263
6304 2 21.8081 3.11129 4.26142
3233 1 11.8056 4.67775 2.95771
3235 1 14.5339 6.24741 2.95402
9527 2 13.6239 4.68176 4.25878
3216 1 12.7136 6.25661 5.53647
3190 1 17.2618 4.67775 2.95771
3185 1 15.4415 4.68533 5.54016
9525 2 16.3523 6.25223 4.25509
3187 1 18.1699 6.25661 5.53647
3188 1 19.9902 6.24741 2.95402
3131 1 20.8978 4.68533 5.54016
9488 2 19.0802 4.68176 4.25878
6305 2 21.8085 6.25223 4.25509
3220 1 11.8061 7.81709 2.94927
3218 1 14.5346 9.38677 2.94347
9526 2 13.6245 7.82269 4.25034
3217 1 12.7144 9.39918 5.52591
3189 1 17.2624 7.81709 2.94927
3171 1 15.4421 7.8279 5.53172
9528 2 16.353 9.39316 4.24453
3169 1 18.1706 9.39918 5.52591
3191 1 19.9909 9.38677 2.94347
3130 1 20.8983 7.8279 5.53172
9481 2 19.0807 7.82269 4.25034
6296 2 21.8092 9.39316 4.24453
3219 1 11.807 10.9565 2.93661
3221 1 14.5356 12.5262 2.92869
9512 2 13.6253 10.9636 4.23766
3208 1 12.7154 12.5418 5.51111
3175 1 17.2632 10.9565 2.93661
3170 1 15.4429 10.9705 5.51904
9510 2 16.354 12.5341 4.22974
3172 1 18.1716 12.5418 5.51111
3173 1 19.9919 12.5262 2.92869
3123 1 20.8992 10.9705 5.51904
9480 2 19.0816 10.9636 4.23766
6297 2 21.8102 12.5341 4.22974
3212 1 11.8081 14.096 2.9197
3210 1 14.5369 15.6658 2.90965
9511 2 13.6265 14.1047 4.22074
3209 1 12.7167 15.6844 5.49204
3174 1 17.2643 14.096 2.9197
3156 1 15.4441 14.1131 5.50211
9513 2 16.3553 15.6752 4.21069
3154 1 18.1729 15.6844 5.49204
3176 1 19.9931 15.6658 2.90965
3122 1 20.9003 14.1131 5.50211
9466 2 19.0827 14.1047 4.22074
6295 2 21.8115 15.6752 4.21069
3211 1 11.8095 17.2357 2.89853
9501 2 13.6279 17.2458 4.19957
3628 1 14.5384 18.8056 2.88635
3614 1 12.7183 18.8271 5.4687
3157 1 17.2657 17.2357 2.89853
3155 1 15.4455 17.2557 5.48091
9948 2 16.3568 18.8164 4.18738
3580 1 18.1745 18.8271 5.4687
3108 1 20.9018 17.2557 5.48091
9465 2 19.0841 17.2458 4.19957
3581 1 19.9947 18.8056 2.88635
6724 2 21.8131 18.8164 4.18738
3182 1 13.6209 1.54696 8.12093
9523 2 11.8032 1.54491 6.83482
9521 2 14.5314 3.11701 6.83325
9486 2 17.2594 1.54491 6.83482
3183 1 16.3492 3.11987 8.11937
3129 1 19.0772 1.54696 8.12093
9487 2 19.9876 3.11701 6.83325
142 1 21.8054 3.11987 8.11937
3167 1 13.6212 4.69277 8.11675
9522 2 11.8034 4.68909 6.83062
9524 2 14.5318 6.26117 6.82694
9478 2 17.2597 4.68909 6.83062
3165 1 16.3496 6.26565 8.11307
3128 1 19.0775 4.69277 8.11675
9476 2 19.988 6.26117 6.82694
143 1 21.8058 6.26565 8.11307
3166 1 13.6218 7.83852 8.10834
9508 2 11.804 7.83324 6.8222
9506 2 14.5325 9.4053 6.81641
9477 2 17.2602 7.83324 6.8222
3168 1 16.3503 9.41137 8.10255
3121 1 19.078 7.83852 8.10834
9479 2 19.9888 9.4053 6.81641
134 1 21.8065 9.41137 8.10255
3152 1 13.6226 10.9842 8.0957
9507 2 11.8049 10.9773 6.80955
9509 2 14.5335 12.5494 6.80164
9463 2 17.2611 10.9773 6.80955
3150 1 16.3513 12.557 8.08779
3120 1 19.0789 10.9842 8.0957
9461 2 19.9898 12.5494 6.80164
135 1 21.8075 12.557 8.08779
3151 1 13.6238 14.1298 8.07882
9500 2 11.806 14.1214 6.79266
9498 2 14.5348 15.6935 6.78262
9462 2 17.2622 14.1214 6.79266
3153 1 16.3526 15.7026 8.06878
3107 1 19.08 14.1298 8.07882
9464 2 19.991 15.6935 6.78262
133 1 21.8088 15.7026 8.06878
3141 1 13.6252 17.2754 8.05768
9499 2 11.8074 17.2655 6.77151
9947 2 14.5364 18.8376 6.75935
9448 2 17.2637 17.2655 6.77151
3565 1 16.3542 18.8482 8.04552
3106 1 19.0815 17.2754 8.05768
541 1 21.8105 18.8482 8.04552
9893 2 19.9926 18.8376 6.75935
3163 1 11.8009 1.55119 10.695
9470 2 13.6193 1.5533 11.9801
9520 2 12.7112 3.12277 9.40601
3161 1 14.5291 3.12569 10.6935
9474 2 15.4392 1.54907 9.40757
3126 1 17.2571 1.55119 10.695
9472 2 18.1674 3.12277 9.40601
9471 2 16.3476 3.12858 11.9786
9432 2 20.8954 1.54907 9.40757
9429 2 19.0756 1.5533 11.9801
3127 1 19.9854 3.12569 10.6935
6238 2 21.8038 3.12858 11.9786
3162 1 11.8012 4.70017 10.6909
9455 2 13.6196 4.70383 11.976
9504 2 12.7116 6.27011 9.39974
3164 1 14.5295 6.27463 10.6872
9473 2 15.4395 4.69645 9.4034
3118 1 17.2574 4.70017 10.6909
9475 2 18.1678 6.27011 9.39974
9453 2 16.348 6.27906 11.9724
9431 2 20.8957 4.69645 9.4034
9428 2 19.0758 4.70383 11.976
3116 1 19.9858 6.27463 10.6872
6239 2 21.8042 6.27906 11.9724
9505 2 12.7123 9.41738 9.38927
3148 1 11.8017 7.84906 10.6825
9454 2 13.6201 7.85425 11.9677
3146 1 14.5302 9.42347 10.6768
9459 2 15.44 7.84376 9.39503
9457 2 18.1685 9.41738 9.38927
3117 1 17.258 7.84906 10.6825
9456 2 16.3486 9.42942 11.962
9430 2 20.8963 7.84376 9.39503
9422 2 19.0764 7.85425 11.9677
3119 1 19.9865 9.42347 10.6768
6230 2 21.8048 9.42942 11.962
9496 2 12.7133 12.5645 9.37458
3147 1 11.8025 10.9978 10.67
9443 2 13.6209 11.0045 11.9553
3149 1 14.5312 12.5722 10.6621
9458 2 15.4409 10.991 9.38246
9460 2 18.1695 12.5645 9.37458
3104 1 17.2588 10.9978 10.67
9441 2 16.3495 12.5796 11.9475
9424 2 20.8971 10.991 9.38246
9421 2 19.0772 11.0045 11.9553
3102 1 19.9874 12.5722 10.6621
6231 2 21.8058 12.5796 11.9475
9497 2 12.7146 15.7116 9.35567
3140 1 11.8037 14.1465 10.6532
9442 2 13.622 14.1546 11.9386
3138 1 14.5324 15.7207 10.6433
9447 2 15.442 14.1381 9.36565
9445 2 18.1708 15.7116 9.35567
3103 1 17.2599 14.1465 10.6532
9444 2 16.3507 15.7296 11.9287
9423 2 20.8982 14.1381 9.36565
9415 2 19.0782 14.1546 11.9386
3105 1 19.9887 15.7207 10.6433
6229 2 21.807 15.7296 11.9287
3139 1 11.8051 17.2949 10.6322
9436 2 13.6233 17.3045 11.9178
9927 2 12.7161 18.8586 9.33252
3564 1 14.534 18.8691 10.6202
9446 2 15.4434 17.2851 9.34462
3093 1 17.2613 17.2949 10.6322
9892 2 18.1724 18.8586 9.33252
9877 2 16.3522 18.8794 11.9058
9416 2 20.8997 17.2851 9.34462
9414 2 19.0796 17.3045 11.9178
3509 1 19.9903 18.8691 10.6202
6662 2 21.8085 18.8794 11.9058
3110 1 13.618 1.55979 15.8395
9451 2 11.7998 1.55759 14.5521
3160 1 12.7094 3.13154 13.2662
9449 2 14.528 3.13442 14.5506
3114 1 15.4374 1.55547 13.2677
9426 2 17.256 1.55759 14.5521
3111 1 16.3462 3.13741 15.838
3112 1 18.1656 3.13154 13.2662
3081 1 19.0743 1.55979 15.8395
3084 1 20.8937 1.55547 13.2677
9427 2 19.9842 3.13442 14.5506
70 1 21.8025 3.13741 15.838
3096 1 13.6182 4.715 15.8355
9450 2 11.8 4.71123 14.5481
3144 1 12.7098 6.28359 13.2601
9452 2 14.5284 6.28801 14.5445
3113 1 15.4377 4.70758 13.2637
9419 2 17.2563 4.71123 14.5481
3094 1 16.3466 6.29256 15.832
3115 1 18.166 6.28359 13.2601
3080 1 19.0745 4.715 15.8355
3083 1 20.8939 4.70758 13.2637
9417 2 19.9846 6.28801 14.5445
71 1 21.8028 6.29256 15.832
3095 1 13.6187 7.87007 15.8274
9439 2 11.8005 7.86474 14.5399
9437 2 14.5289 9.44143 14.5343
3145 1 12.7104 9.43551 13.2497
3100 1 15.4382 7.85957 13.2554
9418 2 17.2567 7.86474 14.5399
3098 1 18.1666 9.43551 13.2497
3097 1 16.3471 9.44753 15.8218
3077 1 19.0749 7.87007 15.8274
3082 1 20.8944 7.85957 13.2554
9420 2 19.9852 9.44143 14.5343
62 1 21.8034 9.44753 15.8218
9438 2 11.8012 11.0181 14.5276
3088 1 13.6194 11.0249 15.8152
9440 2 14.5298 12.5946 14.5199
3136 1 12.7113 12.5872 13.2353
9412 2 17.2574 11.0181 14.5276
3099 1 15.4389 11.0114 13.243
3101 1 18.1675 12.5872 13.2353
9410 2 19.986 12.5946 14.5199
3079 1 20.8952 11.0114 13.243
3076 1 19.0756 11.0249 15.8152
9433 2 14.5309 15.7476 14.5014
3137 1 12.7125 15.7387 13.2166
9435 2 11.8022 14.1711 14.5112
3087 1 13.6203 14.1795 15.7989
3090 1 18.1687 15.7387 13.2166
9411 2 17.2584 14.1711 14.5112
3092 1 15.44 14.163 13.2265
3086 1 16.3479 12.6023 15.8076
9413 2 19.9871 15.7476 14.5014
3078 1 20.8962 14.163 13.2265
3074 1 19.0765 14.1795 15.7989
63 1 21.8041 12.6023 15.8076
9434 2 11.8034 17.3239 14.4907
3085 1 13.6214 17.3337 15.7785
9876 2 14.5323 18.9001 14.4788
3543 1 12.7139 18.8899 13.1938
9409 2 17.2596 17.3239 14.4907
3091 1 15.4413 17.3143 13.2057
3089 1 16.3489 15.7567 15.7892
3508 1 18.1702 18.8899 13.1938
61 1 21.8052 15.7567 15.7892
3073 1 19.0777 17.3337 15.7785
3075 1 20.8975 17.3143 13.2057
9833 2 19.9885 18.9001 14.4788
3454 1 11.799 1.56416 18.4105
9792 2 12.7088 3.14031 17.122
3452 1 14.5271 3.14332 18.4091
9778 2 15.4368 1.56193 17.1235
3431 1 17.2552 1.56416 18.4105
9776 2 18.165 3.14031 17.122
9732 2 20.893 1.56193 17.1235
3432 1 19.9834 3.14332 18.4091
3453 1 11.7991 4.72245 18.4066
9788 2 12.7091 6.29698 17.116
9777 2 15.437 4.71866 17.1195
3427 1 17.2554 4.72245 18.4066
9779 2 18.1653 6.29698 17.116
9731 2 20.8932 4.71866 17.1195
3447 1 11.7995 7.88059 18.3986
3455 1 14.5274 6.30155 18.4031
9770 2 15.4374 7.87524 17.1115
3426 1 17.2558 7.88059 18.3986
3425 1 19.9837 6.30155 18.4031
9730 2 20.8936 7.87524 17.1115
9789 2 12.7096 9.45345 17.1059
3446 1 11.8001 11.0385 18.3866
3445 1 14.5279 9.45957 18.3931
9769 2 15.438 11.0316 17.0994
3415 1 17.2563 11.0385 18.3866
9768 2 18.1658 9.45345 17.1059
3428 1 19.9841 9.45957 18.3931
9723 2 20.8943 11.0316 17.0994
9784 2 12.7103 12.6097 17.0918
3440 1 11.8008 14.196 18.3706
3448 1 14.5285 12.6173 18.3791
3414 1 17.2571 14.196 18.3706
9756 2 15.4388 14.1876 17.0832
9771 2 18.1665 12.6097 17.0918
3413 1 19.9848 12.6173 18.3791
9722 2 20.8951 14.1876 17.0832
9785 2 12.7112 15.7655 17.0736
3439 1 11.8018 17.3531 18.3506
3438 1 14.5294 15.7746 18.3611
3397 1 17.258 17.3531 18.3506
9755 2 15.4399 17.3433 17.063
9754 2 18.1675 15.7655 17.0736
3416 1 19.9856 15.7746 18.3611
9707 2 20.8962 17.3433 17.063
9774 2 13.6179 1.56633 19.6941
9762 2 11.7994 1.57077 22.2639
3451 1 12.7084 3.14928 20.9793
3423 1 15.4365 1.56858 20.9808
9726 2 17.2556 1.57077 22.2639
9775 2 16.3461 3.14624 19.6926
3421 1 18.1647 3.14928 20.9793
9729 2 19.0742 1.56633 19.6941
3372 1 20.8927 1.56858 20.9808
6522 2 21.8023 3.14624 19.6926
9766 2 13.6181 4.72613 19.6902
9761 2 11.7995 4.73363 22.2601
9760 2 14.5276 3.15222 22.2625
3422 1 15.4366 4.72994 20.9769
9718 2 17.2558 4.73363 22.2601
9728 2 19.0743 4.72613 19.6902
3371 1 20.8929 4.72994 20.9769
9727 2 19.9838 3.15222 22.2625
9765 2 13.6184 7.88577 19.6823
3443 1 12.7086 6.31056 20.9735
9748 2 11.7998 7.89632 22.2524
9763 2 14.5277 6.31501 22.2568
9764 2 16.3463 6.30597 19.6867
3411 1 15.4369 7.89113 20.9691
9717 2 17.256 7.89632 22.2524
3424 1 18.1649 6.31056 20.9735
9721 2 19.0746 7.88577 19.6823
3370 1 20.8931 7.89113 20.9691
9716 2 19.984 6.31501 22.2568
6523 2 21.8026 6.30597 19.6867
9752 2 13.6189 11.0451 19.6704
3444 1 12.709 9.47162 20.9637
9747 2 11.8001 11.0587 22.2408
9746 2 14.528 9.47757 22.2471
9767 2 16.3467 9.46549 19.6769
3410 1 15.4373 11.052 20.9573
9703 2 17.2563 11.0587 22.2408
3409 1 18.1652 9.47162 20.9637
9720 2 19.0751 11.0451 19.6704
3363 1 20.8936 11.052 20.9573
9719 2 19.9843 9.47757 22.2471
6518 2 21.803 9.46549 19.6769
9751 2 13.6196 14.2042 19.6546
3436 1 12.7095 12.6324 20.95
9740 2 11.8006 14.2208 22.2253
9749 2 14.5284 12.6398 22.2335
9750 2 16.3473 12.6247 19.663
3396 1 15.4379 14.2126 20.9417
9702 2 17.2568 14.2208 22.2253
3412 1 18.1657 12.6324 20.95
9706 2 19.0758 14.2042 19.6546
3362 1 20.8941 14.2126 20.9417
9701 2 19.9847 12.6398 22.2335
6519 2 21.8036 12.6247 19.663
9741 2 13.6204 17.3627 19.6348
3437 1 12.7101 15.7927 20.9324
9739 2 11.8012 17.3823 22.2059
9738 2 14.529 15.8016 22.2161
9753 2 16.3481 15.7835 19.6452
3395 1 15.4387 17.3727 20.9221
9685 2 17.2575 17.3823 22.2059
3394 1 18.1664 15.7927 20.9324
9705 2 19.0767 17.3627 19.6348
3347 1 20.8949 17.3727 20.9221
9704 2 19.9852 15.8016 22.2161
6517 2 21.8043 15.7835 19.6452
3419 1 13.6182 1.57306 23.5502
9714 2 15.4375 1.57527 24.833
3369 1 19.0744 1.57306 23.5502
9660 2 20.8938 1.57527 24.833
3407 1 13.6182 4.73747 23.5465
9759 2 12.7094 3.15824 24.8316
3420 1 16.3463 3.15528 23.5488
9713 2 15.4376 4.74118 24.8293
9712 2 18.1657 3.15824 24.8316
3368 1 19.0745 4.73747 23.5465
9659 2 20.8938 4.74118 24.8293
369 1 21.8025 3.15528 23.5488
3406 1 13.6184 7.9017 23.5388
9744 2 12.7095 6.32408 24.826
3405 1 16.3464 6.31961 23.5431
9699 2 15.4377 7.90692 24.8218
9715 2 18.1658 6.32408 24.826
3361 1 19.0747 7.9017 23.5388
9658 2 20.894 7.90692 24.8218
370 1 21.8027 6.31961 23.5431
3392 1 13.6187 11.0657 23.5273
9745 2 12.7097 9.4897 24.8165
3408 1 16.3467 9.48372 23.5335
9698 2 15.4379 11.0724 24.8104
9697 2 18.1659 9.4897 24.8165
3360 1 19.0749 11.0657 23.5273
9651 2 20.8942 11.0724 24.8104
362 1 21.8029 9.48372 23.5335
3391 1 13.6191 14.2292 23.512
9736 2 12.7099 12.655 24.8033
3390 1 16.347 12.6475 23.5201
9684 2 15.4382 14.2375 24.7952
9700 2 18.1662 12.655 24.8033
3346 1 19.0753 14.2292 23.512
9650 2 20.8944 14.2375 24.7952
363 1 21.8032 12.6475 23.5201
3381 1 13.6196 17.3923 23.4928
9737 2 12.7103 15.8199 24.7862
3393 1 16.3474 15.8109 23.5029
9683 2 15.4386 17.4021 24.7763
9682 2 18.1665 15.8199 24.7862
3345 1 19.0758 17.3923 23.4928
9636 2 20.8948 17.4021 24.7763
361 1 21.8037 15.8109 23.5029
3403 1 11.8002 1.57758 26.1189
9710 2 13.6198 1.57981 27.4013
3366 1 17.2565 1.57758 26.1189
3354 1 15.439 1.58214 28.6868
3306 1 20.8952 1.58214 28.6868
9657 2 19.0761 1.57981 27.4013
3402 1 11.8003 4.74504 26.1152
3401 1 14.5284 3.16132 26.1175
3400 1 12.7109 3.16741 28.6855
9695 2 13.6198 4.74878 27.3977
3358 1 17.2565 4.74504 26.1152
3353 1 15.439 4.75265 28.6832
9711 2 16.348 3.16431 27.4
3352 1 18.1671 3.16741 28.6855
3367 1 19.9846 3.16132 26.1175
3305 1 20.8952 4.75265 28.6832
9656 2 19.0761 4.74878 27.3977
6478 2 21.8042 3.16431 27.4
3388 1 11.8004 7.91233 26.1078
3404 1 14.5284 6.32871 26.112
3384 1 12.7109 6.33785 28.68
9694 2 13.6199 7.91758 27.3903
3357 1 17.2566 7.91233 26.1078
3339 1 15.439 7.923 28.6759
9693 2 16.348 6.3332 27.3945
3355 1 18.1671 6.33785 28.68
3356 1 19.9847 6.32871 26.112
3304 1 20.8952 7.923 28.6759
9649 2 19.0761 7.91758 27.3903
6479 2 21.8042 6.3332 27.3945
3387 1 11.8005 11.0793 26.0965
3386 1 14.5285 9.49588 26.1026
3385 1 12.7108 9.50809 28.6708
9680 2 13.6199 11.0861 27.3792
3343 1 17.2567 11.0793 26.0965
3338 1 15.4389 11.0931 28.6648
9696 2 16.348 9.50189 27.3852
3337 1 18.1671 9.50809 28.6708
3359 1 19.9848 9.49588 26.1026
3297 1 20.8952 11.0931 28.6648
9648 2 19.0762 11.0861 27.3792
6470 2 21.8043 9.50189 27.3852
3380 1 11.8007 14.246 26.0815
3389 1 14.5287 12.6627 26.0895
3376 1 12.7108 12.678 28.658
9679 2 13.62 14.2543 27.3643
3342 1 17.2569 14.246 26.0815
3325 1 15.4389 14.2628 28.6501
9678 2 16.3481 12.6703 27.3722
3340 1 18.167 12.678 28.658
3341 1 19.9849 12.6627 26.0895
3296 1 20.8952 14.2628 28.6501
9635 2 19.0763 14.2543 27.3643
6471 2 21.8043 12.6703 27.3722
3379 1 11.8009 17.4121 26.0628
3378 1 14.5289 15.8291 26.0726
3377 1 12.7108 15.8475 28.6414
9669 2 13.6201 17.422 27.3458
3326 1 17.2571 17.4121 26.0628
3324 1 15.4389 17.4321 28.6318
9681 2 16.3482 15.8382 27.3555
3323 1 18.167 15.8475 28.6414
3344 1 19.9851 15.8291 26.0726
3285 1 20.8951 17.4321 28.6318
9634 2 19.0764 17.422 27.3458
6469 2 21.8044 15.8382 27.3555
3350 1 13.622 1.58674 31.2539
9687 2 12.714 0.00143566 32.5359
9691 2 11.8026 1.58439 29.9688
9642 2 15.4421 1.58901 32.5355
9654 2 17.2588 1.58439 29.9688
9652 2 18.1702 0.00143566 32.5359
3303 1 19.0782 1.58674 31.2539
9612 2 20.8983 1.58901 32.5355
3335 1 13.6219 4.76031 31.2503
9688 2 12.7139 3.17657 32.5342
9690 2 11.8026 4.75641 29.9653
9689 2 14.5307 3.17042 29.9675
3351 1 16.3501 3.17354 31.2526
9641 2 15.442 4.7641 32.532
9646 2 17.2588 4.75641 29.9653
9640 2 18.1702 3.17657 32.5342
3302 1 19.0782 4.76031 31.2503
9611 2 20.8982 4.7641 32.532
9655 2 19.9869 3.17042 29.9675
310 1 21.8063 3.17354 31.2526
3334 1 13.6218 7.93373 31.2432
9672 2 12.7138 6.3516 32.5289
9676 2 11.8025 7.92829 29.958
9692 2 14.5306 6.34237 29.9621
3333 1 16.35 6.34705 31.2472
9628 2 15.4418 7.93906 32.5249
9645 2 17.2587 7.92829 29.958
9643 2 18.17 6.3516 32.5289
3295 1 19.078 7.93373 31.2432
9610 2 20.8981 7.93906 32.5249
9644 2 19.9869 6.34237 29.9621
311 1 21.8062 6.34705 31.2472
3321 1 13.6217 11.1069 31.2323
9673 2 12.7136 9.52646 32.52
9675 2 11.8024 11.0999 29.9471
9674 2 14.5306 9.51414 29.953
3336 1 16.3499 9.52037 31.2382
9627 2 15.4416 11.1138 32.5141
9632 2 17.2586 11.0999 29.9471
9626 2 18.1699 9.52646 32.52
3294 1 19.0779 11.1069 31.2323
9607 2 20.8979 11.1138 32.5141
9647 2 19.9868 9.51414 29.953
302 1 21.8061 9.52037 31.2382
3320 1 13.6214 14.2798 31.2179
9664 2 12.7134 12.7011 32.5074
9668 2 11.8023 14.2712 29.9325
9677 2 14.5305 12.6856 29.9403
3319 1 16.3497 12.6934 31.2256
9620 2 15.4414 14.2883 32.4998
9631 2 17.2585 14.2712 29.9325
9629 2 18.1696 12.7011 32.5074
3284 1 19.0777 14.2798 31.2179
9606 2 20.8976 14.2883 32.4998
9630 2 19.9867 12.6856 29.9403
303 1 21.8059 12.6934 31.2256
3312 1 13.6212 17.4523 31.2
9665 2 12.7131 15.8753 32.4913
9667 2 11.8022 17.4421 29.9144
9666 2 14.5304 15.8567 29.9239
3322 1 16.3494 15.8661 31.2094
9619 2 15.441 17.4623 32.482
9621 2 17.2584 17.4421 29.9144
9618 2 18.1693 15.8753 32.4913
3283 1 19.0774 17.4523 31.2
9603 2 20.8972 17.4623 32.482
9633 2 19.9866 15.8567 29.9239
301 1 21.8057 15.8661 31.2094
3331 1 11.8055 1.59138 33.8201
9638 2 13.6258 1.59366 35.1013
3348 1 14.5336 0.00303312 33.8205
3300 1 17.2617 1.59138 33.8201
9637 2 16.354 0.00454763 35.1017
3299 1 19.9898 0.00303312 33.8205
9609 2 19.0821 1.59366 35.1013
6422 2 21.8102 0.00454763 35.1017
3330 1 11.8054 4.76801 33.8166
9624 2 13.6257 4.77183 35.0979
3329 1 14.5335 3.17971 33.8188
3292 1 17.2616 4.76801 33.8166
9639 2 16.3539 3.18275 35.1
3301 1 19.9898 3.17971 33.8188
9608 2 19.082 4.77183 35.0979
6406 2 21.8101 3.18275 35.1
3332 1 14.5334 6.35629 33.8136
3317 1 11.8052 7.94453 33.8096
9623 2 13.6255 7.94989 35.0908
9622 2 16.3537 6.36088 35.0948
3291 1 17.2614 7.94453 33.8096
9605 2 19.0817 7.94989 35.0908
3290 1 19.9896 6.35629 33.8136
6407 2 21.81 6.36088 35.0948
3315 1 14.5332 9.53272 33.8047
9616 2 13.6252 11.1278 35.0802
3316 1 11.8049 11.1208 33.7989
9625 2 16.3535 9.53886 35.086
3281 1 17.2611 11.1208 33.7989
9604 2 19.0814 11.1278 35.0802
3293 1 19.9894 9.53272 33.8047
6398 2 21.8097 9.53886 35.086
3318 1 14.5328 12.7089 33.7922
9615 2 13.6247 14.3054 35.0661
3311 1 11.8045 14.2969 33.7847
9614 2 16.3531 12.7166 35.0736
3280 1 17.2608 14.2969 33.7847
6399 2 21.8093 12.7166 35.0736
3279 1 19.9891 12.7089 33.7922
9602 2 19.081 14.3054 35.0661
3309 1 14.5324 15.8848 33.7763
9613 2 13.6242 17.4827 35.0485
3310 1 11.8041 17.4726 33.767
9617 2 16.3526 15.8941 35.0578
3274 1 17.2603 17.4726 33.767
9601 2 19.0804 17.4827 35.0485
3282 1 19.9887 15.8848 33.7763
6397 2 21.8088 15.8941 35.0578
9814 2 11.8101 1.59833 37.6662
15677 1 13.6303 1.60072 38.95
3327 1 12.7176 0.00615756 36.3858
9816 2 14.5383 0.00767629 37.6666
9803 2 17.2664 1.59833 37.6662
15676 1 16.3584 0.00929528 38.9503
3288 1 15.4457 1.59604 36.3855
3298 1 18.1739 0.00615756 36.3858
9802 2 19.9945 0.00767629 37.6666
15642 1 19.0865 1.60072 38.95
3270 1 20.902 1.59604 36.3855
12864 1 21.8147 0.00929528 38.9503
9813 2 11.81 4.7796 37.6629
15673 1 13.6301 4.78355 38.9466
3328 1 12.7175 3.18591 36.3842
9812 2 14.5382 3.18897 37.665
9800 2 17.2662 4.7796 37.6629
15678 1 16.3583 3.19214 38.9487
3287 1 15.4456 4.77576 36.3821
3286 1 18.1738 3.18591 36.3842
9804 2 19.9944 3.18897 37.665
15641 1 19.0864 4.78355 38.9466
3269 1 20.9018 4.77576 36.3821
12862 1 21.8146 3.19214 38.9487
9810 2 11.8097 7.96079 37.6559
15672 1 13.6298 7.96631 38.9396
3313 1 12.7173 6.36559 36.379
9815 2 14.538 6.37021 37.6598
9799 2 17.2659 7.96079 37.6559
15671 1 16.3581 6.37494 38.9436
3277 1 15.4453 7.95539 36.3751
3289 1 18.1736 6.36559 36.379
9798 2 19.9942 6.37021 37.6598
15636 1 19.0861 7.96631 38.9396
3268 1 20.9016 7.95539 36.3751
12863 1 21.8143 6.37494 38.9436
9809 2 11.8093 11.1418 37.6454
15662 1 13.6294 11.149 38.9292
3314 1 12.717 9.54514 36.3702
9808 2 14.5376 9.55133 37.6511
9796 2 17.2655 11.1418 37.6454
15674 1 16.3577 9.55765 38.9348
3276 1 15.4449 11.1349 36.3645
3275 1 18.1733 9.54514 36.3702
9801 2 19.9939 9.55133 37.6511
15635 1 19.0856 11.149 38.9292
3267 1 20.9012 11.1349 36.3645
12860 1 21.814 9.55765 38.9348
9807 2 11.8087 14.3227 37.6314
15661 1 13.6287 14.3314 38.9152
3307 1 12.7166 12.7245 36.3579
9811 2 14.5372 12.7323 37.6388
9795 2 17.265 14.3227 37.6314
15660 1 16.3572 12.7402 38.9226
3273 1 15.4444 14.3141 36.3505
3278 1 18.1728 12.7245 36.3579
9794 2 19.9934 12.7323 37.6388
15622 1 19.085 14.3314 38.9152
3266 1 20.9007 14.3141 36.3505
12861 1 21.8134 12.7402 38.9226
9806 2 11.808 17.5033 37.614
15651 1 13.628 17.5137 38.8979
3308 1 12.716 15.9036 36.3422
9805 2 14.5365 15.913 37.6231
9793 2 17.2643 17.5033 37.614
15663 1 16.3565 15.9226 38.907
3272 1 15.4438 17.4931 36.333
3271 1 18.1722 15.9036 36.3422
9797 2 19.9928 15.913 37.6231
15621 1 19.0842 17.5137 38.8979
3265 1 20.9 17.4931 36.333
12859 1 21.8127 15.9226 38.907
21299 2 12.7231 0.0108145 40.2306
15669 1 11.8154 1.60543 41.5135
15675 1 14.5436 0.0124392 41.5139
21286 2 15.4512 1.60302 40.2303
15639 1 17.2717 1.60543 41.5135
21288 2 18.1794 0.0108145 40.2306
15638 1 19.9998 0.0124392 41.5139
21240 2 20.9075 1.60302 40.2303
21300 2 12.723 3.19522 40.229
15668 1 11.8152 4.79139 41.5102
15667 1 14.5435 3.19841 41.5123
21285 2 15.4511 4.78742 40.2269
15633 1 17.2715 4.79139 41.5102
21284 2 18.1793 3.19522 40.229
15640 1 19.9997 3.19841 41.5123
21239 2 20.9073 4.78742 40.2269
21296 2 12.7228 6.37959 40.2239
15658 1 11.8149 7.9773 41.5033
15670 1 14.5432 6.38435 41.5072
21278 2 15.4507 7.97175 40.22
15632 1 17.2711 7.9773 41.5033
21287 2 18.179 6.37959 40.2239
15631 1 19.9994 6.38435 41.5072
21238 2 20.907 7.97175 40.22
21297 2 12.7224 9.56388 40.2152
15657 1 11.8144 11.1631 41.4928
15656 1 14.5428 9.57023 41.4985
21277 2 15.4503 11.156 40.2095
15619 1 17.2706 11.1631 41.4928
21276 2 18.1786 9.56388 40.2152
15634 1 19.999 9.57023 41.4985
21231 2 20.9065 11.156 40.2095
21292 2 12.7218 12.7481 40.203
15650 1 11.8137 14.3489 41.4789
15659 1 14.5422 12.756 41.4863
15618 1 17.2699 14.3489 41.4789
21264 2 15.4496 14.3401 40.1956
21279 2 18.1781 12.7481 40.203
15617 1 19.9984 12.756 41.4863
21230 2 20.9059 14.3401 40.1956
21293 2 12.7211 15.9321 40.1873
15649 1 11.8128 17.5345 41.4616
15648 1 14.5414 15.9417 41.4707
15601 1 17.2691 17.5345 41.4616
21263 2 15.4488 17.524 40.1783
21262 2 18.1774 15.9321 40.1873
15620 1 19.9976 15.9417 41.4707
21215 2 20.9051 17.524 40.1783
21282 2 13.6367 1.60773 42.7934
15665 1 12.7293 0.0155827 44.0766
21270 2 11.8227 1.61245 45.3556
21281 2 16.3648 0.0139554 42.7938
21280 2 14.5509 0.0170924 45.356
15629 1 15.4574 1.61014 44.0762
21234 2 17.279 1.61245 45.3556
15637 1 18.1855 0.0155827 44.0766
21237 2 19.0929 1.60773 42.7934
15576 1 20.9136 1.61014 44.0762
21233 2 20.0071 0.0170924 45.356
18478 2 21.8211 0.0139554 42.7938
21274 2 13.6365 4.79527 42.79
15666 1 12.7292 3.2047 44.075
21269 2 11.8225 4.80316 45.3522
21283 2 16.3647 3.2015 42.7922
15628 1 15.4572 4.79926 44.0728
21226 2 17.2788 4.80316 45.3522
21268 2 14.5508 3.20781 45.3544
15627 1 18.1854 3.2047 44.075
21236 2 19.0927 4.79527 42.79
15575 1 20.9134 4.79926 44.0728
21235 2 20.007 3.20781 45.3544
18474 2 21.821 3.2015 42.7922
21273 2 13.6361 7.98278 42.7831
15654 1 12.7289 6.39381 44.0698
21256 2 11.8222 7.99387 45.3453
21272 2 16.3645 6.38903 42.787
15615 1 15.4568 7.98836 44.0659
21225 2 17.2784 7.99387 45.3453
21271 2 14.5505 6.39852 45.3492
15630 1 18.1852 6.39381 44.0698
21229 2 19.0924 7.98278 42.7831
15574 1 20.9131 7.98836 44.0659
21224 2 20.0067 6.39852 45.3492
18475 2 21.8207 6.38903 42.787
21260 2 13.6356 11.1702 42.7727
15655 1 12.7285 9.5829 44.0611
21255 2 11.8216 11.1846 45.3348
21275 2 16.364 9.57651 42.7783
15614 1 15.4563 11.1774 44.0555
21211 2 17.2779 11.1846 45.3348
21254 2 14.55 9.58922 45.3405
15613 1 18.1847 9.5829 44.0611
21228 2 19.0919 11.1702 42.7727
15567 1 20.9125 11.1774 44.0555
21227 2 20.0063 9.58922 45.3405
18470 2 21.8203 9.57651 42.7783
21259 2 13.6349 14.3576 42.7587
15646 1 12.7278 12.7719 44.0489
21248 2 11.8209 14.3752 45.3208
21257 2 14.5494 12.7799 45.3282
21258 2 16.3634 12.7639 42.7661
15600 1 15.4556 14.3664 44.0415
21210 2 17.2771 14.3752 45.3208
15616 1 18.1841 12.7719 44.0489
21214 2 19.0912 14.3576 42.7587
15566 1 20.9118 14.3664 44.0415
21209 2 20.0056 12.7799 45.3282
18471 2 21.8197 12.7639 42.7661
21249 2 13.634 17.5449 42.7414
15647 1 12.727 15.9609 44.0333
21247 2 11.82 17.5659 45.3033
21246 2 14.5486 15.9706 45.3125
21261 2 16.3626 15.9513 42.7505
15599 1 15.4546 17.5554 44.0241
21194 2 17.2762 17.5659 45.3033
15598 1 18.1832 15.9609 44.0333
21213 2 19.0903 17.5449 42.7414
15551 1 20.9109 17.5554 44.0241
21212 2 20.0048 15.9706 45.3125
18469 2 21.8189 15.9513 42.7505
15607 1 11.8307 1.61959 49.1987
15625 1 13.6437 1.61487 46.6379
15664 1 10.9156 0.0187194 46.6383
21266 2 12.7375 0.0202194 47.9172
15570 1 17.2869 1.61959 49.1987
15623 1 14.5588 0.0218433 49.1991
15624 1 16.3719 0.0187194 46.6383
21222 2 15.4656 1.61717 47.9168
15569 1 20.015 0.0218433 49.1991
15573 1 19.1 1.61487 46.6379
21174 2 20.9218 1.61717 47.9168
21232 2 18.1938 0.0202194 47.9172
15606 1 11.8305 4.81511 49.1953
15611 1 13.6435 4.80717 46.6345
15652 1 10.9155 3.21102 46.6367
21267 2 12.7374 3.21413 47.9156
15562 1 17.2867 4.81511 49.1953
15605 1 14.5587 3.21735 49.1974
15626 1 16.3718 3.21102 46.6367
21221 2 15.4654 4.81109 47.9134
15571 1 20.0149 3.21735 49.1974
15572 1 19.0998 4.80717 46.6345
21173 2 20.9216 4.81109 47.9134
21220 2 18.1936 3.21413 47.9156
15592 1 11.8301 8.01066 49.1883
15610 1 13.6431 7.99948 46.6276
15653 1 10.9152 6.40333 46.6315
21252 2 12.7371 6.40805 47.9104
15561 1 17.2863 8.01066 49.1883
15608 1 14.5584 6.41288 49.1922
15609 1 16.3715 6.40333 46.6315
21207 2 15.465 8.00502 47.9064
15560 1 20.0146 6.41288 49.1922
15565 1 19.0994 7.99948 46.6276
21172 2 20.9213 8.00502 47.9064
21223 2 18.1934 6.40805 47.9104
15591 1 11.8295 11.2062 49.1777
15596 1 13.6426 11.1918 46.6171
15644 1 10.9148 9.59564 46.6228
21253 2 12.7367 9.60199 47.9016
15547 1 17.2858 11.2062 49.1777
15590 1 14.5579 9.60845 49.1834
15612 1 16.371 9.59564 46.6228
21206 2 15.4645 11.199 47.8959
15563 1 20.0142 9.60845 49.1834
15564 1 19.0988 11.1918 46.6171
21165 2 20.9207 11.199 47.8959
21205 2 18.1929 9.60199 47.9016
15584 1 11.8288 14.4019 49.1635
15595 1 13.6418 14.3841 46.603
15645 1 10.9141 12.788 46.6105
21244 2 12.736 12.796 47.8893
15546 1 17.285 14.4019 49.1635
15593 1 14.5573 12.8041 49.171
15594 1 16.3704 12.788 46.6105
21193 2 15.4638 14.393 47.8818
15545 1 20.0135 12.8041 49.171
15550 1 19.0981 14.3841 46.603
21164 2 20.92 14.393 47.8818
21208 2 18.1923 12.796 47.8893
15583 1 11.8279 17.5976 49.1458
15585 1 13.6409 17.5765 46.5855
15643 1 10.9133 15.9803 46.5947
21245 2 12.7352 15.99 47.8734
15532 1 17.2841 17.5976 49.1458
15582 1 14.5565 15.9997 49.1551
15597 1 16.3695 15.9803 46.5947
21192 2 15.4629 17.587 47.8641
15548 1 20.0127 15.9997 49.1551
15549 1 19.0972 17.5765 46.5855
21153 2 20.9191 17.587 47.8641
21191 2 18.1915 15.99 47.8734
15603 1 12.7463 0.0249491 51.7589
21218 2 13.6529 1.62189 50.4771
21265 2 10.9248 0.0233308 50.4775
15558 1 15.4744 1.62432 51.7585
21217 2 16.381 0.0233308 50.4775
15516 1 20.9307 1.62432 51.7585
15568 1 18.2026 0.0249491 51.7589
21171 2 19.1091 1.62189 50.4771
15604 1 12.7462 3.22369 51.7572
21203 2 13.6527 4.81904 50.4737
21250 2 10.9247 3.22046 50.4758
15557 1 15.4742 4.82308 51.755
21219 2 16.3809 3.22046 50.4758
15515 1 20.9305 4.82308 51.755
15556 1 18.2025 3.22369 51.7572
21170 2 19.1089 4.81904 50.4737
15588 1 12.746 6.42248 51.7519
21202 2 13.6523 8.01622 50.4666
21251 2 10.9244 6.41762 50.4706
15543 1 15.4739 8.02189 51.7479
21201 2 16.3806 6.41762 50.4706
15514 1 20.9301 8.02189 51.7479
15559 1 18.2022 6.42248 51.7519
21163 2 19.1085 8.01622 50.4666
15589 1 12.7455 9.62132 51.743
21189 2 13.6518 11.2135 50.456
21242 2 10.9239 9.61483 50.4617
15542 1 15.4733 11.2208 51.7372
21204 2 16.3802 9.61483 50.4617
15508 1 20.9296 11.2208 51.7372
15541 1 18.2017 9.62132 51.743
21162 2 19.108 11.2135 50.456
15580 1 12.7449 12.8202 51.7305
21188 2 13.6511 14.4108 50.4417
21243 2 10.9233 12.8121 50.4493
15531 1 15.4726 14.4197 51.7229
21187 2 16.3795 12.8121 50.4493
15507 1 20.9289 14.4197 51.7229
15544 1 18.2011 12.8202 51.7305
21152 2 19.1073 14.4108 50.4417
15581 1 12.7441 16.0193 51.7143
21180 2 13.6502 17.6082 50.4238
21241 2 10.9225 16.0095 50.4332
15530 1 15.4718 17.6189 51.7049
21190 2 16.3788 16.0095 50.4332
15500 1 20.928 17.6189 51.7049
15529 1 18.2004 16.0193 51.7143
21151 2 19.1064 17.6082 50.4238
15554 1 13.6626 1.62903 54.3173
15602 1 10.9345 0.0280321 54.3177
21195 2 12.7573 0.0294868 55.5951
21199 2 11.8407 1.6266 53.0364
15553 1 16.3907 0.0280321 54.3177
21156 2 15.4854 1.6313 55.5947
21168 2 17.2969 1.6266 53.0364
21216 2 14.5689 0.0264215 53.0368
15513 1 19.1188 1.62903 54.3173
21138 2 20.9417 1.6313 55.5947
21166 2 18.2136 0.0294868 55.5951
21167 2 20.0251 0.0264215 53.0368
15539 1 13.6624 4.83106 54.3138
15586 1 10.9344 3.23004 54.316
21196 2 12.7572 3.23313 55.5934
21198 2 11.8405 4.82701 53.0329
15555 1 16.3906 3.23004 54.316
21155 2 15.4852 4.83498 55.5912
21160 2 17.2968 4.82701 53.0329
21197 2 14.5688 3.2268 53.0351
15512 1 19.1186 4.83106 54.3138
21137 2 20.9415 4.83498 55.5912
21154 2 18.2135 3.23313 55.5934
21169 2 20.025 3.2268 53.0351
15538 1 13.6621 8.03316 54.3066
15587 1 10.9341 6.4321 54.3107
21181 2 12.757 6.43684 55.588
21185 2 11.8402 8.02746 53.0258
15537 1 16.3904 6.4321 54.3107
21145 2 15.4849 8.03873 55.584
21159 2 17.2964 8.02746 53.0258
21200 2 14.5685 6.42723 53.0298
15506 1 19.1183 8.03316 54.3066
21136 2 20.9411 8.03873 55.584
21157 2 18.2132 6.43684 55.588
21158 2 20.0247 6.42723 53.0298
15527 1 13.6615 11.2353 54.2958
15578 1 10.9337 9.63424 54.3017
21182 2 12.7565 9.64063 55.579
21184 2 11.8397 11.228 53.015
15540 1 16.3899 9.63424 54.3017
21144 2 15.4844 11.2426 55.573
21149 2 17.2959 11.228 53.015
21183 2 14.568 9.62772 53.0208
15505 1 19.1178 11.2353 54.2958
21135 2 20.9406 11.2426 55.573
21143 2 18.2128 9.64063 55.579
21161 2 20.0243 9.62772 53.0208
15526 1 13.6609 14.4377 54.2812
15579 1 10.9331 12.8365 54.289
21175 2 12.756 12.8445 55.5662
21179 2 11.839 14.4286 53.0005
15525 1 16.3893 12.8365 54.289
21141 2 15.4838 14.4466 55.5584
21148 2 17.2952 14.4286 53.0005
21186 2 14.5675 12.8283 53.0082
15499 1 19.1171 14.4377 54.2812
21134 2 20.94 14.4466 55.5584
21146 2 18.2122 12.8445 55.5662
21147 2 20.0237 12.8283 53.0082
21178 2 11.8382 17.6295 52.9824
21176 2 12.7553 16.0486 55.5496
15577 1 10.9324 16.0389 54.2726
15520 1 13.6601 17.6402 54.263
21177 2 14.5667 16.029 52.9919
21142 2 17.2944 17.6295 52.9824
21140 2 15.483 17.6508 55.5399
15528 1 16.3886 16.0389 54.2726
21150 2 20.0229 16.029 52.9919
21139 2 18.2115 16.0486 55.5496
21133 2 20.9392 17.6508 55.5399
15498 1 19.1163 17.6402 54.263
21485 2 13.6745 1.63598 58.1521
21492 2 10.9464 0.0325227 58.1525
15535 1 11.8513 1.63372 56.8752
21484 2 16.4026 0.0325227 58.1525
15510 1 17.3076 1.63372 56.8752
15552 1 14.5795 0.0310887 56.8756
21450 2 19.1307 1.63598 58.1521
15509 1 20.0357 0.0310887 56.8756
21481 2 13.6743 4.84294 58.1485
21490 2 10.9463 3.23945 58.1507
15534 1 11.8512 4.83904 56.8716
21486 2 16.4025 3.23945 58.1507
15503 1 17.3074 4.83904 56.8716
15533 1 14.5794 3.23637 56.8738
21449 2 19.1306 4.84294 58.1485
15511 1 20.0356 3.23637 56.8738
21480 2 13.674 8.04999 58.1411
21491 2 10.9461 6.44645 58.1453
15523 1 11.8508 8.04444 56.8643
21479 2 16.4023 6.44645 58.1453
15502 1 17.3071 8.04444 56.8643
15536 1 14.5791 6.44173 56.8684
21444 2 19.1302 8.04999 58.1411
15501 1 20.0354 6.44173 56.8684
21470 2 13.6735 11.2572 58.1301
21488 2 10.9456 9.65356 58.1361
15522 1 11.8503 11.25 56.8533
21482 2 16.4019 9.65356 58.1361
15496 1 17.3066 11.25 56.8533
15521 1 14.5787 9.64718 56.8593
21443 2 19.1297 11.2572 58.1301
15504 1 20.035 9.64718 56.8593
21469 2 13.6729 14.4645 58.1152
21489 2 10.9451 12.8608 58.1231
15519 1 11.8497 14.4556 56.8386
21468 2 16.4013 12.8608 58.1231
15495 1 17.306 14.4556 56.8386
15524 1 14.5782 12.8528 56.8464
21430 2 19.1291 14.4645 58.1152
15494 1 20.0344 12.8528 56.8464
21459 2 13.6722 17.6721 58.0965
21487 2 10.9444 16.0682 58.1063
15518 1 11.849 17.6615 56.82
21471 2 16.4007 16.0682 58.1063
15493 1 17.3052 17.6615 56.82
15517 1 14.5775 16.0585 56.8298
21429 2 19.1284 17.6721 58.0965
15497 1 20.0337 16.0585 56.8298
15851 1 12.7689 0.0341188 59.4325
15834 1 13.6869 1.64306 61.9881
15850 1 10.9588 0.0371346 61.9886
21477 2 11.8642 1.64063 60.7084
15838 1 15.4969 1.6384 59.4321
15833 1 16.415 0.0371346 61.9886
21447 2 17.3204 1.64063 60.7084
21483 2 14.5923 0.0355248 60.7089
15792 1 20.9532 1.6384 59.4321
15840 1 18.2251 0.0341188 59.4325
15789 1 19.1431 1.64306 61.9881
21446 2 20.0485 0.0355248 60.7089
15852 1 12.7688 3.2427 59.4307
15826 1 13.6867 4.85498 61.9844
15846 1 10.9587 3.24901 61.9868
21476 2 11.864 4.85088 60.7048
15837 1 15.4968 4.84702 59.4285
15835 1 16.4149 3.24901 61.9868
21441 2 17.3202 4.85088 60.7048
21475 2 14.5922 3.24574 60.7071
15791 1 20.953 4.84702 59.4285
15836 1 18.225 3.2427 59.4307
15788 1 19.143 4.85498 61.9844
21448 2 20.0484 3.24574 60.7071
15848 1 12.7685 6.45136 59.4252
15825 1 13.6864 8.067 61.977
15847 1 10.9585 6.46098 61.9812
21466 2 11.8637 8.06123 60.6973
15830 1 15.4964 8.05573 59.4211
15824 1 16.4147 6.46098 61.9812
21440 2 17.3199 8.06123 60.6973
21478 2 14.592 6.45604 60.7015
15790 1 20.9527 8.05573 59.4211
15839 1 18.2247 6.45136 59.4252
15781 1 19.1426 8.067 61.977
21439 2 20.0482 6.45604 60.7015
15849 1 12.7681 9.66013 59.416
15812 1 13.6859 11.2792 61.9657
15842 1 10.9581 9.67306 61.9718
21465 2 11.8632 11.2717 60.6861
15829 1 15.496 11.2646 59.4099
15827 1 16.4143 9.67306 61.9718
21427 2 17.3194 11.2717 60.6861
21464 2 14.5916 9.66646 60.6922
15783 1 20.9522 11.2646 59.4099
15828 1 18.2243 9.66013 59.416
15780 1 19.1422 11.2792 61.9657
21442 2 20.0478 9.66646 60.6922
15844 1 12.7676 12.869 59.4029
15811 1 13.6854 14.4915 61.9505
15843 1 10.9575 12.8853 61.9586
21458 2 11.8626 14.4824 60.671
15816 1 15.4954 14.4736 59.395
15810 1 16.4138 12.8853 61.9586
21426 2 17.3189 14.4824 60.671
21467 2 14.591 12.877 60.679
15782 1 20.9516 14.4736 59.395
15831 1 18.2238 12.869 59.4029
15766 1 19.1416 14.4915 61.9505
21425 2 20.0473 12.877 60.679
15845 1 12.7669 16.0782 59.386
15801 1 13.6847 17.7041 61.9314
15841 1 10.9569 16.0978 61.9414
21457 2 11.8619 17.6933 60.652
15815 1 15.4947 17.6828 59.3761
15813 1 16.4131 16.0978 61.9414
21409 2 17.3182 17.6933 60.652
21456 2 14.5904 16.0878 60.662
15767 1 20.9509 17.6828 59.3761
15814 1 18.2232 16.0782 59.386
15765 1 19.1409 17.7041 61.9314
21428 2 20.0466 16.0878 60.662
15822 1 11.8774 1.64778 64.5436
21433 2 13.7014 1.64975 65.8177
21472 2 10.9733 0.0413734 65.8182
21473 2 12.7825 0.0384847 63.2642
15786 1 17.3336 1.64778 64.5436
15832 1 14.6055 0.0402031 64.5441
21432 2 16.4296 0.0413735 65.8182
21437 2 15.5106 1.64523 63.2637
15785 1 20.0617 0.0402031 64.5441
21381 2 19.1577 1.64975 65.8177
21384 2 20.9669 1.64523 63.2637
21445 2 18.2388 0.0384847 63.2642
15821 1 11.8772 4.86299 64.5399
21419 2 13.7013 4.86655 65.8139
21460 2 10.9733 3.25814 65.8163
21474 2 12.7825 3.25199 63.2623
15778 1 17.3334 4.86299 64.5399
15820 1 14.6054 3.25537 64.5422
21434 2 16.4295 3.25814 65.8163
21436 2 15.5105 4.85877 63.26
15787 1 20.0617 3.25537 64.5422
21380 2 19.1575 4.86655 65.8139
21383 2 20.9667 4.85877 63.26
21435 2 18.2387 3.25199 63.2623
15808 1 11.8769 8.07831 64.5323
21418 2 13.7009 8.08348 65.8063
21461 2 10.973 6.475 65.8106
21462 2 12.7822 6.46558 63.2567
15777 1 17.3331 8.07831 64.5323
15823 1 14.6052 6.47063 64.5365
21417 2 16.4292 6.475 65.8106
21423 2 15.5102 8.07242 63.2525
15776 1 20.0614 6.47063 64.5365
21373 2 19.1572 8.08348 65.8063
21382 2 20.9664 8.07242 63.2525
21438 2 18.2385 6.46558 63.2567
15807 1 11.8764 11.2938 64.5209
21404 2 13.7005 11.3006 65.7948
21452 2 10.9726 9.69201 65.8011
21463 2 12.7818 9.6793 63.2473
15763 1 17.3326 11.2938 64.5209
15806 1 14.6048 9.68603 64.5271
21420 2 16.4288 9.69201 65.8011
21422 2 15.5097 11.2862 63.2411
15779 1 20.061 9.68603 64.5271
21372 2 19.1567 11.3006 65.7948
21375 2 20.9659 11.2862 63.2411
21421 2 18.2381 9.6793 63.2473
15800 1 11.8758 14.5095 64.5055
21403 2 13.6999 14.5179 65.7794
21453 2 10.9721 12.9092 65.7876
21454 2 12.7813 12.8932 63.2339
15762 1 17.3321 14.5095 64.5055
15809 1 14.6042 12.9016 64.5137
21402 2 16.4283 12.9092 65.7876
21408 2 15.5091 14.5002 63.2258
15761 1 20.0605 12.9016 64.5137
21358 2 19.1561 14.5179 65.7794
21374 2 20.9653 14.5002 63.2258
21424 2 18.2375 12.8932 63.2339
15799 1 11.8751 17.7254 64.4861
21393 2 13.6992 17.7355 65.7599
21451 2 10.9714 16.1267 65.7701
21455 2 12.7807 16.1073 63.2167
15746 1 17.3314 17.7254 64.4861
15798 1 14.6036 16.1174 64.4963
21405 2 16.4276 16.1267 65.7701
21407 2 15.5084 17.7145 63.2065
15764 1 20.0598 16.1174 64.4963
21357 2 19.1554 17.7355 65.7599
21359 2 20.9647 17.7145 63.2065
21406 2 18.2369 16.1073 63.2167
15818 1 12.7964 0.0436521 67.0999
21415 2 11.8927 1.65405 68.3696
15774 1 15.5245 1.65286 67.0995
21378 2 17.3489 1.65405 68.3696
21431 2 14.6208 0.0440624 68.3701
15726 1 20.9807 1.65286 67.0995
15784 1 18.2526 0.0436521 67.0999
21377 2 20.077 0.0440624 68.3701
15819 1 12.7963 3.2621 67.098
21414 2 11.8925 4.87409 68.3658
15773 1 15.5243 4.87135 67.0956
21370 2 17.3487 4.87409 68.3658
21413 2 14.6207 3.26406 68.3682
15725 1 20.9805 4.87135 67.0956
15772 1 18.2525 3.2621 67.098
21379 2 20.077 3.26406 68.3682
15804 1 12.796 6.48064 67.0923
21400 2 11.8922 8.09426 68.3581
15759 1 15.5239 8.08997 67.088
21369 2 17.3484 8.09426 68.3581
21416 2 14.6205 6.48416 68.3624
15724 1 20.9802 8.08997 67.088
15775 1 18.2523 6.48064 67.0923
21368 2 20.0767 6.48416 68.3624
15805 1 12.7956 9.69934 67.0827
21399 2 11.8917 11.3146 68.3465
15758 1 15.5235 11.3088 67.0764
21355 2 17.3479 11.3146 68.3465
21398 2 14.62 9.70442 68.3528
15717 1 20.9797 11.3088 67.0764
15757 1 18.2518 9.69934 67.0827
21371 2 20.0763 9.70442 68.3528
15796 1 12.795 12.9182 67.0692
21392 2 11.891 14.5352 68.3309
15745 1 15.5228 14.5277 67.0609
21354 2 17.3472 14.5352 68.3309
21401 2 14.6195 12.9249 68.3392
15716 1 20.9791 14.5277 67.0609
15760 1 18.2513 12.9182 67.0692
21353 2 20.0757 12.9249 68.3392
15797 1 12.7944 16.1373 67.0516
21391 2 11.8902 17.7561 68.3112
15744 1 15.5221 17.747 67.0413
21340 2 17.3465 17.7561 68.3112
21390 2 14.6188 16.1456 68.3216
15705 1 20.9783 17.747 67.0413
15743 1 18.2506 16.1373 67.0516
21356 2 20.075 16.1456 68.3216
15751 1 11.9009 1.66181 72.2352
15770 1 13.7149 1.6573 69.6591
15817 1 10.9868 0.046446 69.6596
21411 2 12.8121 0.0460302 70.917
15720 1 17.3571 1.66181 72.2352
15768 1 14.629 0.0492743 72.2357
15769 1 16.4431 0.046446 69.6596
21366 2 15.5402 1.6576 70.9165
15719 1 20.0852 0.0492743 72.2357
15723 1 19.1712 1.6573 69.6591
21324 2 20.9965 1.6576 70.9165
21376 2 18.2684 0.0460302 70.917
15750 1 11.9006 4.88694 72.2313
15755 1 13.7148 4.87906 69.6552
15802 1 10.9867 3.26817 69.6576
21412 2 12.812 3.2692 70.9151
15712 1 17.3569 4.88694 72.2313
15749 1 14.6289 3.27436 72.2338
15771 1 16.443 3.26817 69.6576
21365 2 15.54 4.88082 70.9126
15721 1 20.0851 3.27436 72.2338
15722 1 19.171 4.87906 69.6552
21323 2 20.9963 4.88082 70.9126
21364 2 18.2683 3.2692 70.9151
15737 1 11.9002 8.1122 72.2236
15754 1 13.7144 8.10096 69.6475
15803 1 10.9865 6.48999 69.6519
21396 2 12.8118 6.49248 70.9093
15711 1 17.3565 8.1122 72.2236
15752 1 14.6286 6.49955 72.2279
15753 1 16.4427 6.48999 69.6519
21351 2 15.5397 8.10418 70.9049
15710 1 20.0848 6.49955 72.2279
15715 1 19.1706 8.10096 69.6475
21322 2 20.9959 8.10418 70.9049
21367 2 18.268 6.49248 70.9093
15736 1 11.8996 11.3376 72.2119
15741 1 13.7139 11.323 69.6359
15794 1 10.986 9.71197 69.6422
21397 2 12.8113 9.71594 70.8996
15701 1 17.3559 11.3376 72.2119
15735 1 14.6281 9.7249 72.2182
15756 1 16.4423 9.71197 69.6422
21350 2 15.5391 11.3278 70.8932
15713 1 20.0843 9.7249 72.2182
15714 1 19.1701 11.323 69.6359
21316 2 20.9954 11.3278 70.8932
21349 2 18.2675 9.71594 70.8996
15731 1 11.8989 14.5633 72.1961
15740 1 13.7132 14.5453 69.6202
15795 1 10.9854 12.9342 69.6286
21388 2 12.8107 12.9396 70.8859
15700 1 17.3551 14.5633 72.1961
15738 1 14.6274 12.9504 72.2045
15739 1 16.4417 12.9342 69.6286
21339 2 15.5384 14.5516 70.8775
15699 1 20.0836 12.9504 72.2045
15704 1 19.1694 14.5453 69.6202
21315 2 20.9947 14.5516 70.8775
21352 2 18.2669 12.9396 70.8859
15730 1 11.8979 17.7892 72.1763
15732 1 13.7124 17.7679 69.6005
15793 1 10.9847 16.1566 69.6109
21389 2 12.8099 16.1636 70.8682
15694 1 17.3542 17.7892 72.1763
15729 1 14.6265 16.1762 72.1867
15742 1 16.4409 16.1566 69.6109
21338 2 15.5376 17.7757 70.8577
15702 1 20.0828 16.1762 72.1867
15703 1 19.1686 17.7679 69.6005
21308 2 20.9938 17.7757 70.8577
21337 2 18.2662 16.1636 70.8682
15747 1 12.7564 0.0567013 74.8871
21343 2 11.8926 1.66752 75.9233
21362 2 13.7299 1.66064 73.4487
21410 2 11.0018 0.0475069 73.4492
15708 1 15.4845 1.67141 74.8866
21318 2 17.3489 1.66752 75.9233
21360 2 14.6208 0.0525429 75.9238
21361 2 16.4581 0.0475069 73.4492
15690 1 20.9408 1.67141 74.8866
15718 1 18.2127 0.0567013 74.8871
21317 2 20.077 0.0525429 75.9238
21321 2 19.1862 1.66064 73.4487
15748 1 12.7563 3.28614 74.8851
21342 2 11.8924 4.89754 75.9194
21347 2 13.7297 4.88698 73.4448
21394 2 11.0017 3.27379 73.4473
15707 1 15.4843 4.90088 74.8827
21311 2 17.3486 4.89754 75.9194
21341 2 14.6206 3.28252 75.9219
21363 2 16.458 3.27379 73.4473
15689 1 20.9405 4.90088 74.8827
15706 1 18.2125 3.28614 74.8851
21319 2 20.0769 3.28252 75.9219
21320 2 19.186 4.88698 73.4448
15733 1 12.7559 6.51562 74.8793
21331 2 11.8919 8.12767 75.9116
21346 2 13.7293 8.11348 73.437
21395 2 11.0014 6.5002 73.4414
15697 1 15.4837 8.13038 74.8749
21310 2 17.3481 8.12767 75.9116
21344 2 14.6203 6.51258 75.916
21345 2 16.4577 6.5002 73.4414
15688 1 20.94 8.13038 74.8749
15709 1 18.2121 6.51562 74.8793
21309 2 20.0765 6.51258 75.916
21314 2 19.1856 8.11348 73.437
15734 1 12.7553 9.74515 74.8695
21330 2 11.8912 11.358 75.8998
21335 2 13.7287 11.3402 73.4253
21386 2 11.0009 9.72681 73.4317
15696 1 15.483 11.3599 74.8631
21304 2 17.3474 11.358 75.8998
21329 2 14.6197 9.74279 75.9062
21348 2 16.4572 9.72681 73.4317
15687 1 20.9392 11.3599 74.8631
15695 1 18.2115 9.74515 74.8695
21312 2 20.0759 9.74279 75.9062
21313 2 19.185 11.3402 73.4253
15727 1 12.7544 12.9747 74.8558
21327 2 11.8902 14.5884 75.8839
21334 2 13.728 14.5672 73.4095
21387 2 11.0002 12.9537 73.4179
15693 1 15.4819 14.5895 74.8474
21303 2 17.3465 14.5884 75.8839
21332 2 14.6189 12.9732 75.8924
21333 2 16.4565 12.9537 73.4179
15686 1 20.9382 14.5895 74.8474
15698 1 18.2106 12.9747 74.8558
21302 2 20.0751 12.9732 75.8924
21307 2 19.1842 14.5672 73.4095
15728 1 12.7532 16.2042 74.8379
21326 2 11.8891 17.8191 75.864
21328 2 13.727 17.7946 73.3896
21385 2 10.9994 16.1809 73.4001
15692 1 15.4807 17.8189 74.8274
21301 2 17.3453 17.8191 75.864
21325 2 14.6178 16.2037 75.8745
21336 2 16.4556 16.1809 73.4001
15685 1 20.937 17.8189 74.8274
15691 1 18.2095 16.2042 74.8379
21305 2 20.0741 16.2037 75.8745
21306 2 19.1832 17.7946 73.3896
9993 2 11.8146 20.3422 -0.948255
10001 2 13.6261 20.3207 -3.45534
3648 1 12.7045 21.8988 -2.40582
9991 2 14.5435 21.9101 -0.962428
3634 1 15.4312 20.3313 -2.39168
9963 2 17.2708 20.3422 -0.948255
10002 2 16.3552 21.8872 -3.46936
3632 1 18.1607 21.8988 -2.40582
3588 1 20.8874 20.3313 -2.39168
9966 2 19.0823 20.3207 -3.45534
9964 2 19.9997 21.9101 -0.962428
6742 2 21.8114 21.8872 -3.46936
9992 2 11.8163 23.4782 -0.977614
9997 2 13.6282 23.454 -3.48438
3644 1 12.7077 25.0344 -2.43711
9994 2 14.5453 25.0465 -0.993795
3633 1 15.4341 23.4665 -2.42097
9957 2 17.2725 23.4782 -0.977614
9995 2 16.3575 25.021 -3.50037
3635 1 18.164 25.0344 -2.43711
3587 1 20.8904 23.4665 -2.42097
9965 2 19.0844 23.454 -3.48438
9955 2 20.0015 25.0465 -0.993795
6743 2 21.8137 25.021 -3.50037
9982 2 11.8181 26.615 -1.01095
9996 2 13.6306 26.5883 -3.51731
3645 1 12.7116 28.1714 -2.47228
9980 2 14.5472 28.1838 -1.02905
3626 1 15.4377 26.6027 -2.45423
9956 2 17.2744 26.615 -1.01095
9998 2 16.36 28.156 -3.53517
3624 1 18.1678 28.1714 -2.47228
3586 1 20.8939 26.6027 -2.45423
9960 2 19.0868 26.5883 -3.51731
9958 2 20.0035 28.1838 -1.02905
6740 2 21.8163 28.156 -3.53517
9981 2 11.8201 29.753 -1.04807
9986 2 13.6333 29.7242 -3.55392
3640 1 12.716 31.3101 -2.5111
9983 2 14.5493 31.3225 -1.06797
3625 1 15.4418 29.7405 -2.49126
9943 2 17.2764 29.753 -1.04807
9984 2 16.3629 31.2928 -3.57352
3627 1 18.1723 31.3101 -2.5111
3579 1 20.8981 29.7405 -2.49126
9959 2 19.0895 29.7242 -3.55392
9941 2 20.0055 31.3225 -1.06797
6741 2 21.8191 31.2928 -3.57352
9974 2 11.8222 32.8925 -1.08869
9985 2 13.6363 32.8619 -3.59392
3641 1 12.7211 34.4508 -2.55323
3612 1 15.4466 32.8801 -2.53178
9942 2 17.2785 32.8925 -1.08869
9972 2 14.5514 34.4629 -1.1102
9987 2 16.366 34.4316 -3.61506
3610 1 18.1774 34.4508 -2.55323
3578 1 20.9029 32.8801 -2.53178
9946 2 19.0925 32.8619 -3.59392
9944 2 20.0077 34.4629 -1.1102
6739 2 21.8222 34.4316 -3.61506
9973 2 11.8244 36.0338 -1.13241
9975 2 13.6395 36.002 -3.63688
4031 1 12.7268 37.5939 -2.5982
10416 2 10.9131 37.5731 -3.65931
3611 1 15.452 36.022 -2.57539
9925 2 17.2806 36.0338 -1.13241
10407 2 14.5536 37.6053 -1.15527
10408 2 16.3694 37.5731 -3.65931
4020 1 18.1831 37.5939 -2.5982
3563 1 20.9083 36.022 -2.57539
9945 2 19.0958 36.002 -3.63688
10370 2 20.0098 37.6053 -1.15527
3630 1 13.6298 20.353 0.274643
9990 2 12.7229 21.934 1.5923
9953 2 15.4502 20.3646 1.60655
3631 1 16.3589 21.9218 0.260421
9951 2 18.1792 21.934 1.5923
3585 1 19.0861 20.353 0.274643
9900 2 20.9064 20.3646 1.60655
570 1 21.8151 21.9218 0.260421
3622 1 13.6317 23.4907 0.24518
9978 2 12.7249 25.0731 1.56072
9952 2 15.452 23.5034 1.57701
3620 1 16.3609 25.0598 0.228935
9954 2 18.1811 25.0731 1.56072
3584 1 19.088 23.4907 0.24518
9899 2 20.9082 23.5034 1.57701
571 1 21.8172 25.0598 0.228935
3621 1 13.6339 26.6291 0.211708
9979 2 12.7271 28.213 1.5252
9939 2 15.4541 26.6429 1.54344
3623 1 16.3632 28.1987 0.193524
9937 2 18.1833 28.213 1.5252
3577 1 19.0902 26.6291 0.211708
9898 2 20.9103 26.6429 1.54344
566 1 21.8194 28.1987 0.193524
3608 1 13.6363 29.7686 0.174413
9970 2 12.7294 31.3539 1.48595
9938 2 15.4563 29.7833 1.50602
3606 1 16.3657 31.3389 0.154414
9940 2 18.1856 31.3539 1.48595
3576 1 19.0926 29.7686 0.174413
9891 2 20.9126 29.7833 1.50602
567 1 21.8219 31.3389 0.154414
3607 1 13.6389 32.9095 0.133574
9971 2 12.7319 34.4961 1.44331
9924 2 15.4587 32.9248 1.46503
3609 1 16.3684 34.4806 0.111946
3562 1 19.0951 32.9095 0.133574
9890 2 20.915 32.9248 1.46503
9922 2 18.1881 34.4961 1.44331
565 1 21.8246 34.4806 0.111946
3597 1 13.6416 36.0521 0.0895941
4030 1 10.9149 37.6241 0.0665913
10397 2 12.7344 37.6398 1.39774
9923 2 15.4613 36.0677 1.42086
4013 1 16.3712 37.6241 0.0665913
3561 1 19.0979 36.0521 0.0895941
9875 2 20.9175 36.0677 1.42086
10369 2 18.1907 37.6398 1.39774
3618 1 11.8112 20.3756 2.8731
3616 1 14.5402 21.9457 2.8588
9949 2 13.6296 20.3871 4.17415
3615 1 12.7201 21.97 5.44111
3582 1 17.2674 20.3756 2.8731
3570 1 15.4473 20.3985 5.45544
9950 2 16.3586 21.9579 4.15986
3568 1 18.1764 21.97 5.44111
3583 1 19.9965 21.9457 2.8588
3516 1 20.9035 20.3985 5.45544
9897 2 19.0858 20.3871 4.17415
6712 2 21.8149 21.9579 4.15986
3617 1 11.8131 23.516 2.84346
3619 1 14.5423 25.0863 2.82711
9935 2 13.6315 23.5287 4.14454
3600 1 12.7223 25.113 5.40935
3574 1 17.2694 23.516 2.84346
3569 1 15.4493 23.5415 5.42575
9933 2 16.3607 25.0996 4.12819
3571 1 18.1786 25.113 5.40935
3572 1 19.9986 25.0863 2.82711
3515 1 20.9056 23.5415 5.42575
9896 2 19.0878 23.5287 4.14454
6713 2 21.817 25.0996 4.12819
3604 1 11.8153 26.6569 2.80976
3602 1 14.5447 28.2276 2.79143
9934 2 13.6338 26.6707 4.11085
3601 1 12.7248 28.2564 5.37353
3573 1 17.2716 26.6569 2.80976
3555 1 15.4517 26.6847 5.39193
9936 2 16.3631 28.2419 4.09253
3553 1 18.181 28.2564 5.37353
3575 1 20.0009 28.2276 2.79143
3514 1 20.9079 26.6847 5.39193
9889 2 19.09 26.6707 4.11085
6704 2 21.8193 28.2419 4.09253
3603 1 11.8178 29.7985 2.77215
3605 1 14.5472 31.3697 2.75196
9920 2 13.6362 29.8132 4.07326
3592 1 12.7275 31.4003 5.33386
3559 1 17.274 29.7985 2.77215
3554 1 15.4543 29.8283 5.35416
9918 2 16.3657 31.3847 4.05308
3556 1 18.1838 31.4003 5.33386
3557 1 20.0034 31.3697 2.75196
3507 1 20.9105 29.8283 5.35416
9888 2 19.0925 29.8132 4.07326
6705 2 21.8219 31.3847 4.05308
3596 1 11.8204 32.9411 2.73091
3594 1 14.5499 34.5128 2.70905
9919 2 13.6389 32.9565 4.03203
3593 1 12.7305 34.5447 5.29064
3558 1 17.2767 32.9411 2.73091
3540 1 15.4571 32.9724 5.31267
9921 2 16.3685 34.5284 4.01017
3538 1 18.1867 34.5447 5.29064
3560 1 20.0062 34.5128 2.70905
3506 1 20.9133 32.9724 5.31267
9874 2 19.0952 32.9565 4.03203
6703 2 21.8247 34.5284 4.01017
3595 1 11.8232 36.0849 2.68643
9909 2 13.6418 36.1007 3.98755
3998 1 12.7336 37.69 5.24431
10396 2 10.9151 37.6732 3.96424
3541 1 17.2794 36.0849 2.68643
3539 1 15.4602 36.1172 5.26783
4012 1 14.5528 37.6573 2.66314
10356 2 16.3714 37.6732 3.96424
3492 1 20.9164 36.1172 5.26783
9873 2 19.098 36.1007 3.98755
3965 1 20.009 37.6573 2.66314
3964 1 18.1899 37.69 5.24431
3566 1 13.627 20.421 8.03229
9931 2 11.8092 20.4097 6.74612
9929 2 14.5383 21.9818 6.73185
9894 2 17.2654 20.4097 6.74612
3567 1 16.3561 21.9937 8.01801
526 1 21.8124 21.9937 8.01801
3513 1 19.0833 20.421 8.03229
9895 2 19.9945 21.9818 6.73185
3551 1 13.6291 23.5664 8.00268
9930 2 11.8112 23.5539 6.71654
9932 2 14.5405 25.126 6.7002
9886 2 17.2675 23.5539 6.71654
3549 1 16.3584 25.1392 7.98631
527 1 21.8146 25.1392 7.98631
3512 1 19.0853 23.5664 8.00268
9884 2 19.9967 25.126 6.7002
3550 1 13.6315 26.7119 7.96893
9916 2 11.8136 26.6982 6.68285
9913 2 12.7228 28.2985 9.23813
9914 2 14.543 28.2704 6.66451
9885 2 17.2698 26.6982 6.68285
3552 1 16.361 28.2846 7.95054
9865 2 18.179 28.2985 9.23813
518 1 21.8172 28.2846 7.95054
3505 1 19.0877 26.7119 7.96893
9887 2 19.9992 28.2704 6.66451
3536 1 13.6342 29.8574 7.93118
9915 2 11.8162 29.8427 6.64521
9904 2 12.7257 31.4448 9.19869
9917 2 14.5457 31.4151 6.62498
9866 2 15.4523 29.8717 9.21888
9871 2 17.2724 29.8427 6.64521
3534 1 16.3638 31.4301 7.91087
9868 2 18.1819 31.4448 9.19869
519 1 21.8201 31.4301 7.91087
3504 1 19.0905 29.8574 7.93118
9832 2 20.9086 29.8717 9.21888
9869 2 20.002 31.4151 6.62498
3535 1 13.6373 33.0029 7.88964
9908 2 11.8191 32.9875 6.60386
9905 2 12.7289 34.5911 9.15563
9906 2 14.5488 34.5601 6.5819
9855 2 15.4553 33.018 9.17759
9870 2 17.2753 32.9875 6.60386
3537 1 16.367 34.5758 7.86755
9853 2 18.1851 34.5911 9.15563
517 1 21.8232 34.5758 7.86755
3491 1 19.0935 33.0029 7.88964
9831 2 20.9116 33.018 9.17759
9872 2 20.005 34.5601 6.5819
3525 1 13.6405 36.1487 7.84465
9907 2 11.8222 36.1328 6.55915
3997 1 10.9141 37.7217 7.821
10335 2 12.7323 37.7374 9.1093
9854 2 15.4587 36.1642 9.13284
9856 2 17.2785 36.1328 6.55915
3949 1 16.3704 37.7217 7.821
10355 2 14.552 37.7057 6.53568
3490 1 19.0968 36.1487 7.84465
9824 2 20.9149 36.1642 9.13284
10300 2 18.1885 37.7374 9.1093
10301 2 20.0082 37.7057 6.53568
9928 2 12.718 22.0054 9.30517
3547 1 11.8068 20.4432 10.607
9878 2 13.625 20.4541 11.8928
3545 1 14.5359 22.0172 10.5929
9882 2 15.4452 20.432 9.31937
9880 2 18.1743 22.0054 9.30517
3510 1 17.263 20.4432 10.607
9879 2 16.3541 22.0288 11.8787
9840 2 20.9014 20.432 9.31937
9837 2 19.0812 20.4541 11.8928
3511 1 19.9921 22.0172 10.5929
6646 2 21.8103 22.0288 11.8787
9912 2 12.7202 25.152 9.27367
3546 1 11.8089 23.5911 10.5777
9863 2 13.627 23.6033 11.8636
3548 1 14.5381 25.165 10.5614
9881 2 15.4472 23.5787 9.28994
9883 2 18.1765 25.152 9.27367
3502 1 17.2651 23.5911 10.5777
9861 2 16.3562 25.1778 11.8475
9839 2 20.9035 23.5787 9.28994
9836 2 19.0832 23.6033 11.8636
3500 1 19.9944 25.165 10.5614
6647 2 21.8125 25.1778 11.8475
3532 1 11.8113 26.7388 10.5441
9862 2 13.6293 26.7522 11.8304
3530 1 14.5407 28.3125 10.5259
9867 2 15.4496 26.7253 9.2564
3501 1 17.2675 26.7388 10.5441
9864 2 16.3588 28.3264 11.8123
9838 2 20.9058 26.7253 9.2564
9830 2 19.0856 26.7522 11.8304
3503 1 19.997 28.3125 10.5259
6638 2 21.815 28.3264 11.8123
3531 1 11.814 29.8862 10.5066
9851 2 13.632 29.9005 11.7932
3533 1 14.5437 31.4597 10.4864
3488 1 17.2703 29.8862 10.5066
9849 2 16.3616 31.4744 11.7732
9829 2 19.0883 29.9005 11.7932
3486 1 19.9999 31.4597 10.4864
6639 2 21.8179 31.4744 11.7732
3524 1 11.8171 33.0332 10.4652
9850 2 13.6351 33.0483 11.7522
3522 1 14.5469 34.6065 10.4432
3487 1 17.2734 33.0332 10.4652
9852 2 16.3649 34.622 11.7303
9823 2 19.0914 33.0483 11.7522
3489 1 20.0032 34.6065 10.4432
6637 2 21.8211 34.622 11.7303
3523 1 11.8206 36.1798 10.4203
9844 2 13.6385 36.1955 11.7076
3477 1 17.2768 36.1798 10.4203
3948 1 14.5505 37.7531 10.3966
10285 2 16.3685 37.769 11.6841
9822 2 19.0948 36.1955 11.7076
7070 2 21.8247 37.769 11.6841
3893 1 20.0068 37.7531 10.3966
3494 1 13.6229 20.4874 15.754
9859 2 11.8049 20.4762 14.466
3544 1 12.7157 22.0406 13.1668
3493 1 16.3503 18.9106 15.7667
3498 1 15.4429 20.4653 13.1808
9834 2 17.2612 20.4762 14.466
3496 1 18.172 22.0406 13.1668
470 1 21.8065 18.9106 15.7667
3465 1 19.0791 20.4874 15.754
3468 1 20.8992 20.4653 13.1808
3480 1 13.6247 23.6405 15.7254
9858 2 11.8068 23.628 14.4373
9857 2 14.5339 22.0522 14.4521
3528 1 12.7179 25.1908 13.1358
3495 1 16.3519 22.064 15.7402
3497 1 15.4449 23.6158 13.1518
9827 2 17.263 23.628 14.4373
3499 1 18.1741 25.1908 13.1358
454 1 21.8081 22.064 15.7402
3464 1 19.0809 23.6405 15.7254
3467 1 20.9011 23.6158 13.1518
9835 2 19.9902 22.0522 14.4521
3479 1 13.6268 26.7928 15.6929
9847 2 11.809 26.7791 14.4045
9860 2 14.536 25.2036 14.4214
3529 1 12.7204 28.3404 13.1006
3478 1 16.3538 25.2167 15.7097
3484 1 15.4472 26.7657 13.1187
9826 2 17.2652 26.7791 14.4045
3482 1 18.1766 28.3404 13.1006
455 1 21.8101 25.2167 15.7097
3461 1 19.0831 26.7928 15.6929
3466 1 20.9034 26.7657 13.1187
9825 2 19.9922 25.2036 14.4214
9845 2 14.5384 28.3544 14.3866
9846 2 11.8116 29.9294 14.3678
3472 1 13.6294 29.9441 15.6564
3520 1 12.7233 31.4893 13.0616
9820 2 17.2678 29.9294 14.3678
3483 1 15.4499 29.915 13.0816
3481 1 16.3562 28.3686 15.6751
3485 1 18.1795 31.4893 13.0616
446 1 21.8124 28.3686 15.6751
9828 2 19.9946 28.3544 14.3866
3463 1 20.9061 29.915 13.0816
3460 1 19.0856 29.9441 15.6564
9848 2 14.5412 31.5043 14.348
9843 2 11.8146 33.0788 14.3272
3471 1 13.6323 33.0943 15.616
3521 1 12.7266 34.6374 13.0187
9819 2 17.2709 33.0788 14.3272
3476 1 15.453 33.0635 13.0406
3470 1 16.3589 31.5193 15.6367
3474 1 18.1828 34.6374 13.0187
9818 2 19.9974 31.5043 14.348
447 1 21.8151 31.5193 15.6367
3462 1 20.9092 33.0635 13.0406
3458 1 19.0886 33.0943 15.616
9841 2 14.5444 34.6532 14.3056
9842 2 11.818 36.2272 14.283
3469 1 13.6358 36.2432 15.5719
10284 2 14.548 37.801 14.2597
3927 1 12.7303 37.7847 12.9724
3473 1 16.3621 34.6689 15.5944
3475 1 15.4565 36.2112 12.996
9817 2 17.2743 36.2272 14.283
3892 1 18.1865 37.7847 12.9724
3457 1 19.092 36.2432 15.5719
445 1 21.8183 34.6689 15.5944
3459 1 20.9127 36.2112 12.996
9821 2 20.0006 34.6532 14.3056
10241 2 20.0043 37.801 14.2597
10199 2 12.7124 18.9209 17.0514
3838 1 11.803 20.5096 18.3266
3840 1 14.5305 18.9315 18.3391
10186 2 15.4413 20.4984 17.0388
3815 1 17.2593 20.5096 18.3266
10188 2 18.1687 18.9209 17.0514
3814 1 19.9868 18.9315 18.3391
10140 2 20.8975 20.4984 17.0388
10200 2 12.7139 22.0757 17.0252
3837 1 11.8046 23.6654 18.2986
3836 1 14.5319 22.0876 18.3131
10185 2 15.4429 23.6528 17.0106
3811 1 17.2608 23.6654 18.2986
10184 2 18.1702 22.0757 17.0252
3816 1 19.9881 22.0876 18.3131
10139 2 20.8991 23.6528 17.0106
10196 2 12.7157 25.2297 16.995
3831 1 11.8064 26.8202 18.2668
3839 1 14.5336 25.2429 18.2832
10178 2 15.4449 26.8063 16.9784
3810 1 17.2627 26.8202 18.2668
10187 2 18.172 25.2297 16.995
3809 1 19.9898 25.2429 18.2832
10138 2 20.9011 26.8063 16.9784
10197 2 12.7179 28.3827 16.9609
3830 1 11.8087 29.9738 18.231
3829 1 14.5356 28.3971 18.2494
10177 2 15.4473 29.9588 16.9424
3799 1 17.2649 29.9738 18.231
10176 2 18.1742 28.3827 16.9609
3812 1 19.9919 28.3971 18.2494
10131 2 20.9035 29.9588 16.9424
10192 2 12.7205 31.5346 16.9229
3824 1 11.8114 33.126 18.1915
3832 1 14.5381 31.5501 18.2117
3798 1 17.2677 33.126 18.1915
10164 2 15.4501 33.1101 16.9025
10179 2 18.1767 31.5346 16.9229
3797 1 19.9944 31.5501 18.2117
10130 2 20.9063 33.1101 16.9025
10193 2 12.7236 34.6851 16.8812
3823 1 11.8147 36.2764 18.1482
3822 1 14.5411 34.7014 18.1703
3781 1 17.2709 36.2764 18.1482
10163 2 15.4534 36.2599 16.8589
10162 2 18.1798 34.6851 16.8812
3800 1 19.9973 34.7014 18.1703
10115 2 20.9096 36.2599 16.8589
10182 2 13.6215 20.5207 19.6111
3834 1 12.711 18.9524 20.9108
10170 2 11.802 20.5432 22.1827
10180 2 14.5297 18.9629 22.1948
10181 2 16.3491 18.9418 19.6234
3807 1 15.4396 20.5321 20.8986
10134 2 17.2583 20.5432 22.1827
3813 1 18.1672 18.9524 20.9108
10137 2 19.0778 20.5207 19.6111
3756 1 20.8959 20.5321 20.8986
10133 2 19.986 18.9629 22.1948
6934 2 21.8053 18.9418 19.6234
10174 2 13.6229 23.6778 19.5835
3835 1 12.7121 22.1115 20.8854
10169 2 11.8031 23.7032 22.1558
10168 2 14.5306 22.1233 22.1697
10183 2 16.3503 22.0994 19.5978
3806 1 15.4408 23.6906 20.8713
10126 2 17.2593 23.7032 22.1558
3805 1 18.1683 22.1115 20.8854
10136 2 19.0791 23.6778 19.5835
3755 1 20.8971 23.6906 20.8713
10135 2 19.9869 22.1233 22.1697
6930 2 21.8065 22.0994 19.5978
10173 2 13.6246 26.834 19.552
3827 1 12.7134 25.2695 20.8562
10156 2 11.8044 26.8622 22.1251
10171 2 14.5318 25.2829 22.1409
10172 2 16.3518 25.256 19.5682
3795 1 15.4424 26.8481 20.8402
10125 2 17.2606 26.8622 22.1251
3808 1 18.1697 25.2695 20.8562
10129 2 19.0808 26.834 19.552
3754 1 20.8986 26.8481 20.8402
10124 2 19.988 25.2829 22.1409
6931 2 21.808 25.256 19.5682
10160 2 13.6266 29.9889 19.5168
3828 1 12.7151 28.4264 20.8232
10155 2 11.806 30.0197 22.0908
10154 2 14.5333 28.4411 22.1084
10175 2 16.3537 28.4116 19.5349
3794 1 15.4442 30.0042 20.8053
10111 2 17.2623 30.0197 22.0908
3793 1 18.1714 28.4264 20.8232
10128 2 19.0829 29.9889 19.5168
3747 1 20.9005 30.0042 20.8053
10127 2 19.9895 28.4411 22.1084
6926 2 21.8099 28.4116 19.5349
10159 2 13.6291 33.1422 19.4778
3820 1 12.7172 31.5817 20.7865
10148 2 11.8081 33.1756 22.0528
10157 2 14.5351 31.5979 22.0723
10158 2 16.3559 31.5658 19.4977
3780 1 15.4466 33.1587 20.7668
10110 2 17.2643 33.1756 22.0528
3796 1 18.1735 31.5817 20.7865
10114 2 19.0854 33.1422 19.4778
3746 1 20.9028 33.1587 20.7668
10109 2 19.9913 31.5979 22.0723
6927 2 21.8122 31.5658 19.4977
10149 2 13.6322 36.2938 19.4351
3821 1 12.7198 34.7352 20.7461
10147 2 11.8107 36.3294 22.0112
10146 2 14.5374 34.7528 22.0325
10161 2 16.3587 34.7183 19.4569
3779 1 15.4495 36.3112 20.7245
10093 2 17.2669 36.3294 22.0112
3778 1 18.1761 34.7352 20.7461
10113 2 19.0884 36.2938 19.4351
3731 1 20.9057 36.3112 20.7245
10112 2 19.9937 34.7528 22.0325
6925 2 21.815 34.7183 19.4569
3803 1 13.6203 20.5547 23.4699
10166 2 12.7107 18.9841 24.7654
3802 1 16.348 18.9736 23.4818
10122 2 15.4391 20.566 24.7537
10132 2 18.1669 18.9841 24.7654
3753 1 19.0765 20.5547 23.4699
10068 2 20.8953 20.566 24.7537
761 1 21.8043 18.9736 23.4818
3791 1 13.6211 23.7162 23.4433
10167 2 12.7113 22.1476 24.741
3804 1 16.3488 22.1356 23.4571
10121 2 15.4398 23.729 24.7274
10120 2 18.1675 22.1476 24.741
3752 1 19.0773 23.7162 23.4433
10067 2 20.896 23.729 24.7274
753 1 21.805 22.1356 23.4571
3790 1 13.6222 26.8766 23.413
10152 2 12.712 25.3102 24.7129
3789 1 16.3497 25.2966 23.4286
10107 2 15.4406 26.891 24.6975
10123 2 18.1683 25.3102 24.7129
3745 1 19.0784 26.8766 23.413
10066 2 20.8969 26.891 24.6975
754 1 21.806 25.2966 23.4286
3776 1 13.6236 30.0356 23.3792
10153 2 12.713 28.4714 24.6813
3792 1 16.351 28.4563 23.3965
10106 2 15.4418 30.0515 24.6642
10105 2 18.1693 28.4714 24.6813
3744 1 19.0799 30.0356 23.3792
10059 2 20.898 30.0515 24.6642
746 1 21.8072 28.4563 23.3965
3764 1 11.8044 33.2281 25.9159
3775 1 13.6254 33.1927 23.3417
10144 2 12.7144 31.6311 24.6462
3726 1 17.2607 33.2281 25.9159
3774 1 16.3526 31.6144 23.3609
10092 2 15.4433 33.2103 24.6273
10108 2 18.1706 31.6311 24.6462
3730 1 19.0817 33.1927 23.3417
10058 2 20.8996 33.2103 24.6273
747 1 21.8088 31.6144 23.3609
3763 1 11.8061 36.3862 25.8762
3765 1 13.6278 36.3477 23.3007
10145 2 12.7161 34.7888 24.6076
3762 1 14.5333 34.8075 25.8965
3710 1 17.2624 36.3862 25.8762
3777 1 16.3547 34.7705 23.3216
10091 2 15.4453 36.3668 24.5869
10090 2 18.1724 34.7888 24.6076
3728 1 19.9896 34.8075 25.8965
3729 1 19.084 36.3477 23.3007
10044 2 20.9016 36.3668 24.5869
745 1 21.8109 34.7705 23.3216
3787 1 11.8012 20.5776 26.0404
3801 1 14.5292 18.995 26.052
3783 1 12.7108 19.0165 28.6214
10118 2 13.6203 20.589 27.3237
3750 1 17.2575 20.5776 26.0404
3738 1 15.4389 20.6008 28.61
10117 2 16.3484 19.0056 27.3352
3748 1 18.167 19.0165 28.6214
3749 1 19.9854 18.995 26.052
3690 1 20.8952 20.6008 28.61
10065 2 19.0766 20.589 27.3237
6901 2 21.8046 19.0056 27.3352
3786 1 11.8017 23.7422 26.0145
3785 1 14.5296 22.16 26.0279
3784 1 12.7108 22.1848 28.5978
10103 2 13.6206 23.7552 27.2981
3742 1 17.2579 23.7422 26.0145
3737 1 15.439 23.7686 28.5847
10119 2 16.3486 22.1722 27.3113
3736 1 18.1671 22.1848 28.5978
3751 1 19.9858 22.16 26.0279
3689 1 20.8952 23.7686 28.5847
10064 2 19.0768 23.7552 27.2981
6886 2 21.8048 22.1722 27.3113
3772 1 11.8023 26.9057 25.9851
3788 1 14.5301 25.3241 26.0002
3768 1 12.7109 25.3522 28.5708
10102 2 13.621 26.9204 27.2691
3741 1 17.2586 26.9057 25.9851
3723 1 15.4391 26.9354 28.5561
10101 2 16.3489 25.338 27.284
3739 1 18.1672 25.3522 28.5708
3740 1 19.9864 25.3241 26.0002
3688 1 20.8954 26.9354 28.5561
10057 2 19.0773 26.9204 27.2691
6887 2 21.8052 25.338 27.284
3771 1 11.8032 30.0678 25.9522
3770 1 14.5309 28.487 25.969
3769 1 12.7112 28.5184 28.5405
10088 2 13.6216 30.0842 27.2366
3727 1 17.2595 30.0678 25.9522
3722 1 15.4395 30.1009 28.5242
10104 2 16.3494 28.5025 27.2533
3721 1 18.1674 28.5184 28.5405
3743 1 19.9871 28.487 25.969
3681 1 20.8957 30.1009 28.5242
10056 2 19.0779 30.0842 27.2366
6878 2 21.8057 28.5025 27.2533
3773 1 14.5319 31.6482 25.9345
3760 1 12.7116 31.6831 28.507
10087 2 13.6225 33.2463 27.2009
3709 1 15.44 33.2648 28.489
10086 2 16.3502 31.6655 27.2192
3724 1 18.1678 31.6831 28.507
3725 1 19.9881 31.6482 25.9345
3680 1 20.8962 33.2648 28.489
10043 2 19.0788 33.2463 27.2009
6879 2 21.8064 31.6655 27.2192
3761 1 12.7123 34.8459 28.4703
10077 2 13.6239 36.4061 27.1619
3708 1 15.4409 36.4265 28.4507
10089 2 16.3513 34.8265 27.1818
3707 1 18.1685 34.8459 28.4703
3669 1 20.8972 36.4265 28.4507
10042 2 19.0801 36.4061 27.1619
6877 2 21.8075 34.8265 27.1818
3734 1 13.6209 20.6242 31.1786
10095 2 12.7127 19.0492 32.4718
10099 2 11.8021 20.6123 29.8928
10116 2 14.5302 19.0273 29.904
3733 1 16.3492 19.0383 31.1897
10050 2 15.4406 20.6359 32.4608
10062 2 17.2583 20.6123 29.8928
10060 2 18.1689 19.0492 32.4718
3687 1 19.0771 20.6242 31.1786
10020 2 20.8968 20.6359 32.4608
10061 2 19.9865 19.0273 29.904
710 1 21.8054 19.0383 31.1897
3719 1 13.6206 23.7954 31.1538
10096 2 12.7123 22.2224 32.4489
10098 2 11.802 23.7818 29.8678
10097 2 14.5301 22.1972 29.8807
3735 1 16.3489 22.2099 31.1666
10049 2 15.4401 23.8088 32.4363
10054 2 17.2582 23.7818 29.8678
10048 2 18.1685 22.2224 32.4489
3686 1 19.0768 23.7954 31.1538
10019 2 20.8964 23.8088 32.4363
10063 2 19.9864 22.1972 29.8807
694 1 21.8051 22.2099 31.1666
3718 1 13.6203 26.9657 31.1259
10080 2 12.7118 25.395 32.4228
10084 2 11.8019 26.9504 29.8394
10100 2 14.53 25.3662 29.854
3717 1 16.3486 25.3807 31.1403
10036 2 15.4397 26.9809 32.4086
10053 2 17.2581 26.9504 29.8394
10051 2 18.168 25.395 32.4228
3679 1 19.0765 26.9657 31.1259
10018 2 20.8959 26.9809 32.4086
10052 2 19.9863 25.3662 29.854
695 1 21.8048 25.3807 31.1403
3705 1 13.62 30.1349 31.0948
10081 2 12.7113 28.5666 32.3935
10083 2 11.802 30.1177 29.8079
10082 2 14.53 28.5342 29.8241
3720 1 16.3483 28.5505 31.1107
10035 2 15.4392 30.152 32.3778
10040 2 17.2582 30.1177 29.8079
10034 2 18.1675 28.5666 32.3935
3678 1 19.0763 30.1349 31.0948
10015 2 20.8954 30.152 32.3778
10055 2 19.9863 28.5342 29.8241
686 1 21.8045 28.5505 31.1107
3704 1 13.6199 33.3027 31.0607
10072 2 12.7108 31.7371 32.3612
10076 2 11.8022 33.2835 29.7733
10085 2 14.5302 31.7008 29.791
3703 1 16.3481 31.719 31.0781
10028 2 15.4388 33.3218 32.344
10039 2 17.2584 33.2835 29.7733
10037 2 18.1671 31.7371 32.3612
3668 1 19.0761 33.3027 31.0607
10014 2 20.895 33.3218 32.344
10038 2 19.9864 31.7008 29.791
687 1 21.8043 31.719 31.0781
3696 1 13.62 36.4685 31.0237
10073 2 12.7105 34.9062 32.326
10075 2 11.8027 36.4473 29.7355
10074 2 14.5305 34.8657 29.7548
3706 1 16.348 34.8859 31.0426
10027 2 15.4385 36.49 32.3074
10029 2 17.259 36.4473 29.7355
10026 2 18.1667 34.9062 32.326
3667 1 19.0762 36.4685 31.0237
10011 2 20.8948 36.49 32.3074
10041 2 19.9868 34.8657 29.7548
685 1 21.8043 34.8859 31.0426
3715 1 11.8035 20.6478 33.746
10046 2 13.6235 20.6597 35.0276
3732 1 14.5319 19.0603 33.7569
3684 1 17.2597 20.6478 33.746
10045 2 16.352 19.0713 35.0385
3683 1 19.9881 19.0603 33.7569
10017 2 19.0798 20.6597 35.0276
6830 2 21.8082 19.0713 35.0385
3714 1 11.8028 23.8225 33.7217
10032 2 13.6228 23.8361 35.0035
3713 1 14.5313 22.2352 33.7343
3676 1 17.2591 23.8225 33.7217
10047 2 16.3513 22.2479 35.0159
3685 1 19.9875 22.2352 33.7343
10016 2 19.079 23.8361 35.0035
6814 2 21.8075 22.2479 35.0159
3716 1 14.5306 25.4096 33.7084
3701 1 11.8021 26.9965 33.6943
10031 2 13.6219 27.0119 34.9762
10030 2 16.3505 25.4241 34.9902
3675 1 17.2584 26.9965 33.6943
10013 2 19.0782 27.0119 34.9762
3674 1 19.9868 25.4096 33.7084
6815 2 21.8067 25.4241 34.9902
3699 1 14.5299 28.5831 33.6795
10024 2 13.621 30.187 34.946
3700 1 11.8013 30.1695 33.6639
10033 2 16.3496 28.5995 34.9614
3665 1 17.2576 30.1695 33.6639
10012 2 19.0772 30.187 34.946
3677 1 19.9861 28.5831 33.6795
6806 2 21.8058 28.5995 34.9614
3702 1 14.5291 31.7557 33.6476
10023 2 13.62 33.3611 34.9129
3695 1 11.8006 33.3415 33.6306
10022 2 16.3486 31.7742 34.9298
3664 1 17.2568 33.3415 33.6306
10010 2 19.0762 33.3611 34.9129
3663 1 19.9853 31.7557 33.6476
6807 2 21.8049 31.7742 34.9298
3693 1 14.5283 34.927 33.613
10021 2 13.619 36.534 34.8771
3694 1 11.7999 36.512 33.5946
10025 2 16.3476 34.9477 34.8953
3658 1 17.2561 36.512 33.5946
10009 2 19.0753 36.534 34.8771
3666 1 19.9846 34.927 33.613
6805 2 21.8039 34.9477 34.8953
10222 2 11.8072 20.6837 37.5932
16037 1 13.627 20.6958 38.8772
3711 1 12.7153 19.0824 36.323
10224 2 14.5358 19.0935 37.604
10211 2 17.2634 20.6837 37.5932
16036 1 16.3556 19.1048 38.888
3672 1 15.443 20.6717 36.3122
3682 1 18.1715 19.0824 36.323
10210 2 19.992 19.0935 37.604
16002 1 19.0832 20.6958 38.8772
3654 1 20.8992 20.6717 36.3122
13224 1 21.8119 19.1048 38.888
10221 2 11.8062 23.8636 37.5693
16033 1 13.6259 23.8776 38.8534
3712 1 12.7144 22.2609 36.3006
10220 2 14.5348 22.2737 37.5817
10208 2 17.2624 23.8636 37.5693
16038 1 16.3546 22.2867 38.8657
3671 1 15.4421 23.8499 36.2883
3670 1 18.1707 22.2609 36.3006
10212 2 19.9911 22.2737 37.5817
16001 1 19.0821 23.8776 38.8534
3653 1 20.8983 23.8499 36.2883
13222 1 21.8108 22.2867 38.8657
10218 2 11.805 27.0432 37.5423
16032 1 13.6245 27.0591 38.8265
3697 1 12.7134 25.4388 36.2751
10223 2 14.5338 25.4535 37.5562
10207 2 17.2613 27.0432 37.5423
16031 1 16.3533 25.4684 38.8403
3661 1 15.441 27.0276 36.2612
3673 1 18.1697 25.4388 36.2751
10206 2 19.99 25.4535 37.5562
15996 1 19.0808 27.0591 38.8265
3652 1 20.8972 27.0276 36.2612
13223 1 21.8096 25.4684 38.8403
10217 2 11.8037 30.2224 37.5123
16022 1 13.623 30.2404 38.7967
3698 1 12.7123 28.6163 36.2466
10216 2 14.5325 28.6329 37.5277
10204 2 17.26 30.2224 37.5123
16034 1 16.3519 28.6498 38.812
3660 1 15.4398 30.2048 36.2312
3659 1 18.1685 28.6163 36.2466
10209 2 19.9888 28.6329 37.5277
15995 1 19.0792 30.2404 38.7967
3651 1 20.896 30.2048 36.2312
13220 1 21.8081 28.6498 38.812
10215 2 11.8023 33.401 37.4796
16021 1 13.6213 33.4213 38.7642
3691 1 12.711 31.793 36.2152
10219 2 14.5311 31.8118 37.4963
10203 2 17.2585 33.401 37.4796
16020 1 16.3503 31.8309 38.7808
3657 1 15.4385 33.3811 36.1985
3662 1 18.1673 31.793 36.2152
10202 2 19.9874 31.8118 37.4963
15982 1 19.0775 33.4213 38.7642
3650 1 20.8947 33.3811 36.1985
13221 1 21.8065 31.8309 38.7808
10214 2 11.8007 36.579 37.4443
16011 1 13.6194 36.602 38.7291
3692 1 12.7097 34.969 36.1811
10213 2 14.5296 34.9901 37.4623
10201 2 17.257 36.579 37.4443
16023 1 16.3485 35.0117 38.7469
3656 1 15.4371 36.5566 36.1632
3655 1 18.1659 34.969 36.1811
10205 2 19.9859 34.9901 37.4623
15981 1 19.0756 36.602 38.7291
3649 1 20.8933 36.5566 36.1632
13219 1 21.8047 35.0117 38.7469
21659 2 12.7202 19.116 40.1683
16029 1 11.8118 20.72 41.441
16035 1 14.5404 19.1273 41.4517
21646 2 15.4478 20.7078 40.1576
15999 1 17.268 20.72 41.441
21648 2 18.1765 19.116 40.1683
15998 1 19.9967 19.1273 41.4517
21600 2 20.9041 20.7078 40.1576
21660 2 12.7191 22.2996 40.1461
16028 1 11.8105 23.9055 41.4171
16027 1 14.5393 22.3128 41.4294
21645 2 15.4466 23.8914 40.1337
15993 1 17.2667 23.9055 41.4171
21644 2 18.1754 22.2996 40.1461
16000 1 19.9955 22.3128 41.4294
21599 2 20.9029 23.8914 40.1337
21656 2 12.7179 25.4832 40.1206
16018 1 11.809 27.0908 41.3901
16030 1 14.5379 25.4982 41.404
21638 2 15.4453 27.0749 40.1068
15992 1 17.2652 27.0908 41.3901
21647 2 18.1741 25.4832 40.1206
15991 1 19.9941 25.4982 41.404
21598 2 20.9015 27.0749 40.1068
21657 2 12.7164 28.6665 40.0922
16017 1 11.8073 30.2763 41.3602
16016 1 14.5363 28.6835 41.3756
21637 2 15.4437 30.2581 40.0768
15979 1 17.2635 30.2763 41.3602
21636 2 18.1726 28.6665 40.0922
15994 1 19.9925 28.6835 41.3756
21591 2 20.9 30.2581 40.0768
21652 2 12.7147 31.8497 40.0608
16010 1 11.8053 33.4618 41.3275
16019 1 14.5344 31.869 41.3442
15978 1 17.2615 33.4618 41.3275
21624 2 15.442 33.4413 40.0441
21639 2 18.171 31.8497 40.0608
15977 1 19.9907 31.869 41.3442
21590 2 20.8982 33.4413 40.0441
21653 2 12.7129 35.0329 40.0268
16009 1 11.8031 36.6476 41.2922
21609 2 13.6245 36.67 42.5705
16008 1 14.5324 35.0547 41.3102
15961 1 17.2593 36.6476 41.2922
21621 2 16.3537 35.0758 42.5888
21623 2 15.44 36.6244 40.0087
21622 2 18.1691 35.0329 40.0268
15980 1 19.9886 35.0547 41.3102
21573 2 19.0807 36.67 42.5705
21575 2 20.8962 36.6244 40.0087
18829 2 21.8099 35.0758 42.5888
21642 2 13.633 20.7322 42.7207
16025 1 12.726 19.1499 44.0142
21630 2 11.8189 20.7566 45.2825
21640 2 14.5476 19.1613 45.2933
21641 2 16.3617 19.1385 42.7314
15989 1 15.4535 20.7444 44.0034
21594 2 17.2751 20.7566 45.2825
15997 1 18.1822 19.1499 44.0142
21597 2 19.0892 20.7322 42.7207
15936 1 20.9098 20.7444 44.0034
21593 2 20.0038 19.1613 45.2933
18838 2 21.8179 19.1385 42.7314
21634 2 13.6317 23.9194 42.6967
16026 1 12.7248 22.3389 43.9918
21629 2 11.8176 23.9475 45.2582
21628 2 14.5464 22.352 45.2708
21643 2 16.3605 22.3258 42.7091
15988 1 15.4522 23.9335 43.9794
21586 2 17.2738 23.9475 45.2582
15987 1 18.181 22.3389 43.9918
21596 2 19.0879 23.9194 42.6967
15935 1 20.9084 23.9335 43.9794
21595 2 20.0026 22.352 45.2708
18834 2 21.8167 22.3258 42.7091
21633 2 13.6302 27.1067 42.6696
16014 1 12.7233 25.5281 43.9661
21616 2 11.8161 27.1386 45.2308
21631 2 14.545 25.543 45.2449
21632 2 16.3591 25.513 42.6835
15975 1 15.4506 27.1227 43.9521
21585 2 17.2723 27.1386 45.2308
15990 1 18.1796 25.5281 43.9661
21589 2 19.0865 27.1067 42.6696
15934 1 20.9069 27.1227 43.9521
21584 2 20.0012 25.543 45.2449
18835 2 21.8153 25.513 42.6835
21620 2 13.6285 30.2941 42.6394
16015 1 12.7216 28.7174 43.9374
21615 2 11.8144 30.3301 45.2001
21614 2 14.5434 28.7343 45.2158
21635 2 16.3575 28.7003 42.6549
15974 1 15.4488 30.3123 43.9219
21571 2 17.2706 30.3301 45.2001
15973 1 18.1779 28.7174 43.9374
21588 2 19.0848 30.2941 42.6394
15927 1 20.9051 30.3123 43.9219
21587 2 19.9996 28.7343 45.2158
18830 2 21.8138 28.7003 42.6549
21619 2 13.6266 33.4818 42.6064
16006 1 12.7197 31.9072 43.9056
21608 2 11.8124 33.5223 45.1664
21617 2 14.5416 31.9261 45.1836
21618 2 16.3557 31.8879 42.6232
15960 1 15.4468 33.5024 43.8886
21570 2 17.2687 33.5223 45.1664
15976 1 18.176 31.9072 43.9056
21574 2 19.0828 33.4818 42.6064
15926 1 20.903 33.5024 43.8886
21569 2 19.9978 31.9261 45.1836
18831 2 21.812 31.8879 42.6232
16007 1 12.7176 35.0977 43.871
21607 2 11.8103 36.7154 45.1296
21606 2 14.5395 35.1187 45.1484
15959 1 15.4445 36.6933 43.8526
21554 2 17.2665 36.7154 45.1296
15958 1 18.1738 35.0977 43.871
15911 1 20.9007 36.6933 43.8526
21572 2 19.9958 35.1187 45.1484
15967 1 11.8268 20.7936 49.1245
15985 1 13.6398 20.769 46.5646
21626 2 12.7342 19.1841 47.854
15930 1 17.2831 20.7936 49.1245
15983 1 14.5555 19.1956 49.1356
15984 1 16.3685 19.1727 46.5755
21582 2 15.4618 20.7812 47.843
15929 1 20.0117 19.1956 49.1356
15933 1 19.096 20.769 46.5646
21534 2 20.918 20.7812 47.843
21592 2 18.1905 19.1841 47.854
13204 1 21.8247 19.1727 46.5755
15966 1 11.8256 23.9899 49.0997
15971 1 13.6385 23.9616 46.5402
21627 2 12.7331 22.3784 47.8311
15922 1 17.2818 23.9899 49.0997
15965 1 14.5543 22.3917 49.1126
15986 1 16.3673 22.3653 46.5528
21581 2 15.4605 23.9757 47.8184
15931 1 20.0106 22.3917 49.1126
15932 1 19.0947 23.9616 46.5402
21533 2 20.9168 23.9757 47.8184
21580 2 18.1893 22.3784 47.8311
13192 1 21.8235 22.3653 46.5528
15952 1 11.8241 27.1866 49.0715
15970 1 13.6369 27.1547 46.5126
21612 2 12.7317 25.573 47.8048
15921 1 17.2804 27.1866 49.0715
15968 1 14.553 25.5882 49.086
15969 1 16.3659 25.5581 46.5268
21567 2 15.4591 27.1705 47.7904
15920 1 20.0092 25.5882 49.086
15925 1 19.0932 27.1547 46.5126
21532 2 20.9153 27.1705 47.7904
21583 2 18.1879 25.573 47.8048
13193 1 21.8221 25.5581 46.5268
15951 1 11.8225 30.3842 49.0398
15956 1 13.6352 30.3483 46.4817
21613 2 12.7302 28.7682 47.7752
15907 1 17.2788 30.3842 49.0398
15950 1 14.5515 28.7853 49.0561
15972 1 16.3642 28.7514 46.4975
21566 2 15.4574 30.366 47.7591
21565 2 18.1864 28.7682 47.7752
15923 1 20.0077 28.7853 49.0561
15924 1 19.0914 30.3483 46.4817
21525 2 20.9137 30.366 47.7591
13184 1 21.8205 28.7514 46.4975
15944 1 11.8207 33.5829 49.0046
15955 1 13.6332 33.5428 46.4476
21604 2 12.7284 31.9641 47.7422
15953 1 14.5498 31.9834 49.0226
15906 1 17.277 33.5829 49.0046
15954 1 16.3624 31.9454 46.465
21553 2 15.4556 33.5625 47.7244
21568 2 18.1847 31.9641 47.7422
15905 1 20.006 31.9834 49.0226
15910 1 19.0895 33.5428 46.4476
21524 2 20.9119 33.5625 47.7244
13185 1 21.8186 31.9454 46.465
15943 1 11.8188 36.7834 48.966
15945 1 13.631 36.7387 46.4104
21605 2 12.7265 35.1612 47.7058
15942 1 14.5479 35.1829 48.9858
15892 1 17.275 36.7834 48.966
15957 1 16.3603 35.1405 46.4294
21552 2 15.4536 36.7604 47.6864
21551 2 18.1828 35.1612 47.7058
15908 1 20.0041 35.1829 48.9858
15909 1 19.0873 36.7387 46.4104
21513 2 20.9099 36.7604 47.6864
13183 1 21.8165 35.1405 46.4294
15963 1 12.7432 19.2185 51.6945
21578 2 13.6492 20.8059 50.4023
21625 2 10.9216 19.207 50.4135
15918 1 15.4708 20.8183 51.6833
21577 2 16.3778 19.207 50.4135
15876 1 20.927 20.8183 51.6833
15928 1 18.1994 19.2185 51.6945
21531 2 19.1054 20.8059 50.4023
15964 1 12.7421 22.4181 51.6711
21563 2 13.648 24.0039 50.3773
21610 2 10.9205 22.4048 50.3903
15917 1 15.4696 24.0181 51.658
21579 2 16.3767 22.4048 50.3903
15875 1 20.9259 24.0181 51.658
15916 1 18.1983 22.4181 51.6711
21530 2 19.1042 24.0039 50.3773
15948 1 12.7409 25.6182 51.644
21562 2 13.6466 27.2024 50.3487
21611 2 10.9192 25.6031 50.3634
15903 1 15.4683 27.2185 51.629
21561 2 16.3754 25.6031 50.3634
15874 1 20.9246 27.2185 51.629
15919 1 18.1971 25.6182 51.644
21523 2 19.1029 27.2024 50.3487
15949 1 12.7395 28.8191 51.6132
21549 2 13.6451 30.4018 50.3164
21602 2 10.9178 28.802 50.333
15902 1 15.4669 30.4199 51.5964
21564 2 16.374 28.802 50.333
15868 1 20.9231 30.4199 51.5964
15901 1 18.1958 28.8191 51.6132
21522 2 19.1014 30.4018 50.3164
15940 1 12.738 32.021 51.5787
21548 2 13.6435 33.6023 50.2806
21603 2 10.9162 32.0019 50.299
15891 1 15.4654 33.6226 51.56
21547 2 16.3725 32.0019 50.299
15867 1 20.9216 33.6226 51.56
15904 1 18.1943 32.021 51.5787
21512 2 19.0998 33.6023 50.2806
15941 1 12.7364 35.2246 51.5404
21540 2 13.6418 36.8045 50.2411
21601 2 10.9146 35.2032 50.2613
15890 1 15.4637 36.8272 51.5198
21550 2 16.3708 35.2032 50.2613
15860 1 20.92 36.8272 51.5198
15889 1 18.1927 35.2246 51.5404
21511 2 19.098 36.8045 50.2411
15914 1 13.6592 20.843 54.2409
15962 1 10.9315 19.2416 54.2524
21555 2 12.7544 19.253 55.5293
21559 2 11.8372 20.8306 52.9605
15913 1 16.3877 19.2416 54.2524
21516 2 15.4821 20.8553 55.5177
21528 2 17.2934 20.8306 52.9605
21576 2 14.5658 19.23 52.9719
15873 1 19.1154 20.843 54.2409
21498 2 20.9384 20.8553 55.5177
21526 2 18.2107 19.253 55.5293
21527 2 20.0221 19.23 52.9719
15899 1 13.6581 24.0463 54.2151
15946 1 10.9305 22.4446 54.2285
21556 2 12.7535 22.4577 55.5051
21558 2 11.8361 24.0321 52.935
15915 1 16.3868 22.4446 54.2285
21515 2 15.4811 24.0603 55.4915
21520 2 17.2924 24.0321 52.935
21557 2 14.5648 22.4313 52.9482
15872 1 19.1144 24.0463 54.2151
21497 2 20.9374 24.0603 55.4915
21514 2 18.2098 22.4577 55.5051
21529 2 20.021 22.4313 52.9482
15898 1 13.657 27.2503 54.1854
15947 1 10.9294 25.6482 54.2007
21541 2 12.7525 25.663 55.477
21545 2 11.8349 27.2342 52.9056
15897 1 16.3857 25.6482 54.2007
21505 2 15.4801 27.2659 55.4614
21519 2 17.2912 27.2342 52.9056
21560 2 14.5636 25.6331 52.9208
15866 1 19.1132 27.2503 54.1854
21496 2 20.9363 27.2659 55.4614
21517 2 18.2087 25.663 55.477
21518 2 20.0199 25.6331 52.9208
15887 1 13.6558 30.4553 54.1517
15938 1 10.9283 28.8526 54.169
21542 2 12.7514 28.869 55.4448
21544 2 11.8336 30.4373 52.8724
15900 1 16.3845 28.8526 54.169
21504 2 15.479 30.4725 55.4273
21509 2 17.2899 30.4373 52.8724
21543 2 14.5624 28.8356 52.8895
15865 1 19.112 30.4553 54.1517
21495 2 20.9352 30.4725 55.4273
21503 2 18.2077 28.869 55.4448
21521 2 20.0186 28.8356 52.8895
15886 1 13.6545 33.6616 54.114
15939 1 10.927 32.0582 54.1334
21535 2 12.7503 32.0762 55.4086
21539 2 11.8322 33.6416 52.8354
21546 2 14.5611 32.0393 52.8544
21508 2 17.2885 33.6416 52.8354
15885 1 16.3833 32.0582 54.1334
21501 2 15.4778 33.6803 55.3889
21507 2 20.0173 32.0393 52.8544
21506 2 18.2065 32.0762 55.4086
21494 2 20.9341 33.6803 55.3889
15859 1 19.1107 33.6616 54.114
21538 2 11.8308 36.8478 52.7943
21536 2 12.7491 35.2849 55.3682
15937 1 10.9257 35.2655 54.0936
15880 1 13.6532 36.8699 54.0721
21537 2 14.5596 35.2444 52.8153
21502 2 17.287 36.8478 52.7943
21500 2 15.4766 36.89 55.3463
15888 1 16.382 35.2655 54.0936
21510 2 20.0159 35.2444 52.8153
21499 2 18.2054 35.2849 55.3682
21493 2 20.9329 36.89 55.3463
15858 1 19.1094 36.8699 54.0721
21845 2 13.6714 20.88 58.0738
21852 2 10.9437 19.276 58.0856
15895 1 11.8481 20.8678 56.7975
21844 2 16.3999 19.276 58.0856
15870 1 17.3044 20.8678 56.7975
15912 1 14.5767 19.2646 56.8093
21810 2 19.1276 20.88 58.0738
15869 1 20.0329 19.2646 56.8093
21841 2 13.6705 24.0883 58.0471
21850 2 10.9428 22.4841 58.0609
15894 1 11.8472 24.0745 56.7711
21846 2 16.3991 22.4841 58.0609
15863 1 17.3034 24.0745 56.7711
15893 1 14.5758 22.471 56.7848
21809 2 19.1267 24.0883 58.0471
15871 1 20.032 22.471 56.7848
21840 2 13.6696 27.2973 58.0163
21851 2 10.9419 25.6927 58.0322
15883 1 11.8462 27.2819 56.7406
21839 2 16.3981 25.6927 58.0322
15862 1 17.3025 27.2819 56.7406
15896 1 14.5748 25.6781 56.7564
21804 2 19.1258 27.2973 58.0163
15861 1 20.0311 25.6781 56.7564
21830 2 13.6686 30.5072 57.9812
21848 2 10.941 28.9022 57.9992
15882 1 11.8452 30.4903 56.706
16189 1 15.4913 30.5249 59.2595
21842 2 16.3972 28.9022 57.9992
15856 1 17.3014 30.4903 56.706
15881 1 14.5738 28.8859 56.7238
16143 1 20.9476 30.5249 59.2595
21803 2 19.1248 30.5072 57.9812
15864 1 20.0301 28.8859 56.7238
16204 1 12.7628 32.1311 59.24
21829 2 13.6677 33.7184 57.9417
21849 2 10.94 32.1126 57.962
15879 1 11.8442 33.7 56.667
16176 1 15.4905 33.7377 59.2194
21828 2 16.3963 32.1126 57.962
15855 1 17.3004 33.7 56.667
15884 1 14.5728 32.0949 56.6871
16142 1 20.9467 33.7377 59.2194
16191 1 18.219 32.1311 59.24
21790 2 19.1239 33.7184 57.9417
15854 1 20.0291 32.0949 56.6871
16205 1 12.762 35.3446 59.1976
21819 2 13.6667 36.9311 57.8976
21847 2 10.939 35.3245 57.9202
15878 1 11.8432 36.9115 56.6236
16175 1 15.4897 36.952 59.1746
21831 2 16.3953 35.3245 57.9202
15853 1 17.2994 36.9115 56.6236
15877 1 14.5718 35.3055 56.6459
16127 1 20.9459 36.952 59.1746
16174 1 18.2182 35.3446 59.1976
21789 2 19.1229 36.9311 57.8976
15857 1 20.028 35.3055 56.6459
16211 1 12.7662 19.2876 59.3652
16194 1 13.6839 20.9171 61.9081
16210 1 10.9562 19.3106 61.9203
21837 2 11.8611 20.9046 60.6289
16198 1 15.4939 20.8924 59.3532
16193 1 16.4124 19.3106 61.9203
21807 2 17.3174 20.9046 60.6289
21843 2 14.5897 19.2989 60.641
16152 1 20.9501 20.8924 59.3532
16200 1 18.2224 19.2876 59.3652
16149 1 19.1402 20.9171 61.9081
21806 2 20.0459 19.2989 60.641
16212 1 12.7654 22.4974 59.3403
16186 1 13.6831 24.1305 61.8807
16206 1 10.9554 22.5237 61.895
21836 2 11.8603 24.1163 60.6017
16197 1 15.4931 24.1025 59.3263
16195 1 16.4116 22.5237 61.895
21801 2 17.3166 24.1163 60.6017
21835 2 14.5889 22.5104 60.6159
16151 1 20.9493 24.1025 59.3263
16196 1 18.2216 22.4974 59.3403
16148 1 19.1394 24.1305 61.8807
21808 2 20.0451 22.5104 60.6159
16208 1 12.7645 25.7078 59.3112
16185 1 13.6823 27.3444 61.8489
16207 1 10.9546 25.7374 61.8653
21826 2 11.8595 27.3286 60.5702
16190 1 15.4922 27.3132 59.2951
16184 1 16.4109 25.7374 61.8653
21800 2 17.3157 27.3286 60.5702
21838 2 14.588 25.7223 60.5865
16150 1 20.9484 27.3132 59.2951
16199 1 18.2208 25.7078 59.3112
16141 1 19.1386 27.3444 61.8489
21799 2 20.0443 25.7223 60.5865
16209 1 12.7637 28.9189 59.2778
16172 1 13.6816 30.5591 61.8125
16202 1 10.9538 28.9516 61.8313
21825 2 11.8587 30.5417 60.5343
16187 1 16.4101 28.9516 61.8313
21787 2 17.3149 30.5417 60.5343
21824 2 14.5872 28.935 60.5528
16188 1 18.2199 28.9189 59.2778
16140 1 19.1378 30.5591 61.8125
21802 2 20.0434 28.935 60.5528
16171 1 13.6809 33.7747 61.7715
16203 1 10.9531 32.1668 61.7926
21818 2 11.8578 33.7558 60.4938
16170 1 16.4093 32.1668 61.7926
21786 2 17.3141 33.7558 60.4938
21827 2 14.5864 32.1486 60.5146
16126 1 19.1371 33.7747 61.7715
21785 2 20.0426 32.1486 60.5146
16161 1 13.6801 36.9915 61.7256
16201 1 10.9524 35.3829 61.7491
21817 2 11.857 36.9712 60.4486
16173 1 16.4086 35.3829 61.7491
21769 2 17.3132 36.9712 60.4486
21816 2 14.5855 35.3633 60.4718
16125 1 19.1364 36.9915 61.7256
21788 2 20.0418 35.3633 60.4718
16182 1 11.8744 20.9417 64.4626
21793 2 13.6984 20.9534 65.7362
21832 2 10.9706 19.3444 65.7486
21833 2 12.7799 19.3217 63.1954
16146 1 17.3306 20.9417 64.4626
16192 1 14.6029 19.3335 64.4749
21792 2 16.4269 19.3444 65.7486
21797 2 15.5077 20.9291 63.1831
16145 1 20.0591 19.3335 64.4749
21741 2 19.1546 20.9534 65.7362
21744 2 20.9639 20.9291 63.1831
21805 2 18.2362 19.3217 63.1954
16181 1 11.8736 24.1583 64.4347
21779 2 13.6975 24.1716 65.7082
21820 2 10.9698 22.5625 65.7228
21834 2 12.7791 22.5365 63.1699
16138 1 17.3298 24.1583 64.4347
16180 1 14.6021 22.5499 64.4492
21794 2 16.4261 22.5625 65.7228
21796 2 15.5069 24.1441 63.1555
16147 1 20.0583 22.5499 64.4492
21740 2 19.1538 24.1716 65.7082
21743 2 20.9631 24.1441 63.1555
21795 2 18.2354 22.5365 63.1699
16168 1 11.8728 27.3754 64.4024
21778 2 13.6967 27.3903 65.6757
21821 2 10.969 25.7809 65.6925
21822 2 12.7783 25.7518 63.14
16137 1 17.329 27.3754 64.4024
16183 1 14.6013 25.7668 64.4191
21777 2 16.4252 25.7809 65.6925
21783 2 15.5061 27.3596 63.1235
16136 1 20.0575 25.7668 64.4191
21733 2 19.1529 27.3903 65.6757
21742 2 20.9623 27.3596 63.1235
21798 2 18.2346 25.7518 63.14
16167 1 11.872 30.593 64.3654
21764 2 13.6959 30.6095 65.6386
21812 2 10.9682 28.9998 65.6578
21823 2 12.7775 28.9676 63.1057
16123 1 17.3283 30.593 64.3654
16166 1 14.6005 28.9842 64.3845
21780 2 16.4244 28.9998 65.6578
21782 2 15.5053 30.5757 63.0868
16139 1 20.0568 28.9842 64.3845
21732 2 19.1521 30.6095 65.6386
21735 2 20.9615 30.5757 63.0868
21781 2 18.2338 28.9676 63.1057
16160 1 11.8713 33.8113 64.3237
21763 2 13.6951 33.8291 65.5967
21813 2 10.9673 32.2192 65.6183
21814 2 12.7768 32.1841 63.0668
16122 1 17.3276 33.8113 64.3237
16169 1 14.5998 32.2021 64.3452
21762 2 16.4236 32.2192 65.6183
21768 2 15.5045 33.7926 63.0455
16121 1 20.056 32.2021 64.3452
21718 2 19.1513 33.8291 65.5967
21734 2 20.9607 33.7926 63.0455
21784 2 18.233 32.1841 63.0668
16159 1 11.8706 37.0303 64.277
21753 2 13.6942 37.0492 65.55
21811 2 10.9665 35.4391 65.574
21815 2 12.776 35.4014 63.0231
16106 1 17.3269 37.0303 64.277
16158 1 14.5991 35.4207 64.3009
21765 2 16.4228 35.4391 65.574
21767 2 15.5037 37.0105 62.9994
16124 1 20.0553 35.4207 64.3009
21717 2 19.1505 37.0492 65.55
21719 2 20.9599 37.0105 62.9994
21766 2 18.2322 35.4014 63.0231
16178 1 12.7936 19.3567 67.0299
21775 2 11.8894 20.9773 68.2873
16134 1 15.5213 20.9665 67.0175
21738 2 17.3456 20.9773 68.2873
21791 2 14.618 19.3666 68.2998
16086 1 20.9775 20.9665 67.0175
16144 1 18.2498 19.3567 67.0299
21737 2 20.0742 19.3666 68.2998
16179 1 12.7927 22.5764 67.004
21774 2 11.8885 24.1988 68.2591
16133 1 15.5204 24.1864 66.9893
21730 2 17.3447 24.1988 68.2591
21773 2 14.6171 22.588 68.2737
16085 1 20.9767 24.1864 66.9893
16132 1 18.249 22.5764 67.004
21739 2 20.0733 22.588 68.2737
16164 1 12.7919 25.7965 66.9736
21760 2 11.8876 27.4207 68.2263
16119 1 15.5196 27.4066 66.9567
21729 2 17.3438 27.4207 68.2263
21776 2 14.6161 25.8097 68.2432
16084 1 20.9758 27.4066 66.9567
16135 1 18.2481 25.7965 66.9736
21728 2 20.0724 25.8097 68.2432
16165 1 12.791 29.0168 66.9386
21759 2 11.8866 30.6428 68.1888
16118 1 15.5187 30.6271 66.9193
21715 2 17.3429 30.6428 68.1888
21758 2 14.6152 29.0317 68.2082
16077 1 20.975 30.6271 66.9193
16117 1 18.2473 29.0168 66.9386
21731 2 20.0714 29.0317 68.2082
16156 1 12.7902 32.2375 66.8988
21752 2 11.8857 33.8652 68.1466
16105 1 15.5179 33.8479 66.8771
21714 2 17.3419 33.8652 68.1466
21761 2 14.6143 32.254 68.1683
16076 1 20.9742 33.8479 66.8771
16120 1 18.2464 32.2375 66.8988
21713 2 20.0705 32.254 68.1683
16157 1 12.7894 35.4584 66.8542
21751 2 11.8847 37.0877 68.0996
16104 1 15.5171 37.0687 66.83
21700 2 17.341 37.0877 68.0996
21750 2 14.6133 35.4765 68.1237
16065 1 20.9734 37.0687 66.83
16103 1 18.2456 35.4584 66.8542
21716 2 20.0696 35.4765 68.1237
16111 1 11.8968 21.0152 72.1521
16130 1 13.7115 20.9907 69.5765
16177 1 10.9838 19.3793 69.589
21771 2 12.809 19.3879 70.8462
16080 1 17.3531 21.0152 72.1521
16128 1 14.6255 19.4022 72.1647
16129 1 16.44 19.3793 69.589
21726 2 15.5366 21.0002 70.8337
16079 1 20.0818 19.4022 72.1647
16083 1 19.1677 20.9907 69.5765
21684 2 20.9929 21.0002 70.8337
21736 2 18.2653 19.3879 70.8462
16110 1 11.8957 24.2415 72.1236
16115 1 13.7105 24.2138 69.5481
16162 1 10.9829 22.6022 69.5629
21772 2 12.808 22.6126 70.82
16072 1 17.3519 24.2415 72.1236
16109 1 14.6244 22.6284 72.1384
16131 1 16.4391 22.6022 69.5629
21725 2 15.5356 24.225 70.8053
16081 1 20.0806 22.6284 72.1384
16082 1 19.1667 24.2138 69.5481
21683 2 20.9919 24.225 70.8053
21724 2 18.2643 22.6126 70.82
16097 1 11.8945 27.4678 72.0906
16114 1 13.7095 27.437 69.5152
16163 1 10.9819 25.8254 69.5322
21756 2 12.807 25.8376 70.7894
16071 1 17.3507 27.4678 72.0906
16112 1 14.6232 25.8546 72.1077
16113 1 16.4381 25.8254 69.5322
21711 2 15.5345 27.4501 70.7723
16070 1 20.0794 25.8546 72.1077
16075 1 19.1657 27.437 69.5152
21682 2 20.9908 27.4501 70.7723
21727 2 18.2632 25.8376 70.7894
16096 1 11.8932 30.694 72.0528
16101 1 13.7085 30.6604 69.4776
16154 1 10.9809 29.0487 69.497
21757 2 12.8059 29.0628 70.7541
16061 1 17.3495 30.694 72.0528
16095 1 14.622 29.0809 72.0723
16116 1 16.4371 29.0487 69.497
21710 2 15.5335 30.6754 70.7347
16073 1 20.0782 29.0809 72.0723
16074 1 19.1647 30.6604 69.4776
21676 2 20.9897 30.6754 70.7347
21709 2 18.2621 29.0628 70.7541
16091 1 11.8921 33.9199 72.0103
16100 1 13.7075 33.8838 69.4351
16155 1 10.9799 32.2721 69.457
21748 2 12.8048 32.2881 70.7141
16060 1 17.3483 33.9199 72.0103
16098 1 14.6208 32.307 72.0322
16099 1 16.4361 32.2721 69.457
21699 2 15.5324 33.9007 70.6924
16059 1 20.077 32.307 72.0322
16064 1 19.1638 33.8838 69.4351
21675 2 20.9886 33.9007 70.6924
21712 2 18.261 32.2881 70.7141
16090 1 11.8909 37.1451 71.9631
16092 1 13.7065 37.107 69.3879
16153 1 10.9789 35.4954 69.4121
21749 2 12.8037 35.5133 70.6694
16054 1 17.3472 37.1451 71.9631
16089 1 14.6196 35.5326 71.9873
16102 1 16.4352 35.4954 69.4121
21698 2 15.5313 37.1257 70.6453
16062 1 20.0759 35.5326 71.9873
16063 1 19.1628 37.107 69.3879
21668 2 20.9875 37.1257 70.6453
21697 2 18.2599 35.5133 70.6694
16107 1 12.7519 19.4336 74.8159
21703 2 11.8878 21.0499 75.8398
21722 2 13.7259 21.0224 73.3655
21770 2 10.9984 19.4085 73.3781
16068 1 15.4793 21.0482 74.8033
21678 2 17.344 21.0499 75.8398
21720 2 14.6166 19.4345 75.8524
21721 2 16.4546 19.4085 73.3781
16050 1 20.9356 21.0482 74.8033
16078 1 18.2082 19.4336 74.8159
21677 2 20.0728 19.4345 75.8524
21681 2 19.1822 21.0224 73.3655
16108 1 12.7505 22.6627 74.7896
21702 2 11.8863 24.2807 75.8113
21707 2 13.7247 24.2505 73.337
21754 2 10.9972 22.6364 73.3518
16067 1 15.4778 24.2772 74.7748
21671 2 17.3425 24.2807 75.8113
21701 2 14.6152 22.6653 75.8261
21723 2 16.4535 22.6364 73.3518
16049 1 20.9341 24.2772 74.7748
16066 1 18.2067 22.6627 74.7896
21679 2 20.0714 22.6653 75.8261
21680 2 19.181 24.2505 73.337
16093 1 12.749 25.8914 74.7589
21691 2 11.8848 27.5115 75.7784
21706 2 13.7235 27.4789 73.304
21755 2 10.996 25.8647 73.3211
16057 1 15.4763 27.5056 74.7418
21670 2 17.341 27.5115 75.7784
21704 2 14.6137 25.8961 75.7954
21705 2 16.4522 25.8647 73.3211
16048 1 20.9326 27.5056 74.7418
16069 1 18.2052 25.8914 74.7589
21669 2 20.0699 25.8961 75.7954
21674 2 19.1797 27.4789 73.304
16094 1 12.7475 29.1195 74.7236
21690 2 11.8833 30.742 75.7409
21695 2 13.7222 30.7074 73.2663
21746 2 10.9947 29.0931 73.2857
16056 1 15.475 30.7332 74.7042
21664 2 17.3395 30.742 75.7409
21689 2 14.6121 29.1268 75.7602
21708 2 16.451 29.0931 73.2857
16047 1 20.9312 30.7332 74.7042
16055 1 18.2038 29.1195 74.7236
21672 2 20.0684 29.1268 75.7602
21673 2 19.1784 30.7074 73.2663
16087 1 12.7463 32.3467 74.6836
21687 2 11.8819 33.9719 75.6989
21694 2 13.7209 33.9357 73.224
21747 2 10.9934 32.3216 73.2458
16053 1 15.4739 33.9599 74.6619
21663 2 17.3382 33.9719 75.6989
21692 2 14.6107 32.357 75.7204
21693 2 16.4497 32.3216 73.2458
16046 1 20.9301 33.9599 74.6619
16058 1 18.2025 32.3467 74.6836
21662 2 20.0669 32.357 75.7204
21667 2 19.1772 33.9357 73.224
16088 1 12.7454 35.5728 74.639
21686 2 11.8807 37.2007 75.6524
21688 2 13.7196 37.1635 73.1771
21745 2 10.9922 35.5497 73.2011
16052 1 15.4732 37.1853 74.615
21661 2 17.3369 37.2007 75.6524
21685 2 14.6094 35.5865 75.6761
21696 2 16.4484 35.5497 73.2011
16045 1 20.9294 37.1853 74.615
16051 1 18.2016 35.5728 74.639
21665 2 20.0656 35.5865 75.6761
21666 2 19.1759 37.1635 73.1771
10401 2 11.8266 39.1775 -1.17868
10409 2 13.643 39.145 -3.68226
4032 1 12.7331 40.74 -2.64538
10414 2 10.9167 40.7177 -3.70564
4018 1 15.458 39.1666 -2.62156
10371 2 17.2828 39.1775 -1.17868
10399 2 14.5558 40.7503 -1.20255
10410 2 16.3729 40.7177 -3.70564
3972 1 20.9142 39.1666 -2.62156
10374 2 19.0992 39.145 -3.68226
4016 1 18.1893 40.74 -2.64538
10372 2 20.012 40.7503 -1.20255
10400 2 11.8288 42.3238 -1.22678
10405 2 13.6466 42.2913 -3.72935
4028 1 12.7397 43.8894 -2.694
10415 2 10.9204 43.8659 -3.75329
4017 1 15.4645 42.3143 -2.66957
10365 2 17.285 42.3238 -1.22678
10402 2 14.558 43.8982 -1.25126
10403 2 16.3766 43.8659 -3.75329
3971 1 20.9207 42.3143 -2.66957
10373 2 19.1029 42.2913 -3.72935
4019 1 18.196 43.8894 -2.694
10363 2 20.0142 43.8982 -1.25126
10390 2 11.831 45.4733 -1.27587
10404 2 13.6504 45.4415 -3.77732
4029 1 12.7467 47.0423 -2.7431
10412 2 10.9242 47.0182 -3.80133
4010 1 15.4713 45.4654 -2.71856
10364 2 17.2872 45.4733 -1.27587
10388 2 14.5602 47.0494 -1.30046
10406 2 16.3804 47.0182 -3.80133
3970 1 20.9276 45.4654 -2.71856
10368 2 19.1066 45.4415 -3.77732
4008 1 18.2029 47.0423 -2.7431
10366 2 20.0164 47.0494 -1.30046
10389 2 11.8331 48.6263 -1.32491
10394 2 13.6542 48.5959 -3.82517
4024 1 12.7538 50.1991 -2.79162
10413 2 10.928 50.1748 -3.84872
4009 1 15.4784 48.6202 -2.76751
10351 2 17.2894 48.6263 -1.32491
10391 2 14.5623 50.2043 -1.34907
10392 2 16.3843 50.1748 -3.84872
3963 1 20.9346 48.6202 -2.76751
10367 2 19.1105 48.5959 -3.82517
4011 1 18.21 50.1991 -2.79162
10349 2 20.0186 50.2043 -1.34907
10382 2 11.8353 51.7831 -1.37279
10393 2 13.6581 51.7548 -3.87182
4025 1 12.7608 53.3596 -2.83834
10411 2 10.9318 53.3359 -3.89433
3996 1 15.4854 51.7789 -2.81528
10350 2 17.2915 51.7831 -1.37279
10380 2 14.5645 53.363 -1.39591
10395 2 16.3881 53.3359 -3.89433
3962 1 20.9417 51.7789 -2.81528
10354 2 19.1143 51.7548 -3.87182
3994 1 18.217 53.3596 -2.83834
10352 2 20.0207 53.363 -1.39591
10381 2 11.8375 54.9439 -1.41827
10383 2 13.6619 54.9182 -3.91609
4415 1 12.7675 56.5239 -2.88205
10824 2 10.9356 56.5015 -3.93697
3995 1 15.4923 54.9413 -2.86065
10333 2 17.2937 54.9439 -1.41827
10815 2 14.5666 56.5257 -1.43974
10816 2 16.3918 56.5015 -3.93697
3947 1 20.9485 54.9413 -2.86065
10353 2 19.1181 54.9182 -3.91609
4404 1 18.2237 56.5239 -2.88205
10778 2 20.0229 56.5257 -1.43974
4014 1 13.6445 39.1968 0.0430212
4026 1 10.9178 40.77 0.0189779
10398 2 12.7371 40.7855 1.34987
10361 2 15.4639 39.2124 1.37405
4015 1 16.3741 40.77 0.0189779
3969 1 19.1007 39.1968 0.0430212
10308 2 20.9201 39.2124 1.37405
10359 2 18.1933 40.7855 1.34987
4006 1 13.6474 42.3439 -0.00543419
4027 1 10.9208 43.9184 -0.0301001
10386 2 12.7397 43.9335 1.30048
10360 2 15.4665 42.3592 1.32531
4003 1 14.5587 43.9517 2.56498
4004 1 16.377 43.9184 -0.0301001
3968 1 19.1037 42.3439 -0.00543419
10307 2 20.9227 42.3592 1.32531
3956 1 20.0149 43.9517 2.56498
10362 2 18.1959 43.9335 1.30048
3988 1 11.832 45.5266 2.53975
4005 1 13.6504 45.4937 -0.054895
4022 1 10.9237 47.0698 -0.0796853
10387 2 12.7423 47.0841 1.25052
3957 1 17.2883 45.5266 2.53975
10347 2 15.4691 45.5084 1.27551
3986 1 14.5616 47.1021 2.51449
4007 1 16.38 47.0698 -0.0796853
3961 1 19.1066 45.4937 -0.054895
10306 2 20.9253 45.5084 1.27551
3959 1 20.0179 47.1021 2.51449
10345 2 18.1985 47.0841 1.25052
3987 1 11.835 48.6783 2.48936
3992 1 13.6533 48.6467 -0.104329
4023 1 10.9267 50.2244 -0.128679
10378 2 12.7448 50.2376 1.2011
3943 1 17.2912 48.6783 2.48936
10346 2 15.4717 48.6604 1.22567
3989 1 14.5645 50.2551 2.46451
3990 1 16.3829 50.2244 -0.128679
3960 1 19.1096 48.6467 -0.104329
10299 2 20.9279 48.6604 1.22567
3941 1 20.0208 50.2551 2.46451
10348 2 18.2011 50.2376 1.2011
3980 1 11.8378 51.8327 2.4401
3991 1 13.6562 51.803 -0.15258
4021 1 10.9295 53.3824 -0.175878
10379 2 12.7473 53.3943 1.15342
3942 1 17.2941 51.8327 2.4401
10332 2 15.4742 51.8155 1.17697
3978 1 14.5673 53.4109 2.41627
3993 1 16.3858 53.3824 -0.175878
3946 1 19.1125 51.803 -0.15258
10298 2 20.9305 51.8155 1.17697
3944 1 20.0236 53.4109 2.41627
10330 2 18.2036 53.3943 1.15342
3979 1 11.8406 54.9898 2.39321
3981 1 13.6591 54.9626 -0.198414
4414 1 10.9323 56.5437 -0.220032
10805 2 12.7498 56.5542 1.10876
3925 1 17.2968 54.9898 2.39321
10331 2 15.4767 54.9738 1.13064
4396 1 14.5701 56.5695 2.37108
4397 1 16.3886 56.5437 -0.220032
3945 1 19.1153 54.9626 -0.198414
10283 2 20.9329 54.9738 1.13064
4349 1 20.0263 56.5695 2.37108
10777 2 18.206 56.5542 1.10876
4002 1 11.8261 39.2302 2.63925
10357 2 13.6448 39.2461 3.94033
3999 1 12.7369 40.8364 5.19545
10384 2 10.9181 40.8193 3.9159
3966 1 17.2824 39.2302 2.63925
4000 1 14.5557 40.8035 2.61485
3954 1 15.4633 39.263 5.22015
10358 2 16.3744 40.8193 3.9159
3967 1 20.0119 40.8035 2.61485
3900 1 20.9196 39.263 5.22015
10305 2 19.101 39.2461 3.94033
3952 1 18.1931 40.8364 5.19545
4001 1 11.8291 42.3773 2.59006
10343 2 13.6478 42.393 3.89106
3984 1 12.7402 43.9841 5.14485
10385 2 10.9212 43.9671 3.86592
3958 1 17.2853 42.3773 2.59006
3953 1 15.4666 42.41 5.17032
10341 2 16.3774 43.9671 3.86592
3899 1 20.9229 42.41 5.17032
10304 2 19.104 42.393 3.89106
3955 1 18.1964 43.9841 5.14485
10342 2 13.6508 45.5417 3.84061
3985 1 12.7434 47.1335 5.09348
10376 2 10.9242 47.1169 3.81526
3939 1 15.4699 45.5586 5.1192
10344 2 16.3805 47.1169 3.81526
3898 1 20.9262 45.5586 5.1192
10297 2 19.1071 45.5417 3.84061
3937 1 18.1997 47.1335 5.09348
10328 2 13.6538 48.6926 3.79002
3976 1 12.7466 50.2848 5.04247
10377 2 10.9272 50.269 3.76504
3938 1 15.4732 48.7089 5.06785
10326 2 16.3834 50.269 3.76504
3891 1 20.9294 48.7089 5.06785
10296 2 19.1101 48.6926 3.79002
3940 1 18.2029 50.2848 5.04247
10327 2 13.6568 51.846 3.74048
3977 1 12.7498 53.4382 4.99352
10375 2 10.9301 53.4236 3.7165
3924 1 15.4763 51.8613 5.01749
10329 2 16.3863 53.4236 3.7165
3890 1 20.9326 51.8613 5.01749
10282 2 19.113 51.846 3.74048
3922 1 18.206 53.4382 4.99352
10317 2 13.6596 55.0018 3.69327
4382 1 12.7527 56.5941 4.94722
10804 2 10.9329 56.5808 3.67095
3923 1 15.4794 55.0158 4.9699
10764 2 16.3891 56.5808 3.67095
3876 1 20.9356 55.0158 4.9699
10281 2 19.1159 55.0018 3.69327
4348 1 18.209 56.5941 4.94722
3950 1 13.644 39.2949 7.79667
10339 2 11.8255 39.2787 6.51157
3982 1 10.9177 40.8681 7.77175
10336 2 12.736 40.8839 9.06023
10290 2 15.4622 39.3106 9.08507
10302 2 17.2818 39.2787 6.51157
3951 1 16.3739 40.8681 7.77175
10337 2 14.5553 40.852 6.48691
3897 1 19.1003 39.2949 7.79667
10248 2 20.9185 39.3106 9.08507
10288 2 18.1922 40.8839 9.06023
10303 2 20.0116 40.852 6.48691
3935 1 13.6476 42.4416 7.74634
10338 2 11.8289 42.4256 6.46179
3983 1 10.9213 44.0153 7.72055
10320 2 12.7397 44.0308 9.00914
10289 2 15.466 42.4572 9.03489
10294 2 17.2852 42.4256 6.46179
3933 1 16.3776 44.0153 7.72055
10340 2 14.5588 43.9994 6.43632
3896 1 19.1039 42.4416 7.74634
10247 2 20.9222 42.4572 9.03489
10291 2 18.196 44.0308 9.00914
10292 2 20.015 43.9994 6.43632
3934 1 13.6513 45.5893 7.6945
10324 2 11.8324 45.5736 6.41064
3974 1 10.925 47.1636 7.66835
10321 2 12.7436 47.1784 8.95693
10275 2 15.4698 45.6045 8.9831
10293 2 17.2886 45.5736 6.41064
3936 1 16.3812 47.1636 7.66835
10322 2 14.5622 47.1482 6.38488
3889 1 19.1075 45.5893 7.6945
10246 2 20.926 45.6045 8.9831
10273 2 18.1998 47.1784 8.95693
10295 2 20.0184 47.1482 6.38488
3920 1 13.6549 48.7382 7.64223
10323 2 11.8358 48.7232 6.35919
3975 1 10.9286 50.3132 7.61632
10312 2 12.7473 50.3271 8.90477
10274 2 15.4736 48.7526 8.93076
10279 2 17.292 48.7232 6.35919
3918 1 16.3848 50.3132 7.61632
10325 2 14.5655 50.2987 6.33372
3888 1 19.1111 48.7382 7.64223
10240 2 20.9298 48.7526 8.93076
10276 2 18.2036 50.3271 8.90477
10277 2 20.0218 50.2987 6.33372
3919 1 13.6584 51.8886 7.59084
10316 2 11.8391 51.8746 6.30868
3973 1 10.932 53.4645 7.5659
10313 2 12.751 53.4773 8.85397
10263 2 15.4773 51.902 8.87912
10278 2 17.2953 51.8746 6.30868
3921 1 16.3883 53.4645 7.5659
10314 2 14.5688 53.4511 6.28418
3875 1 19.1147 51.8886 7.59084
10239 2 20.9335 51.902 8.87912
10261 2 18.2072 53.4773 8.85397
10280 2 20.025 53.4511 6.28418
3909 1 13.6618 55.041 7.54166
10315 2 11.8423 55.0281 6.26039
4381 1 10.9353 56.6179 7.5183
10743 2 12.7545 56.6293 8.80598
10262 2 15.4809 55.0531 8.82953
10264 2 17.2985 55.0281 6.26039
4333 1 16.3915 56.6179 7.5183
10763 2 14.5719 56.6057 6.23751
3874 1 19.118 55.041 7.54166
10232 2 20.9371 55.0531 8.82953
10708 2 18.2107 56.6293 8.80598
10709 2 20.0282 56.6057 6.23751
3931 1 11.8243 39.3263 10.3722
10286 2 13.6423 39.3423 11.6598
10318 2 10.9162 40.9156 11.6349
3894 1 17.2805 39.3263 10.3722
3929 1 14.5544 40.8996 10.3472
10287 2 16.3724 40.9156 11.6349
10245 2 19.0985 39.3423 11.6598
3895 1 20.0106 40.8996 10.3472
3930 1 11.8282 42.4728 10.3216
10271 2 13.6463 42.4888 11.6094
10319 2 10.9203 44.0619 11.5834
3886 1 17.2845 42.4728 10.3216
3932 1 14.5583 44.0461 10.2955
10269 2 16.3765 44.0619 11.5834
10244 2 19.1025 42.4888 11.6094
3884 1 20.0146 44.0461 10.2955
3916 1 11.8322 45.6195 10.2691
10270 2 13.6505 45.6351 11.5571
10310 2 10.9245 47.2084 11.5305
3885 1 17.2885 45.6195 10.2691
3914 1 14.5624 47.1931 10.2425
10272 2 16.3807 47.2084 11.5305
10238 2 19.1067 45.6351 11.5571
3887 1 20.0186 47.1931 10.2425
3915 1 11.8363 48.7669 10.2159
10259 2 13.6547 48.7818 11.5038
10311 2 10.9287 50.3553 11.4772
3872 1 17.2925 48.7669 10.2159
3917 1 14.5664 50.3409 10.1894
10257 2 16.3849 50.3553 11.4772
10237 2 19.111 48.7818 11.5038
3870 1 20.0226 50.3409 10.1894
3908 1 11.8402 51.9153 10.1633
10258 2 13.6589 51.9291 11.4509
10309 2 10.9328 53.5032 11.425
3871 1 17.2965 51.9153 10.1633
3906 1 14.5703 53.49 10.1376
10260 2 16.3891 53.5032 11.425
10231 2 19.1151 51.9291 11.4509
3873 1 20.0265 53.49 10.1376
3907 1 11.844 55.0651 10.1126
10252 2 13.663 55.0776 11.3998
10742 2 10.9368 56.6524 11.3754
3861 1 17.3003 55.0651 10.1126
4332 1 14.574 56.6407 10.0884
10693 2 16.3931 56.6524 11.3754
10230 2 19.1192 55.0776 11.3998
4277 1 20.0302 56.6407 10.0884
3878 1 13.6397 39.3908 15.5244
10267 2 11.8219 39.3746 14.2355
3928 1 12.7343 40.9313 12.9229
3877 1 16.3658 37.8172 15.5486
3882 1 15.4604 39.3581 12.948
10242 2 17.2781 39.3746 14.2355
10265 2 14.5521 40.9479 14.2106
854 1 21.822 37.8172 15.5486
3849 1 19.0959 39.3908 15.5244
3852 1 20.9166 39.3581 12.948
3880 1 18.1905 40.9313 12.9229
10243 2 20.0083 40.9479 14.2106
3864 1 13.644 42.537 15.4737
3910 1 10.9137 40.964 15.4994
10266 2 11.8261 42.5209 14.185
3912 1 12.7386 44.0773 12.871
3879 1 16.3699 40.964 15.4994
3881 1 15.4645 42.5043 12.8972
10235 2 17.2824 42.5209 14.185
10268 2 14.5565 44.0938 14.1589
3848 1 19.1003 42.537 15.4737
3851 1 20.9208 42.5043 12.8972
3883 1 18.1948 44.0773 12.871
10233 2 20.0127 44.0938 14.1589
3863 1 13.6487 45.682 15.4204
3911 1 10.9182 44.1096 15.4473
10255 2 11.8306 45.6665 14.1323
3913 1 12.743 47.223 12.8173
3862 1 16.3745 44.1096 15.4473
3868 1 15.4689 45.6501 12.8443
10234 2 17.2869 45.6665 14.1323
10253 2 14.5611 47.2391 14.1053
3845 1 19.105 45.682 15.4204
3850 1 20.9252 45.6501 12.8443
10236 2 20.0173 47.2391 14.1053
3866 1 18.1993 47.223 12.8173
3904 1 12.7475 50.3689 12.763
3856 1 13.6537 48.8262 15.3654
3902 1 10.9231 47.2542 15.3931
10254 2 11.8353 48.8116 14.0781
3903 1 10.9281 50.3982 15.3376
3865 1 16.3793 47.2542 15.3931
3867 1 15.4734 48.7959 12.7901
10228 2 17.2916 48.8116 14.0781
10256 2 14.5658 50.3842 14.0509
3854 1 16.3843 50.3982 15.3376
3869 1 18.2038 50.3689 12.763
3844 1 19.1099 48.8262 15.3654
3847 1 20.9296 48.7959 12.7901
10226 2 20.0221 50.3842 14.0509
3905 1 12.7519 53.5156 12.7096
10251 2 11.8401 51.9568 14.0238
3855 1 13.6587 51.9702 15.3099
3901 1 10.9331 53.5423 15.2825
10227 2 17.2963 51.9568 14.0238
3860 1 15.4778 51.9421 12.7361
10249 2 14.5705 53.5296 13.9971
3857 1 16.3893 53.5423 15.2825
10229 2 20.0268 53.5296 13.9971
3846 1 20.9341 51.9421 12.7361
3842 1 19.115 51.9702 15.3099
3858 1 18.2082 53.5156 12.7096
10250 2 11.8447 55.1027 13.971
3853 1 13.6637 55.1146 15.2555
4311 1 12.7562 56.6635 12.6586
4310 1 10.938 56.6871 15.2294
10225 2 17.301 55.1027 13.971
3859 1 15.4822 55.0894 12.6837
4261 1 16.3943 56.6871 15.2294
10692 2 14.5751 56.676 13.9457
4276 1 18.2124 56.6635 12.6586
3843 1 20.9384 55.0894 12.6837
3841 1 19.1199 55.1146 15.2555
10649 2 20.0314 56.676 13.9457
10607 2 12.7271 37.8342 16.8358
4222 1 11.8185 39.425 18.1013
4224 1 14.5446 37.851 18.1252
10594 2 15.4572 39.408 16.8119
4199 1 17.2747 39.425 18.1013
10596 2 18.1834 37.8342 16.8358
4198 1 20.0008 37.851 18.1252
10548 2 20.9135 39.408 16.8119
10608 2 12.7312 40.9815 16.7871
4221 1 11.8229 42.5715 18.051
4220 1 14.5487 40.9985 18.0765
10593 2 15.4616 42.5546 16.7616
4195 1 17.2791 42.5715 18.051
10592 2 18.1875 40.9815 16.7871
4200 1 20.005 40.9985 18.0765
10547 2 20.9178 42.5546 16.7616
10604 2 12.7358 44.1272 16.7354
4215 1 11.8278 45.716 17.9977
10586 2 15.4664 45.6995 16.7087
4194 1 17.2841 45.716 17.9977
4223 1 14.5534 44.144 18.0247
10595 2 18.192 44.1272 16.7354
4193 1 20.0096 44.144 18.0247
10546 2 20.9226 45.6995 16.7087
10605 2 12.7408 47.2715 16.6814
4214 1 11.8332 48.8588 17.942
10568 2 13.6507 48.8777 19.2307
10585 2 15.4715 48.8432 16.6537
4183 1 17.2895 48.8588 17.942
4213 1 14.5586 47.2876 17.9701
4196 1 20.0148 47.2876 17.9701
10536 2 19.1069 48.8777 19.2307
10539 2 20.9278 48.8432 16.6537
10584 2 18.197 47.2715 16.6814
10600 2 12.7461 50.4148 16.6259
10599 2 10.9255 50.4483 19.2023
4208 1 11.8389 52.0005 17.885
10567 2 13.6567 52.0186 19.1736
4182 1 17.2952 52.0005 17.885
4216 1 14.5642 50.4297 17.9136
10566 2 16.3817 50.4483 19.2023
10572 2 15.4769 51.9862 16.598
10587 2 18.2023 50.4148 16.6259
4181 1 20.0204 50.4297 17.9136
10522 2 19.1129 52.0186 19.1736
10538 2 20.9331 51.9862 16.598
10601 2 12.7514 53.5577 16.5704
10597 2 10.9316 53.5887 19.1449
4207 1 11.8447 55.1419 17.8284
10557 2 13.6629 55.1586 19.1165
11015 2 12.7568 56.701 16.5167
4165 1 17.3009 55.1419 17.8284
4206 1 14.5699 53.5712 17.8565
10569 2 16.3879 53.5887 19.1449
10571 2 15.4822 55.1293 16.5431
4184 1 20.0262 53.5712 17.8565
10521 2 19.1191 55.1586 19.1165
10523 2 20.9385 55.1293 16.5431
10570 2 18.2077 53.5577 16.5704
11004 2 18.213 56.701 16.5167
10590 2 13.6358 39.4432 19.3888
4218 1 12.723 37.8865 20.702
10578 2 11.814 39.4807 21.966
10588 2 14.5404 37.9054 21.989
10589 2 16.362 37.8688 19.4124
4191 1 15.453 39.4613 20.6786
10542 2 17.2702 39.4807 21.966
4197 1 18.1793 37.8865 20.702
10545 2 19.0921 39.4432 19.3888
4140 1 20.9092 39.4613 20.6786
10541 2 19.9966 37.9054 21.989
7342 2 21.8183 37.8688 19.4124
10582 2 13.6401 42.5904 19.3391
4219 1 12.7269 41.0353 20.6543
10577 2 11.818 42.6291 21.9172
10576 2 14.544 41.0553 21.942
10591 2 16.366 41.0171 19.3644
4190 1 15.4573 42.6087 20.6291
10534 2 17.2743 42.6291 21.9172
4189 1 18.1832 41.0353 20.6543
10544 2 19.0964 42.5904 19.3391
4139 1 20.9135 42.6087 20.6291
10543 2 20.0003 41.0553 21.942
7338 2 21.8223 41.0171 19.3644
10603 2 10.9144 44.1631 19.313
10581 2 13.6451 45.7352 19.2862
4211 1 12.7316 44.1813 20.603
10564 2 11.823 45.7743 21.8648
10579 2 14.5485 44.2021 21.8914
10580 2 16.3707 44.1631 19.313
4179 1 15.4623 45.7532 20.5761
10533 2 17.2792 45.7743 21.8648
10537 2 19.1013 45.7352 19.2862
4138 1 20.9186 45.7532 20.5761
4192 1 18.1878 44.1813 20.603
10532 2 20.0048 44.2021 21.8914
10598 2 10.9197 47.3067 19.2587
4212 1 12.737 47.3244 20.5485
10563 2 11.8288 48.9163 21.8092
10583 2 16.3759 47.3067 19.2587
4178 1 15.4681 48.895 20.5201
10519 2 17.2851 48.9163 21.8092
10562 2 14.5539 47.3457 21.8374
4131 1 20.9243 48.895 20.5201
4177 1 18.1933 47.3244 20.5485
10535 2 20.0102 47.3457 21.8374
4204 1 12.7431 50.4649 20.4911
10556 2 11.8354 52.0553 21.7508
4164 1 15.4745 52.0344 20.4617
10518 2 17.2917 52.0553 21.7508
10565 2 14.5602 50.4861 21.7803
4130 1 20.9307 52.0344 20.4617
4180 1 18.1993 50.4649 20.4911
10517 2 20.0164 50.4861 21.7803
4205 1 12.7496 53.6036 20.4322
10555 2 11.8426 55.1923 21.6913
4163 1 15.4811 55.1726 20.4027
10501 2 17.2989 55.1923 21.6913
10554 2 14.5671 53.624 21.7211
4115 1 20.9374 55.1726 20.4027
4162 1 18.2059 53.6036 20.4322
10520 2 20.0233 53.624 21.7211
4171 1 11.8085 39.5414 25.8331
4187 1 13.6309 39.5 23.256
10574 2 12.7185 37.9441 24.5654
4185 1 14.5353 37.9642 25.8551
4134 1 17.2647 39.5414 25.8331
4186 1 16.3574 37.9242 23.2788
10530 2 15.448 39.5206 24.543
10540 2 18.1747 37.9441 24.5654
4133 1 19.9916 37.9642 25.8551
4137 1 19.0871 39.5 23.256
10476 2 20.9043 39.5206 24.543
1145 1 21.8136 37.9242 23.2788
4170 1 11.8117 42.6931 25.7863
4175 1 13.6348 42.6491 23.2077
10575 2 12.7216 41.0963 24.5197
4169 1 14.5381 41.1177 25.8102
4126 1 17.268 42.6931 25.7863
4188 1 16.3608 41.075 23.2323
10529 2 15.4516 42.6711 24.4955
10528 2 18.1778 41.0963 24.5197
4135 1 19.9944 41.1177 25.8102
4136 1 19.091 42.6491 23.2077
10475 2 20.9078 42.6711 24.4955
1137 1 21.8171 41.075 23.2323
4156 1 11.8161 45.8405 25.7356
4174 1 13.6397 45.7945 23.1556
10560 2 12.7257 44.245 24.4703
4172 1 14.5419 44.2674 25.7615
4125 1 17.2724 45.8405 25.7356
4173 1 16.3652 44.2222 23.1821
10515 2 15.4562 45.8178 24.4442
10531 2 18.1819 44.245 24.4703
4124 1 19.9981 44.2674 25.7615
4129 1 19.0959 45.7945 23.1556
10474 2 20.9125 45.8178 24.4442
1138 1 21.8214 44.2222 23.1821
4155 1 11.8219 48.9829 25.6806
4160 1 13.6456 48.9359 23.0997
4202 1 10.9144 47.3657 23.1281
10561 2 12.7309 47.3895 24.417
4154 1 14.547 47.4124 25.7087
4111 1 17.2782 48.9829 25.6806
4176 1 16.3706 47.3657 23.1281
10514 2 15.4621 48.9601 24.3889
10513 2 18.1871 47.3895 24.417
4127 1 20.0032 47.4124 25.7087
4128 1 19.1019 48.9359 23.0997
10467 2 20.9183 48.9601 24.3889
4148 1 11.8292 52.1199 25.6212
4159 1 13.6526 52.0736 23.0404
4203 1 10.9209 50.5052 23.0704
10552 2 12.7373 50.5296 24.3598
4110 1 17.2855 52.1199 25.6212
4157 1 14.5535 50.5521 25.6515
4158 1 16.3771 50.5052 23.0704
10500 2 15.4692 52.098 24.3299
4109 1 20.0098 50.5521 25.6515
4114 1 19.1088 52.0736 23.0404
10466 2 20.9254 52.098 24.3299
10516 2 18.1936 50.5296 24.3598
4147 1 11.8379 55.2518 25.5576
4149 1 13.6603 55.2085 22.9788
4201 1 10.9282 53.6413 23.0098
10553 2 12.745 53.6655 24.2993
4094 1 17.2941 55.2518 25.5576
4146 1 14.5615 53.6864 25.5898
4161 1 16.3845 53.6413 23.0098
10499 2 15.4773 55.2321 24.2681
4112 1 20.0178 53.6864 25.5898
4113 1 19.1165 55.2085 22.9788
10452 2 20.9336 55.2321 24.2681
10498 2 18.2013 53.6655 24.2993
4167 1 12.7135 38.0064 28.4304
10526 2 13.6258 39.5632 27.1194
4122 1 15.4424 39.5855 28.4092
10525 2 16.3529 37.9851 27.1411
4132 1 18.1697 38.0064 28.4304
4074 1 20.8986 39.5855 28.4092
10473 2 19.082 39.5632 27.1194
7309 2 21.8091 37.9851 27.1411
4168 1 12.7153 41.1637 28.3871
10511 2 13.6286 42.7169 27.0735
4121 1 15.4447 42.7409 28.3642
10527 2 16.3552 41.1405 27.0969
4120 1 18.1716 41.1637 28.3871
4073 1 20.9009 42.7409 28.3642
10472 2 19.0848 42.7169 27.0735
7294 2 21.8114 41.1405 27.0969
4152 1 12.7182 44.317 28.3403
10510 2 13.6325 45.8662 27.0237
4107 1 15.4482 45.8918 28.3154
10509 2 16.3585 44.2921 27.0491
4123 1 18.1744 44.317 28.3403
4072 1 20.9044 45.8918 28.3154
10465 2 19.0887 45.8662 27.0237
7295 2 21.8147 44.2921 27.0491
4153 1 12.7224 47.4652 28.2895
10496 2 13.6379 49.0103 26.9696
4106 1 15.4532 49.037 28.2623
10512 2 16.3631 47.4389 26.9972
4105 1 18.1786 47.4652 28.2895
4065 1 20.9095 49.037 28.2623
10464 2 19.0941 49.0103 26.9696
7286 2 21.8193 47.4389 26.9972
4144 1 12.7284 50.607 28.2338
10495 2 13.645 52.1484 26.9108
10551 2 10.9131 50.5801 26.9408
4093 1 15.4603 52.1751 28.2039
10494 2 16.3694 50.5801 26.9408
4108 1 18.1846 50.607 28.2338
4064 1 20.9166 52.1751 28.2039
10451 2 19.1013 52.1484 26.9108
4145 1 12.7366 53.7413 28.1725
10485 2 13.654 55.2805 26.8473
10549 2 10.9212 53.7152 26.8796
4092 1 15.4696 55.3055 28.1396
10497 2 16.3774 53.7152 26.8796
4053 1 20.9259 55.3055 28.1396
4091 1 18.1928 53.7413 28.1725
10450 2 19.1103 55.2805 26.8473
4118 1 13.6205 39.632 30.9837
10503 2 12.7104 38.0733 32.288
10507 2 11.8038 39.6085 29.6946
10524 2 14.5313 38.0282 29.7154
4117 1 16.3483 38.0506 31.004
10458 2 15.4386 39.656 32.2678
10470 2 17.26 39.6085 29.6946
10468 2 18.1666 38.0733 32.288
4071 1 19.0767 39.632 30.9837
10428 2 20.8948 39.656 32.2678
10469 2 19.9875 38.0282 29.7154
1094 1 21.8045 38.0506 31.004
4103 1 13.6216 42.7923 30.9406
10504 2 12.7107 41.238 32.247
10506 2 11.8055 42.7663 29.6504
10505 2 14.5326 41.1879 29.6729
4119 1 16.3491 41.2126 30.9625
10457 2 15.4391 42.8191 32.2253
10462 2 17.2617 42.7663 29.6504
10456 2 18.1669 41.238 32.247
4070 1 19.0778 42.7923 30.9406
10427 2 20.8954 42.8191 32.2253
10471 2 19.9889 41.1879 29.6729
1078 1 21.8053 41.2126 30.9625
4102 1 13.6237 45.9483 30.8941
10488 2 12.7116 44.3993 32.2028
10492 2 11.8083 45.9198 29.6025
10508 2 14.5349 44.3437 29.6269
4101 1 16.3506 44.3709 30.9178
10444 2 15.4406 45.9783 32.1795
10461 2 17.2646 45.9198 29.6025
10459 2 18.1678 44.3993 32.2028
4063 1 19.08 45.9483 30.8941
10426 2 20.8968 45.9783 32.1795
10460 2 19.9911 44.3437 29.6269
1079 1 21.8069 44.3709 30.9178
4089 1 13.6274 49.0986 30.8435
10489 2 12.7136 47.556 32.1551
10491 2 11.8127 49.0676 29.5503
10490 2 14.5384 47.4945 29.577
4104 1 16.3535 47.5243 30.8693
10443 2 15.4433 49.1321 32.1296
10448 2 17.2689 49.0676 29.5503
10442 2 18.1698 47.556 32.1551
4062 1 19.0837 49.0986 30.8435
10423 2 20.8996 49.1321 32.1296
10463 2 19.9946 47.4945 29.577
1070 1 21.8097 47.5243 30.8693
4088 1 13.6334 52.241 30.7876
10480 2 12.7173 50.7064 32.1029
10484 2 11.8192 52.2082 29.4928
10493 2 14.5438 50.6389 29.5223
4087 1 16.3582 50.6709 30.8163
10436 2 15.4482 52.2784 32.0746
10447 2 17.2754 52.2082 29.4928
10445 2 18.1735 50.7064 32.1029
4052 1 19.0897 52.241 30.7876
10422 2 20.9044 52.2784 32.0746
10446 2 20 50.6389 29.5223
1071 1 21.8145 50.6709 30.8163
4080 1 13.6425 55.3732 30.7249
10481 2 12.7236 53.8478 32.0445
10483 2 11.8283 55.3403 29.429
4090 1 16.3657 53.8085 30.7573
10435 2 15.4562 55.4143 32.0123
10437 2 17.2846 55.3403 29.429
10482 2 14.5515 53.7754 29.4617
10434 2 18.1798 53.8478 32.0445
4051 1 19.0987 55.3732 30.7249
10419 2 20.9124 55.4143 32.0123
10449 2 20.0078 53.7754 29.4617
1069 1 21.8219 53.8085 30.7573
4099 1 11.7994 39.6807 33.5559
10454 2 13.6182 39.7054 34.8386
4116 1 14.5277 38.0966 33.5756
4068 1 17.2556 39.6807 33.5559
10453 2 16.3467 38.1199 34.8582
4067 1 19.9839 38.0966 33.5756
10425 2 19.0744 39.7054 34.8386
7238 2 21.8029 38.1199 34.8582
4098 1 11.7992 42.8469 33.5145
10440 2 13.6176 42.8747 34.7974
4097 1 14.5273 41.2642 33.5356
4060 1 17.2554 42.8469 33.5145
10455 2 16.3459 41.2904 34.8184
4069 1 19.9836 41.2642 33.5356
10424 2 19.0738 42.8747 34.7974
7222 2 21.8022 41.2904 34.8184
4085 1 11.7998 46.0096 33.4702
10439 2 13.6174 46.0411 34.7534
4100 1 14.5275 44.4287 33.4927
4059 1 17.256 46.0096 33.4702
10438 2 16.3455 44.4583 34.7758
4058 1 19.9837 44.4287 33.4927
10421 2 19.0737 46.0411 34.7534
7223 2 21.8018 44.4583 34.7758
4083 1 14.5285 47.5893 33.4468
4084 1 11.8015 49.1675 33.4224
10432 2 13.6182 49.2032 34.7058
10441 2 16.3458 47.6228 34.7301
4049 1 17.2577 49.1675 33.4224
10420 2 19.0745 49.2032 34.7058
4061 1 19.9848 47.5893 33.4468
7214 2 21.8021 47.6228 34.7301
4086 1 14.5312 50.7439 33.397
10431 2 13.6207 52.3589 34.6536
4079 1 11.8053 52.3182 33.3703
10430 2 16.3473 50.7821 34.6804
4048 1 17.2615 52.3182 33.3703
10418 2 19.0769 52.3589 34.6536
4047 1 19.9874 50.7439 33.397
7215 2 21.8036 50.7821 34.6804
4077 1 14.5365 53.8898 33.3421
10429 2 13.6259 55.5042 34.5943
4078 1 11.8125 55.4582 33.3121
4076 1 12.7065 53.9854 35.9234
10433 2 16.351 53.9332 34.625
4042 1 17.2687 55.4582 33.3121
4040 1 15.4365 55.5623 35.8968
4039 1 18.1627 53.9854 35.9234
10417 2 19.0822 55.5042 34.5943
4050 1 19.9927 53.8898 33.3421
7213 2 21.8072 53.9332 34.625
4033 1 20.8927 55.5623 35.8968
10630 2 11.7991 39.7561 37.4063
16397 1 13.6173 39.7823 38.6916
4095 1 12.7083 38.144 36.1446
10632 2 14.528 38.1677 37.4256
10619 2 17.2553 39.7561 37.4063
16396 1 16.3465 38.1922 38.7106
4056 1 15.4357 39.731 36.1253
4066 1 18.1645 38.144 36.1446
10618 2 19.9843 38.1677 37.4256
16362 1 19.0735 39.7823 38.6916
4038 1 20.8919 39.731 36.1253
13584 1 21.8027 38.1922 38.7106
10629 2 11.7975 42.9322 37.3659
16393 1 13.6151 42.9623 38.6518
4096 1 12.7069 41.3176 36.1055
10628 2 14.5264 41.3443 37.3865
10616 2 17.2537 42.9322 37.3659
16398 1 16.3443 41.3723 38.672
4055 1 15.4344 42.9038 36.0851
4054 1 18.1631 41.3176 36.1055
10620 2 19.9826 41.3443 37.3865
16361 1 19.0713 42.9623 38.6518
4037 1 20.8906 42.9038 36.0851
13582 1 21.8006 41.3723 38.672
10626 2 11.7961 46.1069 37.3229
16392 1 13.6127 46.142 38.6098
4081 1 12.7057 44.4895 36.0641
10631 2 14.5249 44.5198 37.3448
10615 2 17.2523 46.1069 37.3229
16391 1 16.342 44.5522 38.6311
4045 1 15.4333 46.0746 36.0425
4057 1 18.1619 44.4895 36.0641
10614 2 19.9811 44.5198 37.3448
16356 1 19.069 46.142 38.6098
4036 1 20.8895 46.0746 36.0425
13583 1 21.7983 44.5522 38.6311
10625 2 11.795 49.2792 37.2768
16382 1 13.6103 49.3217 38.5656
4082 1 12.7048 47.659 36.0202
10624 2 14.5236 47.6934 37.3003
10612 2 17.2512 49.2792 37.2768
16394 1 16.3396 47.7319 38.588
4044 1 15.4328 49.2425 35.9972
4043 1 18.1611 47.659 36.0202
10617 2 19.9798 47.6934 37.3003
16355 1 19.0665 49.3217 38.5656
4035 1 20.8891 49.2425 35.9972
13580 1 21.7959 47.7319 38.588
10623 2 11.7948 52.4478 37.2267
16381 1 13.6076 52.5019 38.5193
4075 1 12.7048 50.825 35.9734
10627 2 14.5229 50.8641 37.2524
10611 2 17.251 52.4478 37.2267
16380 1 16.3371 50.9116 38.5427
4041 1 15.4335 52.406 35.9489
4046 1 18.1611 50.825 35.9734
10610 2 19.9791 50.8641 37.2524
16342 1 19.0638 52.5019 38.5193
4034 1 20.8897 52.406 35.9489
13581 1 21.7934 50.9116 38.5427
10622 2 11.7963 55.6093 37.17
16371 1 13.6037 55.6847 38.4713
10621 2 14.5234 54.0297 37.1994
10609 2 17.2526 55.6093 37.17
16383 1 16.3341 54.0927 38.4954
10613 2 19.9796 54.0297 37.1994
16341 1 19.0599 55.6847 38.4713
13579 1 21.7903 54.0927 38.4954
22019 2 12.7108 38.216 39.9901
22002 2 13.6221 39.859 42.5319
16389 1 11.8006 39.834 41.2544
16395 1 14.53 38.2407 41.2736
22006 2 15.4379 39.8075 39.9708
22001 2 16.3514 38.2644 42.5515
16359 1 17.2569 39.834 41.2544
22008 2 18.1671 38.216 39.9901
16358 1 19.9863 38.2407 41.2736
21957 2 19.0783 39.859 42.5319
21960 2 20.8941 39.8075 39.9708
19198 2 21.8077 38.2644 42.5515
22020 2 12.7086 41.3991 39.9509
16388 1 11.7979 43.0213 41.2141
21994 2 13.6195 43.0492 42.4906
16387 1 14.5274 41.4275 41.2345
22005 2 15.4356 42.9907 39.9304
22003 2 16.349 41.4539 42.5116
16353 1 17.2541 43.0213 41.2141
22004 2 18.1649 41.3991 39.9509
16360 1 19.9836 41.4275 41.2345
21956 2 19.0758 43.0492 42.4906
21959 2 20.8918 42.9907 39.9304
19194 2 21.8052 41.4539 42.5116
22016 2 12.7063 44.5824 39.9092
16378 1 11.7948 46.2102 41.1715
21993 2 13.6168 46.2411 42.4463
16390 1 14.5245 44.6155 41.1931
21998 2 15.4332 46.1741 39.8873
16352 1 17.251 46.2102 41.1715
21992 2 16.3463 44.6449 42.4688
22007 2 18.1626 44.5824 39.9092
16351 1 19.9807 44.6155 41.1931
21949 2 19.073 46.2411 42.4463
21958 2 20.8895 46.1741 39.8873
19195 2 21.8025 44.6449 42.4688
22017 2 12.7039 47.7658 39.8646
16377 1 11.7912 49.402 41.1265
21980 2 13.6139 49.4356 42.3984
16376 1 14.5212 47.8056 41.1493
21997 2 15.4309 49.3576 39.8411
16339 1 17.2474 49.402 41.1265
21995 2 16.3435 47.838 42.4228
21996 2 18.1602 47.7658 39.8646
16354 1 19.9774 47.8056 41.1493
21948 2 19.0701 49.4356 42.3984
21951 2 20.8872 49.3576 39.8411
19190 2 21.7997 47.838 42.4228
22012 2 12.7017 50.9495 39.8166
16370 1 11.7865 52.5993 41.0787
21979 2 13.6109 52.6339 42.3455
16379 1 14.5172 50.9997 41.103
16338 1 17.2428 52.5993 41.0787
21978 2 16.3406 51.0342 42.3727
21984 2 15.4288 52.5413 39.7908
21999 2 18.1579 50.9495 39.8166
16337 1 19.9734 50.9997 41.103
21934 2 19.0672 52.6339 42.3455
21950 2 20.8851 52.5413 39.7908
19191 2 21.7968 51.0342 42.3727
22013 2 12.6998 54.1332 39.7634
16369 1 11.7791 55.8076 41.0279
21969 2 13.6076 55.8388 42.2847
16368 1 14.5115 54.2014 41.0538
16321 1 17.2354 55.8076 41.0279
21981 2 16.3375 54.2353 42.3163
21983 2 15.4273 55.725 39.7339
21982 2 18.1561 54.1332 39.7634
16340 1 19.9677 54.2014 41.0538
21933 2 19.0638 55.8388 42.2847
21935 2 20.8835 55.725 39.7339
19189 2 21.7937 54.2353 42.3163
16385 1 12.7151 38.2892 43.8335
21990 2 11.808 39.9101 45.0898
22000 2 14.5373 38.3125 45.1101
16349 1 15.4419 39.8856 43.8138
21954 2 17.2642 39.9101 45.0898
16357 1 18.1714 38.2892 43.8335
16296 1 20.8982 39.8856 43.8138
21953 2 19.9935 38.3125 45.1101
16386 1 12.7124 41.4824 43.7934
21989 2 11.8054 43.1068 45.0469
21988 2 14.5348 41.5081 45.0688
16348 1 15.4391 43.0799 43.7723
21946 2 17.2617 43.1068 45.0469
16347 1 18.1687 41.4824 43.7934
16295 1 20.8953 43.0799 43.7723
21955 2 19.9911 41.5081 45.0688
16374 1 12.7094 44.6782 43.7504
21976 2 11.8027 46.3066 45.0004
21991 2 14.5322 44.7063 45.0241
16335 1 15.4358 46.2774 43.7278
21945 2 17.2589 46.3066 45.0004
16350 1 18.1656 44.6782 43.7504
16294 1 20.892 46.2774 43.7278
21944 2 19.9884 44.7063 45.0241
16375 1 12.7059 47.878 43.7044
21975 2 11.7998 49.5108 44.9496
21974 2 14.5294 47.908 44.9756
16334 1 15.432 49.4801 43.68
21931 2 17.256 49.5108 44.9496
16333 1 18.1621 47.878 43.7044
16287 1 20.8882 49.4801 43.68
21947 2 19.9856 47.908 44.9756
16366 1 12.7016 51.0844 43.6546
21968 2 11.7966 52.7214 44.8927
21977 2 14.5264 51.1151 44.922
16320 1 15.4271 52.6914 43.6279
21930 2 17.2528 52.7214 44.8927
16336 1 18.1578 51.0844 43.6546
16286 1 20.8833 52.6914 43.6279
21929 2 19.9826 51.1151 44.922
16367 1 12.6957 54.3018 43.5997
21967 2 11.7924 55.9421 44.8268
21966 2 14.5228 54.3302 44.8611
16319 1 15.4199 55.9167 43.5694
21914 2 17.2486 55.9421 44.8268
16318 1 18.152 54.3018 43.5997
16271 1 20.8762 55.9167 43.5694
21932 2 19.979 54.3302 44.8611
16327 1 11.8167 39.9862 48.9239
16345 1 13.6286 39.9365 46.3701
21986 2 12.7245 38.36 47.6661
16343 1 14.5459 38.3844 48.9454
16290 1 17.2729 39.9862 48.9239
16344 1 16.358 38.3373 46.3907
21942 2 15.4515 39.9602 47.645
21952 2 18.1807 38.36 47.6661
16289 1 20.0021 38.3844 48.9454
16293 1 19.0849 39.9365 46.3701
21894 2 20.9077 39.9602 47.645
13564 1 21.8142 38.3373 46.3907
16326 1 11.8144 43.1925 48.8779
16331 1 13.6259 43.1372 46.3266
21987 2 12.7222 41.5611 47.6229
16325 1 14.5437 41.5889 48.9014
16282 1 17.2706 43.1925 48.8779
16346 1 16.3554 41.5364 46.3488
21941 2 15.4492 43.1629 47.5999
21940 2 18.1785 41.5611 47.6229
16291 1 19.9999 41.5889 48.9014
16292 1 19.0822 43.1372 46.3266
21893 2 20.9054 43.1629 47.5999
13552 1 21.8117 41.5364 46.3488
16312 1 11.8119 46.4036 48.8276
16330 1 13.623 46.3423 46.2794
21972 2 12.7199 44.7656 47.5758
16328 1 14.5413 44.7974 48.8533
16281 1 17.2681 46.4036 48.8276
16329 1 16.3526 44.7391 46.3035
21927 2 15.4467 46.3694 47.5507
21943 2 18.1761 44.7656 47.5758
16280 1 19.9975 44.7974 48.8533
16285 1 19.0792 46.3423 46.2794
21892 2 20.903 46.3694 47.5507
13553 1 21.8088 44.7391 46.3035
16311 1 11.8091 49.6214 48.772
16316 1 13.6196 49.5537 46.2278
21973 2 12.7173 47.9746 47.5242
16310 1 14.5387 48.0115 48.8005
16267 1 17.2654 49.6214 48.772
16332 1 16.3494 47.947 46.2542
21926 2 15.4441 49.5814 47.4964
21925 2 18.1736 47.9746 47.5242
16283 1 19.9949 48.0115 48.8005
16284 1 19.0758 49.5537 46.2278
21885 2 20.9003 49.5814 47.4964
13544 1 21.8057 47.947 46.2542
16304 1 11.8058 52.848 48.7095
16315 1 13.6154 52.7746 46.1703
21964 2 12.7144 51.1901 47.4669
16313 1 14.5357 51.2334 48.7418
16266 1 17.2621 52.848 48.7095
16314 1 16.3457 51.1627 46.1999
21913 2 15.4409 52.8009 47.4355
21928 2 18.1707 51.1901 47.4669
16265 1 19.9919 51.2334 48.7418
16270 1 19.0716 52.7746 46.1703
21884 2 20.8971 52.8009 47.4355
13545 1 21.802 51.1627 46.1999
16303 1 11.8014 56.0853 48.6379
16305 1 13.6099 56.0089 46.1037
21965 2 12.7107 54.4145 47.4018
16302 1 14.5319 54.4652 48.6751
16252 1 17.2577 56.0853 48.6379
16317 1 16.341 54.3898 46.1384
21912 2 15.4363 56.0311 47.3655
21911 2 18.167 54.4145 47.4018
16268 1 19.9882 54.4652 48.6751
16269 1 19.0661 56.0089 46.1037
21873 2 20.8925 56.0311 47.3655
13543 1 21.7972 54.3898 46.1384
16323 1 12.7347 38.4304 51.4982
21938 2 13.6399 40.0091 50.1978
21985 2 10.9128 38.4065 50.22
16278 1 15.462 40.0344 51.4756
21937 2 16.369 38.4065 50.22
16236 1 20.9182 40.0344 51.4756
16288 1 18.191 38.4304 51.4982
21891 2 19.0962 40.0091 50.1978
16324 1 12.733 41.6393 51.4519
21923 2 13.638 43.2168 50.1504
16277 1 15.4602 43.2452 51.427
21939 2 16.3671 41.6125 50.1746
16235 1 20.9164 43.2452 51.427
16276 1 18.1892 41.6393 51.4519
21890 2 19.0942 43.2168 50.1504
19150 2 21.8233 41.6125 50.1746
16308 1 12.7311 44.8524 51.401
21922 2 13.6359 46.4287 50.0983
16263 1 15.4582 46.4609 51.3737
21921 2 16.3651 44.8221 50.125
16279 1 18.1873 44.8524 51.401
19151 2 21.8213 44.8221 50.125
16234 1 20.9144 46.4609 51.3737
21883 2 19.0921 46.4287 50.0983
16309 1 12.729 48.0709 51.345
21909 2 13.6335 49.6464 50.0408
21904 2 11.8236 49.7053 52.5846
16262 1 15.456 49.6826 51.3147
21924 2 16.3628 48.0368 50.0703
16261 1 18.1852 48.0709 51.345
21869 2 17.2798 49.7053 52.5846
19142 2 21.8191 48.0368 50.0703
16228 1 20.9122 49.6826 51.3147
21882 2 19.0897 49.6464 50.0408
21899 2 11.8205 52.9326 52.5186
16300 1 12.7265 51.2962 51.2827
21908 2 13.6303 52.8713 49.9767
21906 2 14.5503 51.3182 52.5523
21868 2 17.2767 52.9326 52.5186
16251 1 15.4531 52.9117 51.249
21907 2 16.3601 51.2578 50.0097
16264 1 18.1828 51.2962 51.2827
19143 2 21.8164 51.2578 50.0097
21867 2 20.0066 51.3182 52.5523
16227 1 20.9094 52.9117 51.249
21872 2 19.0866 52.8713 49.9767
21897 2 14.5464 54.5488 52.4834
21898 2 11.8156 56.1665 52.4469
16301 1 12.7231 54.5291 51.2133
21900 2 13.6255 56.1053 49.9049
21862 2 17.2718 56.1665 52.4469
16250 1 15.4489 56.1484 51.1757
21910 2 16.3563 54.4871 49.9418
16249 1 18.1794 54.5291 51.2133
21870 2 20.0027 54.5488 52.4834
19141 2 21.8126 54.4871 49.9418
16220 1 20.9051 56.1484 51.1757
21871 2 19.0818 56.1053 49.9049
16274 1 13.6518 40.0808 54.0259
16322 1 10.9244 38.475 54.0496
21915 2 12.7479 38.4956 55.3233
21919 2 11.8292 40.0563 52.749
16273 1 16.3806 38.475 54.0496
21876 2 15.4754 40.1019 55.2992
21888 2 17.2855 40.0563 52.749
21936 2 14.5581 38.4517 52.7722
16233 1 19.1081 40.0808 54.0259
21858 2 20.9316 40.1019 55.2992
21886 2 18.2041 38.4956 55.3233
21887 2 20.0144 38.4517 52.7722
16259 1 13.6504 43.2952 53.975
16306 1 10.923 41.6875 54.0011
21916 2 12.7466 41.709 55.2739
21918 2 11.8276 43.2681 52.6993
16275 1 16.3792 41.6875 54.0011
21875 2 15.474 43.3169 55.2474
21880 2 17.2839 43.2681 52.6993
21917 2 14.5566 41.6618 52.7247
16232 1 19.1066 43.2952 53.975
21857 2 20.9303 43.3169 55.2474
21874 2 18.2029 41.709 55.2739
21889 2 20.0128 41.6618 52.7247
16258 1 13.6488 46.5138 53.9191
16307 1 10.9215 44.9039 53.9477
21901 2 12.7452 44.9257 55.2197
21905 2 11.8258 46.4841 52.6447
16257 1 16.3777 44.9039 53.9477
21865 2 15.4724 46.5355 55.1907
21879 2 17.2821 46.4841 52.6447
21920 2 14.5549 44.8755 52.6726
16226 1 19.105 46.5138 53.9191
21856 2 20.9287 46.5355 55.1907
21877 2 18.2014 44.9257 55.2197
21878 2 20.0111 44.8755 52.6726
16247 1 13.6469 49.7376 53.8576
16298 1 10.9198 48.125 53.889
21902 2 12.7433 48.1464 55.1604
16260 1 16.376 48.125 53.889
21864 2 15.4703 49.7584 55.1289
21903 2 14.5529 48.094 52.6153
16225 1 19.1031 49.7376 53.8576
21855 2 20.9266 49.7584 55.1289
21863 2 18.1996 48.1464 55.1604
21881 2 20.0091 48.094 52.6153
21895 2 12.7408 51.3716 55.0961
16299 1 10.9175 51.3515 53.8247
16246 1 13.6441 52.9668 53.7903
21861 2 15.4672 52.986 55.0623
16245 1 16.3738 51.3515 53.8247
21866 2 18.197 51.3716 55.0961
21854 2 20.9234 52.986 55.0623
16219 1 19.1004 52.9668 53.7903
21896 2 12.7369 54.6013 55.0275
16297 1 10.9141 54.5833 53.7547
16240 1 13.6397 56.2008 53.718
21860 2 15.4624 56.2176 54.992
16248 1 16.3703 54.5833 53.7547
21859 2 18.1931 54.6013 55.0275
21853 2 20.9186 56.2176 54.992
16218 1 19.0959 56.2008 53.718
16571 1 12.7611 38.5599 59.1504
22205 2 13.6656 40.1458 57.8489
22212 2 10.9381 38.5381 57.8739
16255 1 11.8421 40.1254 56.5756
16558 1 15.4888 40.1683 59.1251
22204 2 16.3943 38.5381 57.8739
16230 1 17.2983 40.1254 56.5756
16272 1 14.5707 38.5181 56.6002
16512 1 20.9451 40.1683 59.1251
16560 1 18.2174 38.5599 59.1504
22170 2 19.1219 40.1458 57.8489
16229 1 20.027 38.5181 56.6002
16572 1 12.7602 41.7773 59.0984
22201 2 13.6645 43.363 57.7955
22210 2 10.937 41.7541 57.8228
16254 1 11.841 43.3423 56.5227
16557 1 15.4879 43.3869 59.0706
22206 2 16.3932 41.7541 57.8228
16223 1 17.2972 43.3423 56.5227
16253 1 14.5697 41.7335 56.5497
16511 1 20.9441 43.3869 59.0706
16556 1 18.2165 41.7773 59.0984
22169 2 19.1207 43.363 57.7955
16231 1 20.0259 41.7335 56.5497
16568 1 12.7592 44.9972 59.0416
22200 2 13.663 46.5832 57.7372
22211 2 10.9357 44.9727 57.7669
16243 1 11.8396 46.5627 56.4647
16550 1 15.4866 46.6081 59.0114
22199 2 16.3919 44.9727 57.7669
16222 1 17.2958 46.5627 56.4647
16256 1 14.5684 44.952 56.4943
16510 1 20.9428 46.6081 59.0114
16559 1 18.2154 44.9972 59.0416
22164 2 19.1192 46.5832 57.7372
16221 1 20.0247 44.952 56.4943
16569 1 12.7576 48.2197 58.9801
22190 2 13.6609 49.8066 57.6745
22208 2 10.9339 48.1945 57.7064
16242 1 11.8378 49.787 56.4018
16549 1 15.4847 49.8319 58.9478
22202 2 16.3901 48.1945 57.7064
16216 1 17.294 49.787 56.4018
16241 1 14.5669 48.1743 56.4339
16503 1 20.9409 49.8319 58.9478
16548 1 18.2139 48.2197 58.9801
22163 2 19.1171 49.8066 57.6745
16224 1 20.0231 48.1743 56.4339
16564 1 12.7553 51.4446 58.9147
22189 2 13.6577 53.0329 57.6081
22209 2 10.9313 51.4194 57.6417
16239 1 11.8349 53.0149 56.3343
16536 1 15.4818 53.0578 58.881
22188 2 16.3876 51.4194 57.6417
16215 1 17.2912 53.0149 56.3343
16244 1 14.5646 51.4005 56.3686
16502 1 20.938 53.0578 58.881
16551 1 18.2115 51.4446 58.9147
22150 2 19.114 53.0329 57.6081
16214 1 20.0209 51.4005 56.3686
16565 1 12.7517 54.6713 58.8469
22179 2 13.6532 56.2615 57.5398
22207 2 10.9275 54.647 57.5741
16238 1 11.8305 56.2456 56.264
16535 1 15.4775 56.285 58.8129
22191 2 16.3838 54.647 57.5741
16213 1 17.2867 56.2456 56.264
16237 1 14.5611 54.63 56.2994
16487 1 20.9337 56.285 58.8129
16534 1 18.208 54.6713 58.8469
22149 2 19.1094 56.2615 57.5398
16217 1 20.0173 54.63 56.2994
16554 1 13.6794 40.2097 61.6749
16570 1 10.9517 38.6004 61.7008
22197 2 11.8561 40.1882 60.3986
16553 1 16.4079 38.6004 61.7008
22167 2 17.3123 40.1882 60.3986
22203 2 14.5847 38.5795 60.4242
16509 1 19.1356 40.2097 61.6749
22166 2 20.0409 38.5795 60.4242
16546 1 13.6784 43.4294 61.6194
16566 1 10.9508 41.8194 61.6477
22196 2 11.855 43.407 60.3439
16555 1 16.4071 41.8194 61.6477
22161 2 17.3112 43.407 60.3439
22195 2 14.5837 41.7974 60.3719
16508 1 19.1347 43.4294 61.6194
22168 2 20.0399 41.7974 60.3719
16545 1 13.6771 46.6508 61.5595
16567 1 10.9497 45.0399 61.59
22186 2 11.8535 46.6279 60.2848
16544 1 16.406 45.0399 61.59
22160 2 17.3097 46.6279 60.2848
22198 2 14.5824 45.0172 60.3149
16501 1 19.1334 46.6508 61.5595
22159 2 20.0387 45.0172 60.3149
16532 1 13.6752 49.8735 61.4959
16562 1 10.9481 48.262 61.5281
22185 2 11.8514 49.8508 60.2218
16547 1 16.4044 48.262 61.5281
22147 2 17.3076 49.8508 60.2218
22184 2 14.5807 48.2391 60.2537
16500 1 19.1314 49.8735 61.4959
22162 2 20.0369 48.2391 60.2537
16531 1 13.6722 53.0971 61.4301
16563 1 10.9457 51.4852 61.4632
22178 2 11.8483 53.0753 60.1561
16530 1 16.402 51.4852 61.4632
22146 2 17.3045 53.0753 60.1561
22187 2 14.5781 51.4629 60.1892
16486 1 19.1285 53.0971 61.4301
22145 2 20.0343 51.4629 60.1892
16521 1 13.6681 56.3208 61.364
16561 1 10.9422 54.709 61.3969
22177 2 11.844 56.3005 60.0898
16533 1 16.3985 54.709 61.3969
22129 2 17.3002 56.3005 60.0898
22176 2 14.5744 54.6878 60.1229
16485 1 19.1244 56.3208 61.364
22148 2 20.0306 54.6878 60.1229
16542 1 11.8698 40.25 64.2256
22153 2 13.6933 40.2698 65.4986
22192 2 10.9657 38.6595 65.5249
22193 2 12.7752 38.6198 62.9746
16506 1 17.3261 40.25 64.2256
16552 1 14.5984 38.6401 64.2519
22152 2 16.4219 38.6595 65.5249
22157 2 15.5028 40.2294 62.9485
16505 1 20.0546 38.6401 64.2519
22101 2 19.1495 40.2698 65.4986
22104 2 20.959 40.2294 62.9485
22165 2 18.2314 38.6198 62.9746
16541 1 11.8688 43.4706 64.1695
22139 2 13.6921 43.4908 65.4428
22180 2 10.9646 41.8803 65.4712
22194 2 12.7742 41.8392 62.9214
16498 1 17.3251 43.4706 64.1695
16540 1 14.5975 41.8602 64.1981
22154 2 16.4208 41.8803 65.4712
22156 2 15.5017 43.4494 62.8931
16507 1 20.0537 41.8602 64.1981
22100 2 19.1483 43.4908 65.4428
22103 2 20.9579 43.4494 62.8931
22155 2 18.2304 41.8392 62.9214
16528 1 11.8674 46.6917 64.1094
22138 2 13.6905 46.7118 65.3831
22181 2 10.9632 45.1013 65.4134
22182 2 12.7729 45.0598 62.8637
16497 1 17.3237 46.6917 64.1094
16543 1 14.5963 45.0811 64.1399
22137 2 16.4195 45.1013 65.4134
22143 2 15.5002 46.6705 62.8335
16496 1 20.0526 45.0811 64.1399
22093 2 19.1467 46.7118 65.3831
22102 2 20.9564 46.6705 62.8335
22158 2 18.2291 45.0598 62.8637
16527 1 11.8654 49.9131 64.0462
22124 2 13.6882 49.9326 65.3208
22172 2 10.9613 48.3223 65.3522
22183 2 12.7711 48.2814 62.8024
16483 1 17.3216 49.9131 64.0462
16526 1 14.5946 48.3024 64.0781
22140 2 16.4175 48.3223 65.3522
22142 2 15.498 49.8924 62.7706
16499 1 20.0509 48.3024 64.0781
22092 2 19.1444 49.9326 65.3208
22095 2 20.9542 49.8924 62.7706
22141 2 18.2273 48.2814 62.8024
16520 1 11.8625 53.1343 63.9815
22123 2 13.6852 53.1527 65.2572
22173 2 10.9587 51.5428 65.289
22174 2 12.7685 51.5035 62.7384
16482 1 17.3187 53.1343 63.9815
16529 1 14.5921 51.5238 64.0139
22122 2 16.4149 51.5428 65.289
22128 2 15.4949 53.1147 62.706
16481 1 20.0484 51.5238 64.0139
22078 2 19.1414 53.1527 65.2572
22094 2 20.9512 53.1147 62.706
22144 2 18.2247 51.5035 62.7384
16519 1 11.8586 56.3547 63.9172
22113 2 13.6814 56.3714 65.1944
22171 2 10.9553 54.7622 65.2255
22175 2 12.7649 54.7257 62.6736
16466 1 17.3148 56.3547 63.9172
16518 1 14.5888 54.7446 63.9491
22125 2 16.4115 54.7622 65.2255
22127 2 15.4909 56.3366 62.6415
16484 1 20.045 54.7446 63.9491
22077 2 19.1376 56.3714 65.1944
22079 2 20.9472 56.3366 62.6415
22126 2 18.2212 54.7257 62.6736
16538 1 12.7886 38.6793 66.8047
22135 2 11.8836 40.31 68.048
16494 1 15.5163 40.2898 66.7782
22098 2 17.3399 40.31 68.048
22151 2 14.6123 38.6989 68.0744
16446 1 20.9725 40.2898 66.7782
16504 1 18.2448 38.6793 66.8047
22097 2 20.0686 38.6989 68.0744
16539 1 12.7876 41.9004 66.7506
22134 2 11.8823 43.532 67.9922
16493 1 15.5151 43.511 66.722
22090 2 17.3385 43.532 67.9922
22133 2 14.6111 41.9211 68.0206
16445 1 20.9714 43.511 66.722
16492 1 18.2439 41.9004 66.7506
22099 2 20.0674 41.9211 68.0206
16524 1 12.7863 45.1214 66.6924
22120 2 11.8805 46.753 67.9328
16474 1 13.7025 46.772 69.2203
16523 1 10.9753 45.1619 69.2505
16479 1 15.5136 46.7318 66.6619
22089 2 17.3368 46.753 67.9328
22136 2 14.6096 45.1426 67.9629
16473 1 16.4315 45.1619 69.2505
16444 1 20.9698 46.7318 66.6619
16495 1 18.2425 45.1214 66.6924
22088 2 20.0658 45.1426 67.9629
16435 1 19.1587 46.772 69.2203
16525 1 12.7844 48.3419 66.6309
22119 2 11.8781 49.9728 67.8711
16461 1 13.7002 49.9908 69.1583
16514 1 10.9733 48.3816 69.1895
16478 1 15.5114 49.9519 66.5993
22075 2 17.3344 49.9728 67.8711
22118 2 14.6075 48.3631 67.9021
16476 1 16.4295 48.3816 69.1895
16437 1 20.9676 49.9519 66.5993
16477 1 18.2407 48.3419 66.6309
22091 2 20.0638 48.3631 67.9021
16434 1 19.1565 49.9908 69.1583
16516 1 12.7819 51.5615 66.5676
22112 2 11.8751 53.1908 67.8086
16460 1 13.6974 53.2076 69.0959
16515 1 10.9707 51.5995 69.127
16465 1 15.5085 53.1708 66.5358
22074 2 17.3314 53.1908 67.8086
22121 2 14.6048 51.5821 67.8398
16459 1 16.427 51.5995 69.127
16436 1 20.9647 53.1708 66.5358
16480 1 18.2382 51.5615 66.5676
22073 2 20.0611 51.5821 67.8398
16424 1 19.1536 53.2076 69.0959
16517 1 12.7786 54.7796 66.5042
22111 2 11.8715 56.4064 67.7474
16452 1 13.6939 56.4216 69.0349
16513 1 10.9676 54.8149 69.0652
16464 1 15.5048 56.3879 66.4732
22060 2 17.3277 56.4064 67.7474
22110 2 14.6015 54.7989 67.7777
16462 1 16.4239 54.8149 69.0652
16425 1 20.9611 56.3879 66.4732
16463 1 18.2349 54.7796 66.5042
22076 2 20.0577 54.7989 67.7777
16423 1 19.1502 56.4216 69.0349
16471 1 11.8898 40.3693 71.9113
16490 1 13.7055 40.3296 69.3361
16537 1 10.9779 38.7184 69.3625
22131 2 12.8025 38.738 70.62
16440 1 17.346 40.3693 71.9113
16488 1 14.6185 38.7574 71.9378
16489 1 16.4342 38.7184 69.3625
22086 2 15.53 40.3501 70.5937
16439 1 20.0747 38.7574 71.9378
16443 1 19.1617 40.3296 69.3361
22044 2 20.9863 40.3501 70.5937
22096 2 18.2588 38.738 70.62
16470 1 11.8884 43.592 71.8555
16475 1 13.7042 43.5515 69.28
16522 1 10.9768 41.9407 69.3085
22132 2 12.8012 41.9619 70.5663
16432 1 17.3447 43.592 71.8555
16469 1 14.6172 41.9809 71.8839
16491 1 16.433 41.9407 69.3085
22085 2 15.5285 43.5733 70.538
16441 1 20.0735 41.9809 71.8839
16442 1 19.1604 43.5515 69.28
22043 2 20.9848 43.5733 70.538
22084 2 18.2574 41.9619 70.5663
16457 1 11.8868 46.8126 71.7962
22116 2 12.7995 45.1843 70.5088
16431 1 17.343 46.8126 71.7962
16472 1 14.6158 45.2026 71.8262
22071 2 15.5266 46.7947 70.479
16430 1 20.072 45.2026 71.8262
22042 2 20.9829 46.7947 70.479
22087 2 18.2558 45.1843 70.5088
16456 1 11.8848 50.0303 71.7339
22117 2 12.7974 48.4045 70.4486
16421 1 17.341 50.0303 71.7339
16455 1 14.614 48.4219 71.7654
22070 2 15.5241 50.0137 70.4179
16433 1 20.0702 48.4219 71.7654
22036 2 20.9804 50.0137 70.4179
22069 2 18.2536 48.4045 70.4486
16451 1 11.8821 53.2448 71.673
22108 2 12.7946 51.6222 70.387
16420 1 17.3384 53.2448 71.673
16458 1 14.6116 51.638 71.7035
22059 2 15.5212 53.2299 70.3564
16419 1 20.0679 51.638 71.7035
22035 2 20.9774 53.2299 70.3564
22072 2 18.2508 51.6222 70.387
16450 1 11.879 56.4559 71.6133
22109 2 12.7914 54.8367 70.326
16414 1 17.3352 56.4559 71.6133
16449 1 14.6087 54.8508 71.6429
22058 2 15.5176 56.4426 70.2962
16422 1 20.065 54.8508 71.6429
22028 2 20.9739 56.4426 70.2962
22057 2 18.2476 54.8367 70.326
16467 1 12.7449 38.7975 74.5898
22063 2 11.8797 40.428 75.6017
22082 2 13.7183 40.3902 73.1257
22130 2 10.9909 38.777 73.1519
16428 1 15.473 40.4092 74.5637
22038 2 17.3359 40.428 75.6017
22080 2 14.6083 38.8146 75.6275
22081 2 16.4471 38.777 73.1519
16410 1 20.9292 40.4092 74.5637
16438 1 18.2011 38.7975 74.5898
22037 2 20.0645 38.8146 75.6275
22041 2 19.1745 40.3902 73.1257
16468 1 12.7449 42.0205 74.5365
22062 2 11.8786 43.653 75.5475
22067 2 13.7167 43.615 73.0706
22114 2 10.9894 42.0029 73.0986
16427 1 15.4731 43.6312 74.5085
22031 2 17.3349 43.653 75.5475
22061 2 14.6073 42.0409 75.575
22083 2 16.4457 42.0029 73.0986
16409 1 20.9293 43.6312 74.5085
16426 1 18.2011 42.0205 74.5365
22039 2 20.0635 42.0409 75.575
22040 2 19.173 43.615 73.0706
16453 1 12.7452 45.2413 74.4797
22051 2 11.8774 46.8749 75.4909
22066 2 13.7148 46.8373 73.0124
22115 2 10.9877 45.2265 73.0418
16417 1 15.4735 46.8507 74.4504
22030 2 17.3337 46.8749 75.4909
22064 2 14.6062 45.2644 75.5195
22065 2 16.4439 45.2265 73.0418
16408 1 20.9297 46.8507 74.4504
16429 1 18.2014 45.2413 74.4797
22029 2 20.0624 45.2644 75.5195
22034 2 19.171 46.8373 73.0124
16454 1 12.7457 48.4593 74.4206
22050 2 11.876 50.0926 75.4335
22055 2 13.7121 50.056 72.9524
22106 2 10.9855 48.4472 72.9825
16416 1 15.4743 50.0666 74.3904
22024 2 17.3322 50.0926 75.4335
22049 2 14.6049 48.4843 75.4622
22068 2 16.4417 48.4472 72.9825
16407 1 20.9306 50.0666 74.3904
16415 1 18.202 48.4593 74.4206
22032 2 20.0611 48.4843 75.4622
22033 2 19.1684 50.056 72.9524
16447 1 12.7463 51.6729 74.3602
22047 2 11.8743 53.3057 75.3741
22054 2 13.7093 53.2705 72.8918
22107 2 10.9827 51.6637 72.9221
16413 1 15.4747 53.2786 74.3298
22023 2 17.3305 53.3057 75.3741
22052 2 14.6033 51.6998 75.4037
22053 2 16.4389 51.6637 72.9221
16406 1 20.9309 53.2786 74.3298
16418 1 18.2026 51.6729 74.3602
22022 2 20.0595 51.6998 75.4037
22027 2 19.1656 53.2705 72.8918
16448 1 12.7468 54.8833 74.2997
22046 2 11.8723 56.5136 75.3163
22048 2 13.7059 56.4806 72.8326
22105 2 10.9795 54.8761 72.8619
16412 1 15.4751 56.4871 74.2703
22021 2 17.3285 56.5136 75.3163
22045 2 14.6014 54.9104 75.3449
22056 2 16.4358 54.8761 72.8619
16405 1 20.9313 56.4871 74.2703
16411 1 18.203 54.8833 74.2997
22025 2 20.0577 54.9104 75.3449
22026 2 19.1621 56.4806 72.8326
10809 2 11.8396 58.1085 -1.46014
10817 2 13.6655 58.0859 -3.95682
4416 1 12.7736 59.6916 -2.92152
10822 2 10.9391 59.6714 -3.97549
4402 1 15.4987 58.1074 -2.90239
10779 2 17.2958 58.1085 -1.46014
10807 2 14.5687 59.6923 -1.47934
10818 2 16.3954 59.6714 -3.97549
4356 1 20.955 58.1074 -2.90239
10782 2 19.1217 58.0859 -3.95682
4400 1 18.2299 59.6916 -2.92152
10780 2 20.025 59.6923 -1.47934
10808 2 11.8416 61.2769 -1.49718
10813 2 13.6689 61.2578 -3.99285
4412 1 12.7791 62.8623 -2.95558
10823 2 10.9424 62.8451 -4.00876
4401 1 15.5046 61.2766 -2.93929
10773 2 17.2979 61.2769 -1.49718
10810 2 14.5707 62.8624 -1.51355
10811 2 16.3986 62.8451 -4.00876
4355 1 20.9608 61.2766 -2.93929
10781 2 19.1252 61.2578 -3.99285
4403 1 18.2354 62.8623 -2.95558
10771 2 20.027 62.8624 -1.51355
10798 2 11.8435 64.4487 -1.5283
10812 2 13.672 64.4333 -4.02312
4413 1 12.7837 66.0355 -2.98322
10820 2 10.9452 66.0221 -4.0358
4394 1 15.5097 64.4487 -2.97026
10772 2 17.2998 64.4487 -1.5283
10796 2 14.5725 66.0357 -1.54134
10814 2 16.4014 66.0221 -4.0358
4354 1 20.9659 64.4487 -2.97026
10776 2 19.1282 64.4333 -4.02312
4392 1 18.24 66.0355 -2.98322
10774 2 20.0287 66.0357 -1.54134
10797 2 11.8451 67.6234 -1.55254
10802 2 13.6745 67.6117 -4.0467
4408 1 12.7872 69.2106 -3.0036
10821 2 10.9473 69.2018 -4.05575
4393 1 15.5137 67.6229 -2.99436
10759 2 17.3014 67.6234 -1.55254
10799 2 14.5739 69.2116 -1.56184
10800 2 16.4036 69.2018 -4.05575
4347 1 20.97 67.6229 -2.99436
10775 2 19.1307 67.6117 -4.0467
4395 1 18.2434 69.2106 -3.0036
10757 2 20.0301 69.2116 -1.56184
10790 2 11.8463 70.8002 -1.56915
10801 2 13.6762 70.7923 -4.06287
4409 1 12.7894 72.3869 -3.01609
10819 2 10.9487 72.3831 -4.06799
4380 1 15.5166 70.7986 -3.01086
10758 2 17.3025 70.8002 -1.56915
10788 2 14.5748 72.3892 -1.57441
10803 2 16.4049 72.3831 -4.06799
4346 1 20.9728 70.7986 -3.01086
10762 2 19.1325 70.7923 -4.06287
4378 1 18.2456 72.3869 -3.01609
10760 2 20.031 72.3892 -1.57441
10789 2 11.8469 73.9784 -1.57758
10791 2 13.6772 73.9742 -4.07108
4799 1 12.7901 75.5638 -3.02029
11232 2 10.9492 75.5655 -4.07212
4379 1 15.518 73.9753 -3.01924
10741 2 17.3031 73.9784 -1.57758
11223 2 14.5751 75.5677 -1.57864
11224 2 16.4054 75.5655 -4.07212
4331 1 20.9743 73.9753 -3.01924
10761 2 19.1334 73.9742 -4.07108
4788 1 18.2463 75.5638 -3.02029
11186 2 20.0313 75.5677 -1.57864
4386 1 11.8433 58.1498 2.35003
4398 1 13.6618 58.1257 -0.240577
4410 1 10.935 59.7084 -0.259899
10806 2 12.7521 59.7174 1.06838
4350 1 17.2995 58.1498 2.35003
10769 2 15.4791 58.1354 1.08796
4384 1 14.5726 59.7309 2.33022
4399 1 16.3912 59.7084 -0.259899
4353 1 19.118 58.1257 -0.240577
10716 2 20.9353 58.1354 1.08796
4351 1 20.0289 59.7309 2.33022
10767 2 18.2083 59.7174 1.06838
4385 1 11.8457 61.3126 2.3118
4390 1 13.6644 61.2919 -0.277857
4411 1 10.9374 62.8761 -0.294315
10794 2 12.7543 62.8836 1.03347
4342 1 17.302 61.3126 2.3118
10768 2 15.4813 61.3001 1.05017
4387 1 14.575 62.8949 2.29491
4388 1 16.3937 62.8761 -0.294315
4352 1 19.1206 61.2919 -0.277857
10715 2 20.9376 61.3001 1.05017
4340 1 20.0312 62.8949 2.29491
10770 2 18.2105 62.8836 1.03347
4372 1 11.8479 64.4778 2.27968
4389 1 13.6666 64.4609 -0.309148
4406 1 10.9395 66.0464 -0.322244
10795 2 12.7561 66.0524 1.0051
4341 1 17.3042 64.4778 2.27968
10755 2 15.4834 64.4677 1.01841
4370 1 14.577 66.0613 2.26623
4391 1 16.3958 66.0464 -0.322244
4345 1 19.1229 64.4609 -0.309148
10714 2 20.9396 64.4677 1.01841
4343 1 20.0333 66.0613 2.26623
10753 2 18.2124 66.0524 1.0051
4371 1 11.8498 67.6452 2.25467
4376 1 13.6685 67.6323 -0.333501
4407 1 10.9412 69.2187 -0.342833
10786 2 12.7576 69.2233 0.984173
4327 1 17.306 67.6452 2.25467
10754 2 15.4851 67.6376 0.993662
4373 1 14.5786 69.2295 2.24508
4374 1 16.3974 69.2187 -0.342833
4344 1 19.1248 67.6323 -0.333501
10707 2 20.9413 67.6376 0.993662
4325 1 20.0349 69.2295 2.24508
10756 2 18.2139 69.2233 0.984173
4364 1 11.8511 70.8141 2.23755
4375 1 13.6699 70.8055 -0.350168
4405 1 10.9422 72.3925 -0.355448
10787 2 12.7586 72.3958 0.971339
4326 1 17.3074 70.8141 2.23755
10740 2 15.4863 70.8094 0.976712
4362 1 14.5797 72.3989 2.23212
4377 1 16.3985 72.3925 -0.355448
4330 1 19.1261 70.8055 -0.350168
10706 2 20.9425 70.8094 0.976712
4328 1 20.0359 72.3989 2.23212
10738 2 18.2148 72.3958 0.971339
4363 1 11.8518 73.9839 2.22885
4365 1 13.6706 73.9798 -0.358632
4798 1 10.9426 75.5671 -0.359697
11213 2 12.7589 75.569 0.967015
4309 1 17.3081 73.9839 2.22885
10739 2 15.4869 73.9823 0.968099
4780 1 14.58 75.569 2.22775
4781 1 16.3988 75.5671 -0.359697
4329 1 19.1268 73.9798 -0.358632
10691 2 20.9432 73.9823 0.968099
4733 1 20.0363 75.569 2.22775
11185 2 18.2151 75.569 0.967015
10765 2 13.6623 58.1604 3.64971
4383 1 12.7556 59.7524 4.90528
10792 2 10.9355 59.7407 3.62971
4338 1 15.4823 58.1729 4.92562
10766 2 16.3918 59.7407 3.62971
4284 1 20.9385 58.1729 4.92562
10713 2 19.1186 58.1604 3.64971
4336 1 18.2118 59.7524 4.90528
10751 2 13.6649 61.3217 3.6111
4368 1 12.7582 62.9131 4.86898
10793 2 10.938 62.9032 3.59402
4337 1 15.485 61.3325 4.88635
10749 2 16.3942 62.9032 3.59402
4283 1 20.9413 61.3325 4.88635
10712 2 19.1211 61.3217 3.6111
4339 1 18.2144 62.9131 4.86898
10750 2 13.6672 64.4854 3.57862
4369 1 12.7605 66.0758 4.83948
10784 2 10.9401 66.068 3.56501
4323 1 15.4875 64.4942 4.85332
10752 2 16.3963 66.068 3.56501
4282 1 20.9437 64.4942 4.85332
10705 2 19.1234 64.4854 3.57862
4321 1 18.2167 66.0758 4.83948
10736 2 13.6691 67.6511 3.5533
4360 1 12.7622 69.2401 4.81771
10785 2 10.9418 69.2345 3.54359
4322 1 15.4895 67.6578 4.82758
10734 2 16.398 69.2345 3.54359
4275 1 20.9458 67.6578 4.82758
10704 2 19.1253 67.6511 3.5533
4324 1 18.2185 69.2401 4.81771
10783 2 10.9428 72.4024 3.53046
4361 1 12.7634 72.4055 4.80436
10735 2 13.6705 70.8183 3.53596
10737 2 16.3991 72.4024 3.53046
4308 1 15.491 70.8227 4.80995
4306 1 18.2196 72.4055 4.80436
10690 2 19.1267 70.8183 3.53596
4274 1 20.9473 70.8227 4.80995
10725 2 13.6712 73.9866 3.52714
11212 2 10.9432 75.5708 3.52603
4766 1 12.7638 75.5715 4.79986
4307 1 15.4918 73.9885 4.80099
11172 2 16.3994 75.5708 3.52603
10689 2 19.1275 73.9866 3.52714
4260 1 20.9481 73.9885 4.80099
4732 1 18.2201 75.5715 4.79986
4334 1 13.665 58.1953 7.49602
10747 2 11.8453 58.1839 6.21571
4366 1 10.9384 59.7733 7.47503
10744 2 12.7578 59.7832 8.7623
10698 2 15.4843 58.206 8.78351
10710 2 17.3015 58.1839 6.21571
4335 1 16.3946 59.7733 7.47503
10745 2 14.5749 59.7626 6.19516
4281 1 19.1212 58.1953 7.49602
10656 2 20.9405 58.206 8.78351
10696 2 18.214 59.7832 8.7623
10711 2 20.0311 59.7626 6.19516
4319 1 13.668 61.3518 7.45548
10746 2 11.8481 61.3419 6.17604
4367 1 10.9412 62.9307 7.43754
10728 2 12.7609 62.939 8.72441
10697 2 15.4875 61.3609 8.74255
10702 2 17.3044 61.3419 6.17604
4317 1 16.3975 62.9307 7.43754
10748 2 14.5776 62.9217 6.15849
4280 1 19.1242 61.3518 7.45548
10655 2 20.9437 61.3609 8.74255
10699 2 18.2171 62.939 8.72441
10700 2 20.0338 62.9217 6.15849
4318 1 13.6707 64.5102 7.42135
10732 2 11.8507 64.502 6.14265
4358 1 10.9437 66.09 7.40706
10729 2 12.7635 66.0966 8.69359
10683 2 15.4904 64.5176 8.70804
10701 2 17.3069 64.502 6.14265
4320 1 16.3999 66.09 7.40706
10730 2 14.5799 66.0827 6.12867
4273 1 19.1269 64.5102 7.42135
10654 2 20.9466 64.5176 8.70804
10681 2 18.2198 66.0966 8.69359
10703 2 20.0361 66.0827 6.12867
4304 1 13.6729 67.6702 7.39479
10731 2 11.8528 67.6639 6.11665
4359 1 10.9456 69.2507 7.38462
10720 2 12.7656 69.2555 8.67092
10682 2 15.4928 67.6759 8.68118
10687 2 17.309 67.6639 6.11665
4302 1 16.4019 69.2507 7.38462
10733 2 14.5817 69.2453 6.10669
4272 1 19.1291 67.6702 7.39479
10648 2 20.949 67.6759 8.68118
10684 2 18.2219 69.2555 8.67092
10685 2 20.038 69.2453 6.10669
4303 1 13.6745 70.8314 7.37666
10724 2 11.8543 70.8271 6.09888
4357 1 10.9469 72.4123 7.37096
10721 2 12.7669 72.4154 8.65716
10671 2 15.4945 70.8353 8.66289
10686 2 17.3105 70.8271 6.09888
4305 1 16.4031 72.4123 7.37096
10722 2 14.5829 72.409 6.09328
4259 1 19.1307 70.8314 7.37666
10647 2 20.9508 70.8353 8.66289
10669 2 18.2232 72.4154 8.65716
10688 2 20.0391 72.409 6.09328
4293 1 13.6753 73.9934 7.36758
10723 2 11.855 73.9911 6.08994
4765 1 10.9472 75.5745 7.36653
11151 2 12.7673 75.5757 8.65279
10670 2 15.4954 73.9955 8.65378
10672 2 17.3113 73.9911 6.08994
4717 1 16.4034 75.5745 7.36653
11171 2 14.5832 75.5733 6.08889
4258 1 19.1315 73.9934 7.36758
10640 2 20.9516 73.9955 8.65378
11116 2 18.2235 75.5757 8.65279
11117 2 20.0395 75.5733 6.08889
4315 1 11.8476 58.2167 10.0654
10694 2 13.6669 58.2277 11.3522
10726 2 10.9407 59.8033 11.3301
4278 1 17.3039 58.2167 10.0654
4313 1 14.5775 59.7932 10.0436
10695 2 16.3969 59.8033 11.3301
10653 2 19.1231 58.2277 11.3522
4279 1 20.0337 59.7932 10.0436
4314 1 11.851 61.3701 10.0233
10679 2 13.6706 61.3794 11.3096
10727 2 10.9442 62.9558 11.2908
4296 1 12.7641 62.9639 12.5714
4270 1 17.3073 61.3701 10.0233
4316 1 14.5807 62.9474 10.0047
10677 2 16.4005 62.9558 11.2908
10652 2 19.1268 61.3794 11.3096
4268 1 20.037 62.9474 10.0047
4267 1 18.2204 62.9639 12.5714
4300 1 11.8541 64.5251 9.98792
10678 2 13.674 64.5327 11.2737
10718 2 10.9474 66.1099 11.2587
4297 1 12.7676 66.1163 12.5383
4269 1 17.3104 64.5251 9.98792
4298 1 14.5836 66.1032 9.97309
10680 2 16.4037 66.1099 11.2587
4252 1 15.4941 64.5399 12.5538
4250 1 18.2239 66.1163 12.5383
10646 2 19.1303 64.5327 11.2737
4271 1 20.0399 66.1032 9.97309
4234 1 20.9503 64.5399 12.5538
4288 1 12.7705 69.2699 12.5141
4299 1 11.8567 67.6817 9.96036
10667 2 13.6769 67.6874 11.2458
10719 2 10.95 69.2652 11.2352
4256 1 17.313 67.6817 9.96036
4301 1 14.5859 69.2604 9.94984
10665 2 16.4062 69.2652 11.2352
4251 1 15.4973 67.693 12.5251
4253 1 18.2267 69.2699 12.5141
10645 2 19.1332 67.6874 11.2458
4254 1 20.0421 69.2604 9.94984
4231 1 20.9535 67.693 12.5251
4292 1 11.8586 70.8393 9.94162
10666 2 13.6791 70.8432 11.2269
4289 1 12.7723 72.4243 12.4995
10717 2 10.9516 72.4214 11.221
4244 1 15.4997 70.847 12.5056
4255 1 17.3149 70.8393 9.94162
4290 1 14.5873 72.4184 9.93577
10668 2 16.4078 72.4214 11.221
4230 1 20.9559 70.847 12.5056
10639 2 19.1353 70.8432 11.2269
4257 1 20.0436 72.4184 9.93577
4242 1 18.2285 72.4243 12.4995
4291 1 11.8595 73.9976 9.93235
10660 2 13.68 73.9996 11.2176
11150 2 10.9519 75.5779 11.2166
4695 1 12.7727 75.579 12.4951
4243 1 15.5008 74.0016 12.496
4245 1 17.3157 73.9976 9.93235
4716 1 14.5877 75.5769 9.93137
11101 2 16.4082 75.5779 11.2166
4227 1 20.957 74.0016 12.496
10638 2 19.1363 73.9996 11.2176
4661 1 20.0439 75.5769 9.93137
4660 1 18.2289 75.579 12.4951
4262 1 13.6686 58.26 15.2043
10675 2 11.8493 58.2497 13.9214
4312 1 12.7602 59.8129 12.612
4294 1 10.9429 59.8333 15.1805
4266 1 15.4863 58.238 12.6347
10650 2 17.3055 58.2497 13.9214
4263 1 16.3991 59.8333 15.1805
10673 2 14.5796 59.8237 13.8984
4233 1 19.1248 58.26 15.2043
4236 1 20.9426 58.238 12.6347
4264 1 18.2165 59.8129 12.612
10651 2 20.0359 59.8237 13.8984
4248 1 13.6733 61.4069 15.1582
10674 2 11.8537 61.3981 13.8769
4295 1 10.9476 62.9809 15.1378
4265 1 15.4903 61.3882 12.5908
10643 2 17.3099 61.3981 13.8769
4246 1 16.4038 62.9809 15.1378
10676 2 14.5839 62.9729 13.8572
4232 1 19.1296 61.4069 15.1582
4235 1 20.9466 61.3882 12.5908
10641 2 20.0402 62.9729 13.8572
4247 1 13.678 64.5552 15.1193
10663 2 11.8579 64.548 13.8394
4286 1 10.952 66.1298 15.103
10642 2 17.3141 64.548 13.8394
4249 1 16.4083 66.1298 15.103
10661 2 14.5879 66.1234 13.8236
4229 1 19.1342 64.5552 15.1193
10644 2 20.0442 66.1234 13.8236
4240 1 13.6821 67.7046 15.0891
10662 2 11.8616 67.6991 13.8102
4287 1 10.9558 69.2797 15.0776
10636 2 17.3178 67.6991 13.8102
10664 2 14.5912 69.275 13.7991
4238 1 16.412 69.2797 15.0776
4228 1 19.1384 67.7046 15.0891
10634 2 20.0474 69.275 13.7991
4239 1 13.6853 70.8549 15.0687
10659 2 11.8643 70.8511 13.7904
4285 1 10.9582 72.4301 15.0625
4241 1 16.4144 72.4301 15.0625
10657 2 14.5932 72.4273 13.7843
10635 2 17.3205 70.8511 13.7904
10637 2 20.0495 72.4273 13.7843
4226 1 19.1415 70.8549 15.0687
4237 1 13.6868 74.0055 15.0589
10658 2 11.8655 74.0035 13.7808
4694 1 10.9586 75.5808 15.058
10633 2 17.3218 74.0035 13.7808
11100 2 14.5937 75.5798 13.78
4645 1 16.4149 75.5808 15.058
4225 1 19.143 74.0055 15.0589
11057 2 20.0499 75.5798 13.78
11014 2 10.9379 56.7287 19.0886
10998 2 13.6692 58.2988 19.0617
4606 1 11.8504 58.284 17.7744
11016 2 12.7622 59.8453 16.467
11002 2 15.4876 58.273 16.4912
10997 2 16.3942 56.7287 19.0886
4583 1 17.3067 58.284 17.7744
4608 1 14.5757 56.7128 17.8009
4582 1 20.0319 56.7128 17.8009
10953 2 19.1255 58.2988 19.0617
10956 2 20.9438 58.273 16.4912
11000 2 18.2184 59.8453 16.467
11010 2 10.9443 59.8693 19.036
4605 1 11.8562 61.4272 17.7256
10990 2 13.6757 61.44 19.012
11012 2 12.7675 62.9909 16.4235
11001 2 15.4929 61.418 16.4444
10999 2 16.4006 59.8693 19.036
4579 1 17.3125 61.4272 17.7256
4604 1 14.5814 59.8554 17.7492
4607 1 14.5873 62.9994 17.7039
4584 1 20.0377 59.8554 17.7492
10952 2 19.132 61.44 19.012
10955 2 20.9492 61.418 16.4444
11003 2 18.2237 62.9909 16.4235
4577 1 20.0435 62.9994 17.7039
11011 2 10.9509 63.011 18.9898
4599 1 11.8621 64.5718 17.6844
10989 2 13.6824 64.5822 18.9699
11013 2 12.7726 66.1377 16.3882
10994 2 15.4982 64.5642 16.4048
4578 1 17.3183 64.5718 17.6844
10988 2 16.4072 63.011 18.9898
4597 1 14.593 66.1445 17.6672
10945 2 19.1386 64.5822 18.9699
10954 2 20.9544 64.5642 16.4048
4580 1 20.0493 66.1445 17.6672
10992 2 18.2288 66.1377 16.3882
11006 2 10.9576 66.1537 18.9525
4598 1 11.8676 67.7173 17.6525
10976 2 13.6888 67.7252 18.9376
11008 2 12.7769 69.2853 16.3625
11007 2 10.9634 69.2968 18.9255
10993 2 15.503 67.7114 16.3741
4567 1 17.3238 67.7173 17.6525
10991 2 16.4138 66.1537 18.9525
4600 1 14.5981 69.2903 17.6405
10974 2 16.4197 69.2968 18.9255
10944 2 19.145 67.7252 18.9376
10947 2 20.9592 67.7114 16.3741
10995 2 18.2331 69.2853 16.3625
4565 1 20.0543 69.2903 17.6405
4592 1 11.8719 70.8633 17.6312
10975 2 13.6938 70.8684 18.9161
11009 2 12.7797 72.4333 16.3472
11005 2 10.9673 72.4399 18.9096
4566 1 17.3282 70.8633 17.6312
10980 2 15.5066 70.8593 16.3535
4590 1 14.6014 72.4363 17.6247
10977 2 16.4236 72.4399 18.9096
10930 2 19.1501 70.8684 18.9161
10946 2 20.9629 70.8593 16.3535
4568 1 20.0577 72.4363 17.6247
10978 2 18.2359 72.4333 16.3472
4591 1 11.874 74.0093 17.6211
10965 2 13.6962 74.0113 18.906
11423 2 12.7802 75.5815 16.3428
11422 2 10.9681 75.5828 18.9052
4549 1 17.3302 74.0093 17.6211
10979 2 15.5083 74.0074 16.3436
11405 2 16.4243 75.5828 18.9052
4992 1 14.6021 75.5823 17.6203
10929 2 19.1525 74.0113 18.906
10931 2 20.9646 74.0074 16.3436
11412 2 18.2364 75.5815 16.3428
4966 1 20.0583 75.5823 17.6203
4602 1 12.7564 56.7417 20.3736
10986 2 11.8502 58.3286 21.6331
10996 2 14.5745 56.7604 21.6619
4575 1 15.488 58.3109 20.3454
10950 2 17.3064 58.3286 21.6331
4524 1 20.9442 58.3109 20.3454
4581 1 18.2126 56.7417 20.3736
10949 2 20.0307 56.7604 21.6619
4603 1 12.7633 59.8804 20.3184
10985 2 11.8581 61.4654 21.5798
4574 1 15.495 61.4502 20.2932
10942 2 17.3143 61.4654 21.5798
10984 2 14.5822 59.8968 21.6056
4523 1 20.9513 61.4502 20.2932
4573 1 18.2196 59.8804 20.3184
10951 2 20.0384 59.8968 21.6056
4595 1 12.7706 63.0203 20.2699
10972 2 11.8666 64.6032 21.5348
4563 1 15.5025 64.5907 20.2491
10941 2 17.3228 64.6032 21.5348
10987 2 14.5904 63.0342 21.5561
4522 1 20.9587 64.5907 20.2491
4576 1 18.2269 63.0203 20.2699
10940 2 20.0467 63.0342 21.5561
4596 1 12.7782 66.1613 20.2309
10971 2 11.8752 67.7413 21.5008
4588 1 12.7851 69.3024 20.2029
4562 1 15.5099 67.7319 20.2155
10927 2 17.3314 67.7413 21.5008
10970 2 14.5991 66.1723 21.5163
4515 1 20.9662 67.7319 20.2155
4561 1 18.2344 66.1613 20.2309
10943 2 20.0553 66.1723 21.5163
4564 1 18.2414 69.3024 20.2029
10964 2 11.8823 70.8789 21.4787
4589 1 12.7899 72.4431 20.1867
4548 1 15.516 70.8728 20.1933
10926 2 17.3385 70.8789 21.4787
10973 2 14.6072 69.3103 21.4882
10962 2 14.6128 72.4473 21.4722
4514 1 20.9723 70.8728 20.1933
10925 2 20.0634 69.3103 21.4882
4546 1 18.2461 72.4431 20.1867
10928 2 20.069 72.4473 21.4722
10963 2 11.8858 74.0154 21.4685
4986 1 12.7909 75.5834 20.1823
4547 1 15.519 74.0133 20.183
10909 2 17.3421 74.0154 21.4685
11404 2 14.6139 75.5835 21.4678
4499 1 20.9753 74.0133 20.183
4965 1 18.2471 75.5834 20.1823
11357 2 20.0701 75.5835 21.4678
4555 1 11.8475 58.3807 25.492
4571 1 13.6684 58.3424 22.9176
4601 1 10.9362 56.7755 22.948
10982 2 12.7536 56.7982 24.2369
4518 1 17.3037 58.3807 25.492
4569 1 14.5707 56.8164 25.5248
4570 1 16.3924 56.7755 22.948
10938 2 15.4863 58.364 24.206
4517 1 20.027 56.8164 25.5248
4521 1 19.1246 58.3424 22.9176
10884 2 20.9425 58.364 24.206
10948 2 18.2098 56.7982 24.2369
4554 1 11.858 61.5096 25.4295
4559 1 13.677 61.4771 22.861
4593 1 10.9445 59.9096 22.8885
10983 2 12.7629 59.9298 24.1762
4510 1 17.3143 61.5096 25.4295
4553 1 14.5807 59.9449 25.4599
4572 1 16.4008 59.9096 22.8885
10937 2 15.4959 61.4957 24.148
4519 1 20.037 59.9449 25.4599
4520 1 19.1333 61.4771 22.861
10883 2 20.9522 61.4957 24.148
10936 2 18.2191 59.9298 24.1762
4540 1 11.8701 64.6401 25.3773
4558 1 13.6865 64.613 22.8134
4594 1 10.9536 63.0449 22.8358
10968 2 12.7731 63.0619 24.1223
4509 1 17.3264 64.6401 25.3773
4556 1 14.5919 63.0747 25.4017
4557 1 16.4098 63.0449 22.8358
10923 2 15.5068 64.6283 24.0994
4508 1 20.0482 63.0747 25.4017
4513 1 19.1428 64.613 22.8134
10882 2 20.963 64.6283 24.0994
10939 2 18.2293 63.0619 24.1223
4539 1 11.8839 67.7709 25.3403
4544 1 13.6966 67.7493 22.778
4586 1 10.9635 66.1812 22.7941
10969 2 12.7844 66.1947 24.0798
4495 1 17.3401 67.7709 25.3403
4538 1 14.605 66.2057 25.3567
4560 1 16.4197 66.1812 22.7941
10922 2 15.5184 67.7609 24.0637
4511 1 20.0612 66.2057 25.3567
4512 1 19.1529 67.7493 22.778
10875 2 20.9746 67.7609 24.0637
10921 2 18.2407 66.1947 24.0798
4532 1 11.8965 70.8987 25.3192
4543 1 13.7054 70.8843 22.7557
4587 1 10.9732 69.317 22.7652
10960 2 12.7957 69.3266 24.051
4585 1 10.9802 72.4511 22.7492
4494 1 17.3528 70.8987 25.3192
4541 1 14.6187 69.3353 25.3279
4542 1 16.4295 69.317 22.7652
10908 2 15.5285 70.8917 24.0418
4545 1 16.4364 72.4511 22.7492
4493 1 20.0749 69.3353 25.3279
4498 1 19.1616 70.8843 22.7557
10874 2 20.9848 70.8917 24.0418
10924 2 18.252 69.3266 24.051
10961 2 12.8038 72.4561 24.0356
4531 1 11.9032 74.0224 25.3107
4533 1 13.7098 74.0175 22.7456
11390 2 12.8055 75.5837 24.0317
4985 1 10.9816 75.5838 22.7449
10907 2 15.5337 74.02 24.0323
4530 1 14.629 72.461 25.3136
4478 1 17.3594 74.0224 25.3107
4954 1 16.4378 75.5838 22.7449
4953 1 14.6312 75.5834 25.31
4496 1 20.0852 72.461 25.3136
4497 1 19.1661 74.0175 22.7456
10906 2 18.2601 72.4561 24.0356
10860 2 20.99 74.02 24.0323
11356 2 18.2617 75.5837 24.0317
4901 1 20.0874 75.5834 25.31
4551 1 12.7469 56.8679 28.1053
10934 2 13.6645 58.4078 26.7809
10981 2 10.931 56.8446 26.8143
4506 1 15.4808 58.429 28.0699
10933 2 16.3872 56.8446 26.8143
4458 1 20.937 58.429 28.0699
4516 1 18.2032 56.8679 28.1053
10881 2 19.1207 58.4078 26.7809
4552 1 12.7588 59.9895 28.0343
10919 2 13.6762 61.5331 26.7169
10966 2 10.942 59.9705 26.7481
4505 1 15.4934 61.5502 27.9999
10935 2 16.3983 59.9705 26.7481
4457 1 20.9497 61.5502 27.9999
4504 1 18.215 59.9895 28.0343
10880 2 19.1325 61.5331 26.7169
4536 1 12.7726 63.1116 27.9683
10918 2 13.69 64.6592 26.6632
10967 2 10.9547 63.096 26.6883
10900 2 11.8715 64.6981 29.2257
4491 1 15.5089 64.6737 27.9408
10917 2 16.4109 63.096 26.6883
10869 2 17.3278 64.6981 29.2257
10916 2 14.5905 63.1395 29.2541
4456 1 20.9651 64.6737 27.9408
4507 1 18.2288 63.1116 27.9683
10873 2 19.1462 64.6592 26.6632
10868 2 20.0468 63.1395 29.2541
4537 1 12.7899 66.2361 27.9188
10904 2 13.7057 67.785 26.6261
10958 2 10.9696 66.2223 26.6424
10899 2 11.8931 67.8149 29.1874
4490 1 15.5279 67.7979 27.9024
10920 2 16.4258 66.2223 26.6424
10856 2 17.3493 67.8149 29.1874
10898 2 14.6101 66.2567 29.2033
4449 1 20.9841 67.7979 27.9024
4489 1 18.2461 66.2361 27.9188
10872 2 19.1619 67.785 26.6261
10871 2 20.0663 66.2567 29.2033
4528 1 12.8094 69.3584 27.8918
10903 2 13.7203 70.9074 26.6063
10959 2 10.9854 69.3468 26.6142
10892 2 11.9142 70.9261 29.1731
4477 1 15.5462 70.917 27.8854
10902 2 16.4416 69.3468 26.6142
10855 2 17.3704 70.9261 29.1731
10901 2 14.6325 69.3715 29.1776
4448 1 21.0024 70.917 27.8854
4492 1 18.2656 69.3584 27.8918
10859 2 19.1765 70.9074 26.6063
10854 2 20.0887 69.3715 29.1776
4529 1 12.8246 72.4734 27.8825
10893 2 13.728 74.025 26.5991
10957 2 10.9972 72.4667 26.6015
10891 2 11.9254 74.0303 29.1716
4935 1 12.8279 75.582 27.8808
11389 2 10.9997 75.583 26.5985
4476 1 15.5562 74.0279 27.8815
10905 2 16.4534 72.4667 26.6015
10845 2 17.3816 74.0303 29.1716
10890 2 14.6497 72.4787 29.172
11341 2 16.456 75.583 26.5985
11340 2 14.6533 75.5817 29.171
4437 1 21.0125 74.0279 27.8815
4475 1 18.2809 72.4734 27.8825
10858 2 19.1842 74.025 26.5991
10857 2 20.106 72.4787 29.172
4900 1 18.2842 75.582 27.8808
11285 2 20.1095 75.5817 29.171
4502 1 13.6548 58.4931 30.6536
4550 1 10.9202 56.9347 30.6904
10911 2 12.7336 56.9775 31.9777
10915 2 11.8402 58.4637 29.3589
4501 1 16.3764 56.9347 30.6904
10866 2 15.4683 58.537 31.9404
10878 2 17.2964 58.4637 29.3589
10932 2 14.562 56.903 29.3946
4455 1 19.1111 58.4931 30.6536
10836 2 20.9245 58.537 31.9404
10876 2 18.1898 56.9775 31.9777
10877 2 20.0183 56.903 29.3946
4487 1 13.6697 61.6038 30.5753
4534 1 10.9339 60.0492 30.6149
10912 2 12.7478 60.0931 31.9006
10914 2 11.8543 61.5812 29.2869
4503 1 16.3901 60.0492 30.6149
10865 2 15.4847 61.6461 31.8593
10870 2 17.3105 61.5812 29.2869
10913 2 14.5751 60.0229 29.3225
4454 1 19.1259 61.6038 30.5753
10835 2 20.9409 61.6461 31.8593
10864 2 18.2041 60.0931 31.9006
10879 2 20.0313 60.0229 29.3225
4486 1 13.6891 64.7163 30.5056
4535 1 10.9502 63.1593 30.5378
10896 2 12.7663 63.1973 31.8191
4485 1 16.4064 63.1593 30.5378
10852 2 15.5064 64.7486 31.7854
4447 1 19.1454 64.7163 30.5056
10834 2 20.9626 64.7486 31.7854
10867 2 18.2226 63.1973 31.8191
4473 1 13.7163 67.8317 30.4656
4526 1 10.9732 66.2743 30.4809
10897 2 12.7918 66.2998 31.7597
4488 1 16.4295 66.2743 30.4809
10851 2 15.5361 67.8505 31.7459
4446 1 19.1725 67.8317 30.4656
10831 2 20.9924 67.8505 31.7459
10850 2 18.248 66.2998 31.7597
4472 1 13.7433 70.9388 30.458
4527 1 11.0014 69.3874 30.4586
10888 2 12.8247 69.3992 31.7407
4471 1 16.4576 69.3874 30.4586
10844 2 15.5676 70.9444 31.7455
4436 1 19.1995 70.9388 30.458
10830 2 21.0239 70.9444 31.7455
10853 2 18.2809 69.3992 31.7407
4464 1 13.7576 74.0335 30.4613
4525 1 11.0249 72.4863 30.4605
10889 2 12.8499 72.4896 31.75
4934 1 11.0292 75.5804 30.4605
11319 2 12.8552 75.5807 31.7514
4474 1 16.4812 72.4863 30.4605
10843 2 15.5835 74.0351 31.7522
4885 1 16.4855 75.5804 30.4605
4435 1 19.2138 74.0335 30.4613
10827 2 21.0398 74.0351 31.7522
10842 2 18.3062 72.4896 31.75
11284 2 18.3114 75.5807 31.7514
4483 1 11.8245 58.5817 33.2446
10862 2 13.6359 58.6333 34.5235
4500 1 14.5459 57.0224 33.2797
4479 1 12.7113 57.1361 35.869
4452 1 17.2807 58.5817 33.2446
10861 2 16.3583 57.0713 34.5607
4440 1 15.4437 58.7049 35.8394
4450 1 18.1675 57.1361 35.869
4451 1 20.0022 57.0224 33.2797
10833 2 19.0921 58.6333 34.5235
7646 2 21.8146 57.0713 34.5607
4422 1 20.8999 58.7049 35.8394
4482 1 11.8414 61.6833 33.1638
10848 2 13.6522 61.7386 34.4351
10894 2 10.915 60.1895 34.4819
4480 1 12.7211 60.2675 35.8074
4444 1 17.2976 61.6833 33.1638
4481 1 14.5604 60.135 33.2057
10863 2 16.3713 60.1895 34.4819
4439 1 15.4557 61.818 35.77
4438 1 18.1773 60.2675 35.8074
4453 1 20.0166 60.135 33.2057
10832 2 19.1085 61.7386 34.4351
4421 1 20.9119 61.818 35.77
4469 1 11.8625 64.7744 33.0774
10847 2 13.6763 64.818 34.3364
10895 2 10.936 63.2809 34.3848
4465 1 12.7382 63.3611 35.7312
4443 1 17.3188 64.7744 33.0774
4484 1 14.5786 63.2277 33.1186
10846 2 16.3922 63.2809 34.3848
4429 1 15.4745 64.8789 35.6813
4442 1 20.0348 63.2277 33.1186
10829 2 19.1325 64.818 34.3364
4441 1 18.1945 63.3611 35.7312
4420 1 20.9307 64.8789 35.6813
4468 1 11.9018 67.8761 33.0312
10840 2 13.7182 67.8896 34.2953
10886 2 10.9699 66.3548 34.3073
4466 1 12.7585 66.4193 35.6402
4433 1 17.358 67.8761 33.0312
4467 1 14.6077 66.3242 33.0495
10849 2 16.4262 66.3548 34.3073
4428 1 15.5523 67.9133 35.6338
4445 1 20.0639 66.3242 33.0495
10828 2 19.1744 67.8896 34.2953
4427 1 18.2148 66.4193 35.6402
4419 1 21.0086 67.9133 35.6338
4463 1 11.9478 70.9539 33.047
10839 2 13.7701 70.9545 34.3268
10887 2 11.0194 69.418 34.3105
4459 1 12.8558 69.415 35.6651
4432 1 17.404 70.9539 33.047
4470 1 14.6533 69.4189 33.0387
10838 2 16.4756 69.418 34.3105
4425 1 15.6062 70.9567 35.6467
4431 1 20.1095 69.4189 33.0387
10826 2 19.2264 70.9545 34.3268
4430 1 18.312 69.415 35.6651
4418 1 21.0625 70.9567 35.6467
4460 1 12.8905 72.4969 35.6429
10885 2 11.0599 72.4952 34.3359
4462 1 11.9637 74.0375 33.0503
10837 2 13.7963 74.0379 34.3404
4863 1 12.8935 75.5842 35.6431
11318 2 11.0679 75.5817 34.3395
4424 1 15.6219 74.0373 35.6435
10841 2 16.5162 72.4952 34.3359
4461 1 14.6866 72.4945 33.0489
4426 1 17.4199 74.0375 33.0503
11269 2 16.5241 75.5817 34.3395
4884 1 14.6915 75.5802 33.0496
4417 1 21.0782 74.0373 35.6435
4423 1 18.3467 72.4969 35.6429
4434 1 20.1428 72.4945 33.0489
10825 2 19.2526 74.0379 34.3404
4834 1 18.3497 75.5842 35.6431
4835 1 20.1477 75.5802 33.0496
11038 2 11.8016 58.7566 37.1016
16757 1 13.5945 58.8756 38.4231
11040 2 14.5265 57.1853 37.1377
11027 2 17.2579 58.7566 37.1016
16756 1 16.3285 57.278 38.447
11026 2 19.9827 57.1853 37.1377
16722 1 19.0507 58.8756 38.4231
13944 1 21.7847 57.278 38.447
11037 2 11.8128 61.8757 37.0106
16753 1 13.5705 62.0898 38.373
11036 2 14.5351 60.3204 37.0596
11024 2 17.2691 61.8757 37.0106
16758 1 16.3141 60.4753 38.4007
11028 2 19.9914 60.3204 37.0596
16721 1 19.0267 62.0898 38.373
13942 1 21.7704 60.4753 38.4007
11034 2 11.8405 64.9373 36.8843
16752 1 13.3339 65.5192 38.4407
11023 2 17.2967 64.9373 36.8843
11039 2 14.5542 63.4107 36.9459
16751 1 16.2705 63.6966 38.3415
11022 2 20.0104 63.4107 36.9459
16716 1 18.7901 65.5192 38.4407
13943 1 21.7268 63.6966 38.3415
11033 2 11.8755 67.9065 36.875
16742 1 13.0991 69.0927 38.3119
11020 2 17.3317 67.9065 36.875
11032 2 14.5586 66.427 36.8239
16754 1 15.8038 67.2402 38.3865
11025 2 20.0148 66.427 36.8239
16715 1 18.5553 69.0927 38.3119
13940 1 21.26 67.2402 38.3865
11031 2 12.0125 70.9417 36.9047
16741 1 13.0924 72.426 38.2557
11019 2 17.4687 70.9417 36.9047
11035 2 14.6911 69.3985 36.8777
16740 1 15.8234 70.7826 38.2486
11018 2 20.1473 69.3985 36.8777
16702 1 18.5487 72.426 38.2557
13941 1 21.2796 70.7826 38.2486
11030 2 12.0349 74.0367 36.9216
11017 2 17.4911 74.0367 36.9216
11029 2 14.7544 72.483 36.9206
16743 1 15.8247 74.0158 38.2497
11448 2 14.7625 75.5873 36.9205
11021 2 20.2107 72.483 36.9206
13939 1 21.2809 74.0158 38.2497
11434 2 20.2187 75.5873 36.9205
22379 2 12.6987 57.3176 39.7015
22362 2 13.6021 59.0573 42.2111
16749 1 11.7654 59.0377 40.9719
16755 1 14.5014 57.4183 41.0012
22366 2 15.4258 58.9108 39.6658
22361 2 16.3335 57.4457 42.2499
16719 1 17.2217 59.0377 40.9719
22368 2 18.1549 57.3176 39.7015
19558 2 21.7898 57.4457 42.2499
16718 1 19.9577 57.4183 41.0012
22317 2 19.0583 59.0573 42.2111
22320 2 20.8821 58.9108 39.6658
22380 2 12.6968 60.5093 39.6243
16748 1 11.7315 62.3114 40.9084
22354 2 13.5873 62.3071 42.1152
16747 1 14.4806 60.6636 40.9399
22365 2 15.4199 62.1125 39.58
22363 2 16.325 60.6765 42.167
16713 1 17.1878 62.3114 40.9084
22364 2 18.153 60.5093 39.6243
19554 2 21.7812 60.6765 42.167
16720 1 19.9368 60.6636 40.9399
22316 2 19.0436 62.3071 42.1152
22319 2 20.8762 62.1125 39.58
22376 2 12.6864 63.7359 39.5204
16738 1 11.7368 65.6247 40.7026
22353 2 13.5426 65.6482 41.9825
16750 1 14.442 63.964 40.8646
22358 2 15.379 65.372 39.4431
16712 1 17.193 65.6247 40.7026
22352 2 16.2978 63.9704 42.0551
22367 2 18.1427 63.7359 39.5204
19555 2 21.7541 63.9704 42.0551
16711 1 19.8983 63.964 40.8646
22309 2 18.9988 65.6482 41.9825
22318 2 20.8352 65.372 39.4431
22377 2 12.5342 67.256 39.3908
16737 1 11.6595 68.9356 40.6452
22340 2 13.4655 68.9864 41.9552
16736 1 14.467 67.2097 40.5666
22357 2 15.2076 69.0417 39.4256
16699 1 17.1157 68.9356 40.6452
22355 2 16.2335 67.311 41.9512
22356 2 17.9904 67.256 39.3908
19550 2 21.6897 67.311 41.9512
16714 1 19.9232 67.2097 40.5666
22308 2 18.9217 68.9864 41.9552
22311 2 20.6639 69.0417 39.4256
22372 2 12.4361 70.7339 39.4658
16730 1 11.5484 72.3167 40.7737
22339 2 13.4151 72.3371 42.0097
16739 1 14.316 70.6265 40.732
16698 1 17.0046 72.3167 40.7737
22338 2 16.1632 70.6664 41.9865
22344 2 15.1422 72.3709 39.4926
22359 2 17.8923 70.7339 39.4658
19551 2 21.6194 70.6664 41.9865
16697 1 19.7723 70.6265 40.732
22294 2 18.8713 72.3371 42.0097
22310 2 20.5984 72.3709 39.4926
22373 2 12.4032 74.01 39.5085
16728 1 14.2639 73.9845 40.788
22341 2 16.1327 73.995 42.0227
22342 2 17.8595 74.01 39.5085
19549 2 21.589 73.995 42.0227
16700 1 19.7202 73.9845 40.788
16745 1 12.6867 57.5371 43.5362
22350 2 11.785 59.1798 44.7475
22360 2 14.5174 57.5582 44.7892
16709 1 15.4083 59.1643 43.4995
22314 2 17.2412 59.1798 44.7475
16717 1 18.1429 57.5371 43.5362
16656 1 20.8645 59.1643 43.4995
22313 2 19.9737 57.5582 44.7892
16746 1 12.6735 60.7991 43.4573
22349 2 11.7685 62.448 44.6494
22348 2 14.5066 60.8095 44.7011
16691 1 13.5896 62.5257 45.9205
16708 1 15.3991 62.4411 43.3973
22306 2 17.2248 62.448 44.6494
16707 1 18.1297 60.7991 43.4573
16655 1 20.8554 62.4411 43.3973
22315 2 19.9628 60.8095 44.7011
16652 1 19.0458 62.5257 45.9205
16734 1 12.6634 64.0869 43.3191
22336 2 11.7356 65.7338 44.5535
22351 2 14.4809 64.0913 44.597
16690 1 13.5607 65.7861 45.8327
16695 1 15.3665 65.7246 43.2674
22305 2 17.1918 65.7338 44.5535
16710 1 18.1197 64.0869 43.3191
16689 1 16.3052 64.1571 45.8717
13913 1 21.7614 64.1571 45.8717
16654 1 20.8228 65.7246 43.2674
22304 2 19.9371 64.0913 44.597
16645 1 19.0169 65.7861 45.8327
16735 1 12.6129 67.356 43.2302
22335 2 11.6907 69.0236 44.5156
22334 2 14.4413 67.3771 44.5266
16676 1 13.5295 69.0491 45.7863
16694 1 15.3183 68.9788 43.2052
22291 2 17.1469 69.0236 44.5156
16693 1 18.0692 67.356 43.2302
16692 1 16.2727 67.4159 45.8033
13904 1 21.729 67.4159 45.8033
16647 1 20.7746 68.9788 43.2052
22307 2 19.8975 67.3771 44.5266
16644 1 18.9857 69.0491 45.7863
16726 1 12.5743 70.6349 43.2225
22328 2 11.6618 72.3325 44.528
22337 2 14.4008 70.6746 44.5194
16675 1 13.5118 72.3373 45.779
16680 1 15.2801 72.3055 43.2567
22290 2 17.118 72.3325 44.528
16696 1 18.0306 70.6349 43.2225
16674 1 16.2465 70.6875 45.7774
13905 1 21.7027 70.6875 45.7774
16646 1 20.7363 72.3055 43.2567
22289 2 19.857 70.6746 44.5194
16630 1 18.9681 72.3373 45.779
16727 1 12.5375 73.984 43.277
22326 2 14.3844 73.9935 44.5337
16677 1 16.2368 73.9949 45.7824
16678 1 17.9937 73.984 43.277
22292 2 19.8407 73.9935 44.5337
13903 1 21.6931 73.9949 45.7824
16687 1 11.7944 59.3333 48.5548
16705 1 13.6027 59.2603 46.0228
22346 2 12.7048 57.6515 47.3264
16703 1 14.5266 57.7082 48.5978
16650 1 17.2506 59.3333 48.5548
16704 1 16.3345 57.6324 46.0657
22302 2 15.4281 59.276 47.2843
22312 2 18.161 57.6515 47.3264
13924 1 21.7908 57.6324 46.0657
16649 1 19.9828 57.7082 48.5978
16653 1 19.0589 59.2603 46.0228
22254 2 20.8844 59.276 47.2843
16686 1 11.7803 62.5857 48.4673
22347 2 12.6932 60.9045 47.2398
16685 1 14.5166 60.9596 48.5103
16642 1 17.2365 62.5857 48.4673
16706 1 16.3259 60.8921 45.9736
22301 2 15.4122 62.5354 47.1949
22300 2 18.1494 60.9045 47.2398
13912 1 21.7822 60.8921 45.9736
16651 1 19.9729 60.9596 48.5103
22253 2 20.8684 62.5354 47.1949
16672 1 11.7591 65.8371 48.395
22332 2 12.673 64.1668 47.1536
16688 1 14.4984 64.2114 48.4283
16641 1 17.2153 65.8371 48.395
22287 2 15.3884 65.7981 47.1182
22303 2 18.1292 64.1668 47.1536
16640 1 19.9547 64.2114 48.4283
22252 2 20.8447 65.7981 47.1182
16671 1 11.7395 69.0937 48.3481
22333 2 12.6468 67.4305 47.0922
16670 1 14.4766 67.464 48.3681
16627 1 17.1957 69.0937 48.3481
22286 2 15.3622 69.066 47.0756
22285 2 18.103 67.4305 47.0922
16643 1 19.9328 67.464 48.3681
22245 2 20.8184 69.066 47.0756
16664 1 11.7291 72.3647 48.325
22324 2 12.6233 70.706 47.067
16673 1 14.4611 70.7272 48.334
16626 1 17.1853 72.3647 48.325
22273 2 15.3444 72.3512 47.0634
22288 2 18.0795 70.706 47.067
16625 1 19.9174 70.7272 48.334
22244 2 20.8006 72.3512 47.0634
22325 2 12.613 74.0009 47.0622
16662 1 14.4558 74.0059 48.3205
22271 2 18.0693 74.0009 47.0622
16628 1 19.912 74.0059 48.3205
16683 1 12.7176 57.769 51.1365
22298 2 13.6172 59.3488 49.8259
22279 2 11.8078 59.4056 52.3721
22296 2 14.5402 57.7856 52.4096
16638 1 15.4414 59.3907 51.0966
22297 2 16.3501 57.726 49.8661
16648 1 18.1738 57.769 51.1365
22248 2 17.264 59.4056 52.3721
19525 2 21.8063 57.726 49.8661
16596 1 20.8976 59.3907 51.0966
22251 2 19.0734 59.3488 49.8259
22247 2 19.9964 57.7856 52.4096
16684 1 12.7077 61.0126 51.0571
22283 2 13.6038 62.598 49.7465
22278 2 11.7969 62.6471 52.3001
22277 2 14.5308 61.0262 52.3352
16637 1 15.4291 62.6346 51.0196
22299 2 16.3392 60.9731 49.7855
16636 1 18.1639 61.0126 51.0571
22240 2 17.2531 62.6471 52.3001
19510 2 21.7955 60.9731 49.7855
16595 1 20.8853 62.6346 51.0196
22250 2 19.0601 62.598 49.7465
22249 2 19.987 61.0262 52.3352
16668 1 12.6934 64.2566 50.9852
22282 2 13.5867 65.8488 49.6794
22265 2 11.7843 65.8897 52.2389
22280 2 14.5187 64.2682 52.2677
16623 1 15.4139 65.879 50.955
22281 2 16.3236 64.2232 49.7107
16639 1 18.1497 64.2566 50.9852
22239 2 17.2405 65.8897 52.2389
19511 2 21.7798 64.2232 49.7107
16594 1 20.8701 65.879 50.955
22243 2 19.0429 65.8488 49.6794
22238 2 19.975 64.2682 52.2677
22263 2 14.5064 67.5122 52.2144
16669 1 12.6787 67.5025 50.9292
22269 2 13.5699 69.1046 49.6346
22264 2 11.7729 69.136 52.1944
22229 2 17.2291 69.136 52.1944
16622 1 15.4009 69.1276 50.9082
22284 2 16.306 67.4756 49.654
16621 1 18.1349 67.5025 50.9292
19502 2 21.7623 67.4756 49.654
22241 2 19.9626 67.5122 52.2144
16588 1 20.8572 69.1276 50.9082
22242 2 19.0262 69.1046 49.6346
22266 2 14.4967 70.7614 52.1793
22259 2 11.7655 72.3885 52.1689
16660 1 12.6685 70.7547 50.8921
22268 2 13.5589 72.3718 49.6123
22228 2 17.2218 72.3885 52.1689
16611 1 15.3938 72.3837 50.8809
22267 2 16.2915 70.7366 49.621
16624 1 18.1247 70.7547 50.8921
19503 2 21.7478 70.7366 49.621
22227 2 19.9529 70.7614 52.1793
16587 1 20.8501 72.3837 50.8809
22232 2 19.0151 72.3718 49.6123
22257 2 14.4921 74.0167 52.1632
16661 1 12.6644 74.014 50.8747
22270 2 16.2847 74.0094 49.6076
16609 1 18.1206 74.014 50.8747
22230 2 19.9483 74.0167 52.1632
19501 2 21.7409 74.0094 49.6076
16634 1 13.6325 59.4377 53.6438
22275 2 12.731 57.8345 54.9565
16633 1 16.3646 57.8191 53.6808
22236 2 15.4554 59.4519 54.9213
22246 2 18.1873 57.8345 54.9565
13862 1 21.8208 57.8191 53.6808
16593 1 19.0887 59.4377 53.6438
22218 2 20.9116 59.4519 54.9213
16619 1 13.6223 62.6753 53.5738
22276 2 12.723 61.0694 54.8871
16635 1 16.3558 61.0565 53.6079
22235 2 15.4465 62.6871 54.8548
22234 2 18.1792 61.0694 54.8871
13846 1 21.8121 61.0565 53.6079
16592 1 19.0786 62.6753 53.5738
22217 2 20.9027 62.6871 54.8548
16618 1 13.6112 65.9134 53.5141
22261 2 12.7135 64.305 54.8249
16617 1 16.3448 64.2942 53.5424
22225 2 15.4369 65.9231 54.798
22237 2 18.1698 64.305 54.8249
13847 1 21.8011 64.2942 53.5424
16586 1 19.0674 65.9134 53.5141
22216 2 20.8932 65.9231 54.798
22262 2 12.7044 67.5417 54.7746
16607 1 13.602 69.1539 53.4691
22223 2 18.1606 67.5417 54.7746
22224 2 15.4286 69.1609 54.7552
16620 1 16.3343 67.5333 53.4896
13838 1 21.7905 67.5333 53.4896
22215 2 20.8849 69.1609 54.7552
16585 1 19.0582 69.1539 53.4691
22255 2 12.6974 70.7809 54.7402
16606 1 13.5966 72.3976 53.4417
22226 2 18.1537 70.7809 54.7402
22221 2 15.4234 72.4016 54.7296
16605 1 16.3269 70.7753 53.453
13839 1 21.7831 70.7753 53.453
22214 2 20.8796 72.4016 54.7296
16579 1 19.0528 72.3976 53.4417
22256 2 12.6941 74.0228 54.7237
22219 2 18.1503 74.0228 54.7237
16608 1 16.3236 74.0204 53.4355
13837 1 21.7798 74.0204 53.4355
16615 1 11.8239 59.4776 56.1941
16931 1 12.7466 57.8987 58.7792
22572 2 10.9221 57.8763 57.5059
22565 2 13.647 59.4912 57.4726
16632 1 14.5556 57.8615 56.2287
16590 1 17.2801 59.4776 56.1941
16918 1 15.4716 59.5124 58.7464
22564 2 16.3784 57.8763 57.5059
16872 1 20.9278 59.5124 58.7464
16589 1 20.0118 57.8615 56.2287
16920 1 18.2028 57.8987 58.7792
22530 2 19.1032 59.4912 57.4726
16614 1 11.8156 62.7097 56.1291
16932 1 12.7401 61.126 58.715
22570 2 10.9153 61.1061 57.4406
22561 2 13.6396 62.7209 57.4103
16613 1 14.548 61.0936 56.1607
16917 1 15.4647 62.7394 58.6853
16583 1 17.2718 62.7097 56.1291
22566 2 16.3715 61.1061 57.4406
16871 1 20.9209 62.7394 58.6853
16591 1 20.0043 61.0936 56.1607
16916 1 18.1964 61.126 58.715
22529 2 19.0958 62.7209 57.4103
16603 1 11.807 65.9418 56.0734
16928 1 12.7331 64.3527 58.6578
22560 2 13.6321 65.9507 57.3571
16616 1 14.5394 64.3257 56.0998
16910 1 15.4578 65.9658 58.633
16582 1 17.2633 65.9418 56.0734
22559 2 16.3639 64.3358 57.3824
16919 1 18.1893 64.3527 58.6578
16870 1 20.914 65.9658 58.633
16581 1 19.9956 64.3257 56.0998
22524 2 19.0883 65.9507 57.3571
19751 2 21.8201 64.3358 57.3824
16602 1 11.8 69.1747 56.0309
16929 1 12.7266 67.5789 58.6113
22550 2 13.6257 69.181 57.3167
16601 1 14.5313 67.5581 56.0503
16909 1 15.4521 69.1919 58.5931
16576 1 17.2562 69.1747 56.0309
22562 2 16.3568 67.5658 57.3351
16908 1 18.1829 67.5789 58.6113
16863 1 20.9083 69.1919 58.5931
16584 1 19.9876 67.5581 56.0503
22523 2 19.0819 69.181 57.3167
19748 2 21.813 67.5658 57.3351
16599 1 11.7957 72.4086 56.0049
16924 1 12.7219 70.8048 58.5788
22549 2 13.6216 72.4123 57.2921
16604 1 14.5255 70.7915 56.0156
16896 1 15.4485 72.4178 58.5686
16575 1 17.2519 72.4086 56.0049
22548 2 16.3514 70.7965 57.3023
16911 1 18.1781 70.8048 58.5788
16862 1 20.9048 72.4178 58.5686
16574 1 19.9818 70.7915 56.0156
22510 2 19.0779 72.4123 57.2921
19749 2 21.8077 70.7965 57.3023
16925 1 12.7196 74.0308 58.5628
16597 1 14.5228 74.0258 55.9988
22551 2 16.3488 74.0282 57.2863
16894 1 18.1758 74.0308 58.5628
16577 1 19.9791 74.0258 55.9988
19747 2 21.8051 74.0282 57.2863
16914 1 13.6629 59.544 61.3004
16930 1 10.9375 57.9325 61.3317
22557 2 11.8385 59.5258 60.0255
16913 1 16.3938 57.9325 61.3317
22527 2 17.2947 59.5258 60.0255
22563 2 14.5695 57.9132 60.0572
22517 2 15.486 59.5577 62.5797
16869 1 19.1191 59.544 61.3004
22526 2 20.0257 57.9132 60.0572
22464 2 20.9422 59.5577 62.5797
16906 1 13.657 62.7661 61.2423
16926 1 10.9319 61.1552 61.2705
22556 2 11.8322 62.7505 59.9667
22554 2 12.7552 61.1677 62.5508
16915 1 16.3881 61.1552 61.2705
22521 2 17.2885 62.7505 59.9667
22555 2 14.5635 61.1382 59.9952
22516 2 15.4806 62.7774 62.5236
16868 1 19.1132 62.7661 61.2423
22528 2 20.0198 61.1382 59.9952
22463 2 20.9368 62.7774 62.5236
22515 2 18.2114 61.1677 62.5508
16905 1 13.6512 65.987 61.193
16927 1 10.9259 64.3767 61.2164
22546 2 11.8261 65.9745 59.9165
22542 2 12.7498 64.3868 62.4985
16904 1 16.3822 64.3767 61.2164
22520 2 17.2823 65.9745 59.9165
22558 2 14.5572 64.3625 59.9403
22503 2 15.4753 65.9959 62.476
16861 1 19.1075 65.987 61.193
22519 2 20.0134 64.3625 59.9403
22462 2 20.9316 65.9959 62.476
22518 2 18.206 64.3868 62.4985
16892 1 13.6464 69.2069 61.1554
16922 1 10.9205 67.5971 61.1725
22545 2 11.8209 69.198 59.8784
22543 2 12.7449 67.6047 62.4563
22544 2 14.5514 67.5863 59.8958
16907 1 16.3768 67.5971 61.1725
22507 2 17.2771 69.198 59.8784
22502 2 15.471 69.2133 62.4399
16860 1 19.1027 69.2069 61.1554
22522 2 20.0077 67.5863 59.8958
22455 2 20.9272 69.2133 62.4399
22501 2 18.2011 67.6047 62.4563
16891 1 13.6434 72.4262 61.1323
16923 1 10.9166 70.8166 61.1419
22538 2 11.8176 72.4215 59.855
22547 2 14.5471 70.8098 59.8647
22534 2 12.7412 70.8217 62.4269
16890 1 16.3728 70.8166 61.1419
22506 2 17.2738 72.4215 59.855
22488 2 15.4682 72.43 62.4176
16846 1 19.0996 72.4262 61.1323
22505 2 20.0033 70.8098 59.8647
22454 2 20.9244 72.43 62.4176
22504 2 18.1974 70.8217 62.4269
22536 2 14.545 74.0332 59.8494
22535 2 12.7394 74.0382 62.4122
16921 1 10.9146 74.0356 61.1267
16893 1 16.3708 74.0356 61.1267
22508 2 20.0012 74.0332 59.8494
22486 2 18.1956 74.0382 62.4122
16902 1 11.8539 59.5737 63.856
22513 2 13.6769 59.5883 65.1347
22552 2 10.9511 57.9801 65.164
22553 2 12.7604 57.9473 62.6101
16866 1 17.3101 59.5737 63.856
16912 1 14.5844 57.9644 63.8861
22512 2 16.4073 57.9801 65.164
16865 1 20.0407 57.9644 63.8861
22461 2 19.1331 59.5883 65.1347
22525 2 18.2167 57.9473 62.6101
16901 1 11.8487 62.7911 63.8004
22499 2 13.6721 62.8034 65.0808
22540 2 10.9464 61.1961 65.1069
16858 1 17.3049 62.7911 63.8004
16900 1 14.5794 61.1826 63.8273
22514 2 16.4026 61.1961 65.1069
16867 1 20.0357 61.1826 63.8273
22460 2 19.1283 62.8034 65.0808
16888 1 11.8437 66.0068 63.7535
22498 2 13.6674 66.0165 65.0353
22541 2 10.9416 64.4101 65.0568
16857 1 17.3 66.0068 63.7535
16903 1 14.5743 64.3991 63.7757
22497 2 16.3978 64.4101 65.0568
16856 1 20.0305 64.3991 63.7757
22453 2 19.1237 66.0165 65.0353
16887 1 11.8396 69.221 63.7178
22484 2 13.6636 69.228 65.0008
22532 2 10.9373 67.6224 65.0165
16843 1 17.2958 69.221 63.7178
16886 1 14.5696 67.6141 63.7341
22500 2 16.3935 67.6224 65.0165
16859 1 20.0259 67.6141 63.7341
22452 2 19.1198 69.228 65.0008
16880 1 11.8369 72.4342 63.6957
22483 2 13.6611 72.4384 64.9793
22533 2 10.9341 70.8333 64.9883
16842 1 17.2932 72.4342 63.6957
16889 1 14.5662 70.8277 63.7049
22482 2 16.3903 70.8333 64.9883
16841 1 20.0224 70.8277 63.7049
22438 2 19.1174 72.4384 64.9793
22531 2 10.9324 74.0434 64.974
16878 1 14.5644 74.0406 63.6902
22485 2 16.3886 74.0434 64.974
16844 1 20.0206 74.0406 63.6902
16898 1 12.7746 57.9957 66.443
22495 2 11.8673 59.6194 67.6895
16850 1 13.69 59.6328 68.9773
16897 1 10.9639 58.0275 69.0056
16854 1 15.5005 59.6029 66.4139
22458 2 17.3235 59.6194 67.6895
22511 2 14.5975 58.0132 67.7179
16849 1 16.4201 58.0275 69.0056
16806 1 20.9568 59.6029 66.4139
16864 1 18.2309 57.9957 66.443
22457 2 20.0538 58.0132 67.7179
16803 1 19.1462 59.6328 68.9773
16899 1 12.7701 61.2096 66.3863
22494 2 11.8628 62.8297 67.6374
16835 1 13.6858 62.841 68.9255
16882 1 10.9598 61.2373 68.9505
16853 1 15.4959 62.8157 66.3605
22450 2 17.3191 62.8297 67.6374
22493 2 14.5932 61.2249 67.6626
16851 1 16.416 61.2373 68.9505
16805 1 20.9521 62.8157 66.3605
16852 1 18.2263 61.2096 66.3863
22459 2 20.0494 61.2249 67.6626
16802 1 19.142 62.841 68.9255
16884 1 12.7655 64.4213 66.3367
22480 2 11.8586 66.0374 67.5936
16834 1 13.6819 66.0466 68.8819
16883 1 10.9557 64.4442 68.9026
16839 1 15.4915 66.0263 66.3154
22449 2 17.3148 66.0374 67.5936
22496 2 14.5888 64.4338 67.6143
16833 1 16.4119 64.4442 68.9026
16804 1 20.9477 66.0263 66.3154
16855 1 18.2218 64.4213 66.3367
22448 2 20.045 64.4338 67.6143
16795 1 19.1381 66.0466 68.8819
16885 1 12.7614 67.6309 66.2968
22479 2 11.8551 69.2431 67.5603
16821 1 13.6786 69.2499 68.8489
16874 1 10.952 67.6485 68.864
16838 1 15.4878 69.2351 66.2811
22435 2 17.3113 69.2431 67.5603
22478 2 14.5849 67.6405 67.5755
16836 1 16.4082 67.6485 68.864
16797 1 20.9441 69.2351 66.2811
16837 1 18.2177 67.6309 66.2968
22451 2 20.0411 67.6405 67.5755
16794 1 19.1348 69.2499 68.8489
16876 1 12.7583 70.8389 66.2688
22472 2 11.8528 72.4472 67.5394
16820 1 13.6764 72.4515 68.8282
16875 1 10.9492 70.8509 68.8369
16825 1 15.4854 72.4425 66.2598
22434 2 17.309 72.4472 67.5394
22481 2 14.5819 70.8453 67.5482
16819 1 16.4055 70.8509 68.8369
16796 1 20.9417 72.4425 66.2598
16840 1 18.2146 70.8389 66.2688
22433 2 20.0381 70.8453 67.5482
16784 1 19.1327 72.4515 68.8282
16877 1 12.7567 74.0459 66.2545
16873 1 10.9477 74.052 68.8229
22470 2 14.5803 74.049 67.5341
16822 1 16.404 74.052 68.8229
16823 1 18.213 74.0459 66.2545
22436 2 20.0366 74.049 67.5341
16831 1 11.8755 59.6634 71.5571
22491 2 12.7876 58.0477 70.2673
16800 1 17.3317 59.6634 71.5571
16848 1 14.6054 58.0601 71.5846
22446 2 15.5136 59.6518 70.2395
16799 1 20.0616 58.0601 71.5846
22404 2 20.9699 59.6518 70.2395
22456 2 18.2438 58.0477 70.2673
16830 1 11.8718 62.8671 71.5066
22492 2 12.7834 61.255 70.2132
16792 1 17.3281 62.8671 71.5066
16829 1 14.6018 61.2657 71.531
22445 2 15.5095 62.8573 70.1887
16801 1 20.058 61.2657 71.531
22403 2 20.9657 62.8573 70.1887
22444 2 18.2397 61.255 70.2132
16817 1 11.8684 66.0675 71.4643
22476 2 12.7793 64.4587 70.1662
16791 1 17.3246 66.0675 71.4643
16832 1 14.5982 64.4677 71.4843
22431 2 15.5055 66.0594 70.1461
16790 1 20.0544 64.4677 71.4843
22402 2 20.9618 66.0594 70.1461
22447 2 18.2356 64.4587 70.1662
16816 1 11.8655 69.265 71.4323
22477 2 12.7757 67.6594 70.1285
16781 1 17.3217 69.265 71.4323
16815 1 14.5949 67.6666 71.4469
22430 2 15.5023 69.2588 70.1138
16793 1 20.0512 67.6666 71.4469
22396 2 20.9585 69.2588 70.1138
22429 2 18.2319 67.6594 70.1285
22468 2 12.7729 70.8577 70.1021
16818 1 14.5925 70.8629 71.4207
16779 1 20.0488 70.8629 71.4207
22432 2 18.2291 70.8577 70.1021
16811 1 11.8636 72.4604 71.4122
22469 2 12.7714 74.0545 70.0884
16780 1 17.3198 72.4604 71.4122
22419 2 15.5001 72.4562 70.0936
16809 1 14.5912 74.0576 71.4071
22395 2 20.9564 72.4562 70.0936
16782 1 20.0475 74.0576 71.4071
22417 2 18.2277 74.0545 70.0884
16827 1 12.7471 58.0898 74.2418
22423 2 11.8699 59.716 75.2623
22442 2 13.702 59.686 72.777
22490 2 10.9759 58.0839 72.8043
16788 1 15.4754 59.6915 74.2144
22398 2 17.3261 59.716 75.2623
22440 2 14.5992 58.1155 75.2887
22441 2 16.4321 58.0839 72.8043
16770 1 20.9316 59.6915 74.2144
16798 1 18.2034 58.0898 74.2418
22397 2 20.0555 58.1155 75.2887
22401 2 19.1583 59.686 72.777
16828 1 12.7473 61.2921 74.1885
22422 2 11.8673 62.9128 75.2141
22427 2 13.698 62.8866 72.7273
22474 2 10.9719 61.2869 72.7513
16787 1 15.4755 62.8917 74.1644
22391 2 17.3236 62.9128 75.2141
22421 2 14.5967 61.3151 75.2373
22443 2 16.4281 61.2869 72.7513
16769 1 20.9317 62.8917 74.1644
16786 1 18.2036 61.2921 74.1885
22399 2 20.053 61.3151 75.2373
22400 2 19.1542 62.8866 72.7273
16813 1 12.7474 64.4902 74.1422
22411 2 11.8648 66.1042 75.1738
22426 2 13.6941 66.0828 72.6857
22475 2 10.9679 64.4852 72.7053
16777 1 15.4755 66.0878 74.1224
22390 2 17.3211 66.1042 75.1738
22424 2 14.5942 64.5091 75.1928
22425 2 16.4241 64.4852 72.7053
16768 1 20.9318 66.0878 74.1224
16789 1 18.2036 64.4902 74.1422
22389 2 20.0504 64.5091 75.1928
22394 2 19.1504 66.0828 72.6857
16814 1 12.7474 67.6844 74.1051
22410 2 11.8627 69.2912 75.1435
22415 2 13.691 69.2754 72.6542
22466 2 10.9643 67.6795 72.6685
16776 1 15.4755 69.2803 74.0906
22384 2 17.319 69.2912 75.1435
22409 2 14.5918 67.6982 75.1573
22428 2 16.4206 67.6795 72.6685
16767 1 20.9318 69.2803 74.0906
16775 1 18.2037 67.6844 74.1051
22392 2 20.0481 67.6982 75.1573
22393 2 19.1472 69.2754 72.6542
16807 1 12.7474 70.8755 74.0791
22467 2 10.9616 70.8707 72.6428
22412 2 14.59 70.8833 75.1325
22413 2 16.4179 70.8707 72.6428
16778 1 18.2037 70.8755 74.0791
22382 2 20.0463 70.8833 75.1325
22407 2 11.8613 72.4748 75.1246
22414 2 13.6889 72.4654 72.6345
22465 2 10.9602 74.0598 72.6295
16808 1 12.7474 74.0645 74.0657
16773 1 15.4756 72.4702 74.0708
22383 2 17.3176 72.4748 75.1246
22416 2 16.4164 74.0598 72.6295
22405 2 14.5891 74.0658 75.1198
16766 1 20.9318 72.4702 74.0708
22387 2 19.1451 72.4654 72.6345
22385 2 20.0453 74.0658 75.1198
16771 1 18.2037 74.0645 74.0657
11217 2 11.8469 77.157 -1.57758
11225 2 13.6772 77.1567 -4.07108
4800 1 12.7894 78.7408 -3.01609
11230 2 10.9487 78.7478 -4.06799
4786 1 15.518 77.1524 -3.01924
11187 2 17.3031 77.157 -1.57758
11215 2 14.5748 78.7461 -1.57441
11226 2 16.4049 78.7478 -4.06799
4740 1 20.9743 77.1524 -3.01924
11190 2 19.1334 77.1567 -4.07108
4784 1 18.2456 78.7408 -3.01609
11188 2 20.031 78.7461 -1.57441
11216 2 11.8463 80.3351 -1.56915
11221 2 13.6762 80.3387 -4.06287
4785 1 15.5166 80.3291 -3.01086
11181 2 17.3025 80.3351 -1.56915
4739 1 20.9728 80.3291 -3.01086
11189 2 19.1325 80.3387 -4.06287
4796 1 12.7872 81.9172 -3.0036
11206 2 11.8451 83.5118 -1.55254
11220 2 13.6745 83.5193 -4.0467
11231 2 10.9473 81.9292 -4.05575
4778 1 15.5137 83.505 -2.99436
11180 2 17.3014 83.5118 -1.55254
11218 2 14.5739 81.9237 -1.56184
11219 2 16.4036 81.9292 -4.05575
4738 1 20.97 83.505 -2.99436
4787 1 18.2434 81.9172 -3.0036
11179 2 20.0301 81.9237 -1.56184
11184 2 19.1307 83.5193 -4.0467
4797 1 12.7837 85.0925 -2.98322
11205 2 11.8435 86.6864 -1.5283
11210 2 13.672 86.6978 -4.02312
11228 2 10.9452 85.1089 -4.0358
4777 1 15.5097 86.6795 -2.97026
11167 2 17.2998 86.6864 -1.5283
11204 2 14.5725 85.0994 -1.54134
11222 2 16.4014 85.1089 -4.0358
4731 1 20.9659 86.6795 -2.97026
4776 1 18.24 85.0925 -2.98322
11182 2 20.0287 85.0994 -1.54134
11183 2 19.1282 86.6978 -4.02312
4792 1 12.7791 88.2659 -2.95558
11198 2 11.8416 89.8582 -1.49718
11209 2 13.6689 89.8734 -3.99285
11229 2 10.9424 88.286 -4.00876
4764 1 15.5046 89.8518 -2.93929
11166 2 17.2979 89.8582 -1.49718
11207 2 14.5707 88.2727 -1.51355
11208 2 16.3986 88.286 -4.00876
4730 1 20.9608 89.8518 -2.93929
4779 1 18.2354 88.2659 -2.95558
11165 2 20.027 88.2727 -1.51355
11170 2 19.1252 89.8734 -3.99285
4793 1 12.7736 91.4369 -2.92152
11197 2 11.8396 93.0266 -1.46014
11199 2 13.6655 93.0454 -3.95682
11227 2 10.9391 91.4599 -3.97549
4763 1 15.4987 93.0214 -2.90239
11149 2 17.2958 93.0266 -1.46014
11196 2 14.5687 91.4428 -1.47934
11211 2 16.3954 91.4599 -3.97549
4715 1 20.955 93.0214 -2.90239
4762 1 18.2299 91.4369 -2.92152
11168 2 20.025 91.4428 -1.47934
11169 2 19.1217 93.0454 -3.95682
4770 1 11.8518 77.1541 2.22885
4782 1 13.6706 77.1544 -0.358632
4794 1 10.9422 78.7416 -0.355448
11214 2 12.7586 78.7421 0.97134
4734 1 17.3081 77.1541 2.22885
11177 2 15.4869 77.1556 0.968099
4768 1 14.5797 78.7391 2.23212
4783 1 16.3985 78.7416 -0.355448
4737 1 19.1268 77.1544 -0.358632
11124 2 20.9432 77.1556 0.968099
4735 1 20.0359 78.7391 2.23212
11175 2 18.2148 78.7421 0.97134
4769 1 11.8511 80.3239 2.23755
4774 1 13.6699 80.3287 -0.350168
4726 1 17.3074 80.3239 2.23755
11176 2 15.4863 80.3284 0.976712
4736 1 19.1261 80.3287 -0.350168
11123 2 20.9425 80.3284 0.976712
4756 1 11.8498 83.4928 2.25467
4773 1 13.6685 83.5018 -0.333501
4795 1 10.9412 81.9154 -0.342833
11202 2 12.7576 81.9145 0.984173
4725 1 17.306 83.4928 2.25467
4771 1 14.5786 81.9085 2.24508
4772 1 16.3974 81.9154 -0.342833
11163 2 15.4851 83.5001 0.993662
4724 1 20.0349 81.9085 2.24508
4729 1 19.1248 83.5018 -0.333501
11122 2 20.9413 83.5001 0.993662
11178 2 18.2139 81.9145 0.984173
4755 1 11.8479 86.66 2.27968
4760 1 13.6666 86.6732 -0.309148
4790 1 10.9395 85.0878 -0.322244
11203 2 12.7561 85.0853 1.0051
4711 1 17.3042 86.66 2.27968
4754 1 14.577 85.0766 2.26623
4775 1 16.3958 85.0878 -0.322244
11162 2 15.4834 86.67 1.01841
4727 1 20.0333 85.0766 2.26623
4728 1 19.1229 86.6732 -0.309148
11115 2 20.9396 86.67 1.01841
11161 2 18.2124 85.0853 1.0051
4748 1 11.8457 89.8252 2.3118
4759 1 13.6644 89.8423 -0.277856
4791 1 10.9374 88.2581 -0.294314
11194 2 12.7543 88.254 1.03347
4710 1 17.302 89.8252 2.3118
4757 1 14.575 88.2429 2.29491
4758 1 16.3937 88.2581 -0.294314
11148 2 15.4813 89.8374 1.05017
4709 1 20.0312 88.2429 2.29491
4714 1 19.1206 89.8423 -0.277856
11114 2 20.9376 89.8374 1.05017
11164 2 18.2105 88.254 1.03347
4747 1 11.8433 92.9879 2.35003
4749 1 13.6618 93.0086 -0.240576
4789 1 10.935 91.4258 -0.259899
11195 2 12.7521 91.4201 1.06838
4693 1 17.2995 92.9879 2.35003
4746 1 14.5726 91.4068 2.33022
4761 1 16.3912 91.4258 -0.259899
11147 2 15.4791 93.0021 1.08796
4712 1 20.0289 91.4068 2.33022
4713 1 19.118 93.0086 -0.240576
11099 2 20.9353 93.0021 1.08796
11146 2 18.2083 91.4201 1.06838
11173 2 13.6712 77.1551 3.52714
4767 1 12.7634 78.7374 4.80436
11200 2 10.9428 78.7392 3.53046
4722 1 15.4918 77.1545 4.80099
11174 2 16.3991 78.7392 3.53046
4668 1 20.9481 77.1545 4.80099
11121 2 19.1275 77.1551 3.52714
4720 1 18.2196 78.7374 4.80436
11159 2 13.6705 80.3232 3.53596
4752 1 12.7622 81.9027 4.81771
4721 1 15.491 80.3202 4.80995
4667 1 20.9473 80.3202 4.80995
11120 2 19.1267 80.3232 3.53596
4723 1 18.2185 81.9027 4.81771
11158 2 13.6691 83.4903 3.5533
11201 2 10.9418 81.9069 3.54359
4707 1 15.4895 83.4849 4.82758
11157 2 16.398 81.9069 3.54359
4666 1 20.9458 83.4849 4.82758
11113 2 19.1253 83.4903 3.5533
4753 1 12.7605 85.0668 4.83948
11144 2 13.6672 86.6558 3.57862
11192 2 10.9401 85.0733 3.56501
4706 1 15.4875 86.6482 4.85332
11160 2 16.3963 85.0733 3.56501
4659 1 20.9437 86.6482 4.85332
4705 1 18.2167 85.0668 4.83948
11112 2 19.1234 86.6558 3.57862
4744 1 12.7582 88.2292 4.86898
11143 2 13.6649 89.8192 3.6111
11193 2 10.938 88.2378 3.59402
4692 1 15.485 89.8096 4.88635
11142 2 16.3942 88.2378 3.59402
4658 1 20.9413 89.8096 4.88635
4708 1 18.2144 88.2292 4.86898
11098 2 19.1211 89.8192 3.6111
4745 1 12.7556 91.3896 4.90528
11133 2 13.6623 92.9803 3.64971
11191 2 10.9355 91.4001 3.62971
4691 1 15.4823 92.969 4.92562
11145 2 16.3918 91.4001 3.62971
4644 1 20.9385 92.969 4.92562
4690 1 18.2118 91.3896 4.90528
11097 2 19.1186 92.9803 3.64971
4718 1 13.6752 77.1555 7.36783
11155 2 11.855 77.1554 6.09012
4750 1 10.9466 78.7365 7.37147
11152 2 12.7666 78.7359 8.65794
11106 2 15.4952 77.1558 8.65418
11118 2 17.3112 77.1554 6.09012
4719 1 16.4029 78.7365 7.37147
11153 2 14.5827 78.7374 6.09364
4665 1 19.1314 77.1555 7.36783
11064 2 20.9514 77.1558 8.65418
11104 2 18.2229 78.7359 8.65794
11119 2 20.039 78.7374 6.09364
4703 1 13.6742 80.3173 7.37741
11154 2 11.8541 80.3193 6.09941
4751 1 10.9453 81.898 7.3856
11136 2 12.765 81.8956 8.67244
11105 2 15.494 80.3158 8.66405
11110 2 17.3103 80.3193 6.09941
4701 1 16.4015 81.898 7.3856
11156 2 14.5814 81.9009 6.10739
4664 1 19.1304 80.3173 7.37741
11063 2 20.9503 80.3158 8.66405
11107 2 18.2213 81.8956 8.67244
11108 2 20.0377 81.9009 6.10739
4702 1 13.6724 83.4783 7.39598
11140 2 11.8524 83.4823 6.1175
11137 2 12.7627 85.0541 8.69576
11091 2 15.4921 83.475 8.68304
11109 2 17.3087 83.4823 6.1175
4657 1 19.1287 83.4783 7.39598
11062 2 20.9483 83.475 8.68304
11089 2 18.219 85.0541 8.69576
4688 1 13.6701 86.6379 7.42292
4742 1 10.9432 85.0583 7.40846
11139 2 11.8503 86.6438 6.14377
4704 1 16.3994 85.0583 7.40846
11090 2 15.4895 86.6328 8.71048
11095 2 17.3065 86.6438 6.14377
11138 2 14.5795 85.0633 6.12966
4656 1 19.1263 86.6379 7.42292
11056 2 20.9457 86.6328 8.71048
11111 2 20.0358 85.0633 6.12966
4687 1 13.6674 89.7958 7.45732
4743 1 10.9406 88.2171 7.43926
11128 2 12.7599 88.2112 8.72708
11132 2 11.8477 89.8036 6.17735
4686 1 16.3969 88.2171 7.43926
11079 2 15.4865 89.7891 8.74541
11094 2 17.3039 89.8036 6.17735
11141 2 14.5771 88.2239 6.15971
4643 1 19.1236 89.7958 7.45732
11055 2 20.9428 89.7891 8.74541
11092 2 18.2162 88.2112 8.72708
11093 2 20.0334 88.2239 6.15971
4677 1 13.6643 92.9519 7.49802
4741 1 10.9378 91.3741 7.47696
11129 2 12.7568 91.3665 8.76531
11131 2 11.8448 92.9613 6.21713
4689 1 16.394 91.3741 7.47696
11078 2 15.4833 92.9435 8.78662
11080 2 17.3011 92.9613 6.21713
11130 2 14.5744 91.3827 6.19654
4642 1 19.1206 92.9519 7.49802
11048 2 20.9395 92.9435 8.78662
11077 2 18.213 91.3665 8.76531
11096 2 20.0307 91.3827 6.19654
4699 1 11.8593 77.1561 9.93286
11102 2 13.6798 77.1561 11.2182
11134 2 10.951 78.7343 11.2222
4696 1 12.7716 78.7336 12.5011
4662 1 17.3155 77.1561 9.93286
4650 1 15.5004 77.1563 12.4968
4697 1 14.5869 78.7352 9.93678
11103 2 16.4073 78.7343 11.2222
11061 2 19.136 77.1561 11.2182
4620 1 20.9566 77.1563 12.4968
4663 1 20.0431 78.7352 9.93678
4648 1 18.2278 78.7336 12.5011
4698 1 11.858 80.3142 9.94311
11087 2 13.6782 80.3123 11.2287
11135 2 10.949 81.8902 11.2376
4680 1 12.7692 81.8877 12.5171
4654 1 17.3142 80.3142 9.94311
4649 1 15.4986 80.3107 12.5078
4700 1 14.5851 81.893 9.95179
11085 2 16.4052 81.8902 11.2376
11060 2 19.1345 80.3123 11.2287
4619 1 20.9549 80.3107 12.5078
4652 1 20.0413 81.893 9.95179
4651 1 18.2255 81.8877 12.5171
4684 1 11.8558 83.4715 9.96274
11086 2 13.6757 83.4678 11.2488
11126 2 10.9461 85.0451 11.2622
4681 1 12.766 85.0408 12.5426
4653 1 17.312 83.4715 9.96274
4636 1 15.4958 83.4644 12.5287
11088 2 16.4023 85.0451 11.2622
4682 1 14.5826 85.0497 9.97586
11054 2 19.132 83.4678 11.2488
4618 1 20.952 83.4644 12.5287
4634 1 18.2222 85.0408 12.5426
4655 1 20.0388 85.0497 9.97586
4683 1 11.853 86.6276 9.99105
11075 2 13.6726 86.622 11.2777
11127 2 10.9427 88.1986 11.2951
4672 1 12.7623 88.1927 12.5766
4640 1 17.3092 86.6276 9.99105
4635 1 15.4923 86.6169 12.5586
11073 2 16.399 88.1986 11.2951
11053 2 19.1288 86.622 11.2777
4615 1 20.9485 86.6169 12.5586
4637 1 18.2185 88.1927 12.5766
4676 1 11.8498 89.7821 10.027
11074 2 13.669 89.7748 11.3142
11125 2 10.939 91.3506 11.335
4639 1 17.306 89.7821 10.027
4685 1 14.5796 88.205 10.0081
11076 2 16.3953 91.3506 11.335
4638 1 20.0358 88.205 10.0081
11047 2 19.1253 89.7748 11.3142
4675 1 11.8463 92.9349 10.0694
11068 2 13.6652 92.926 11.3571
11558 2 10.9351 94.501 11.3805
4629 1 17.3026 92.9349 10.0694
4674 1 14.5762 91.3587 10.0475
11509 2 16.3914 94.501 11.3805
4641 1 20.0324 91.3587 10.0475
11046 2 19.1215 92.926 11.3571
4646 1 13.6862 77.1561 15.0599
11083 2 11.8651 77.1561 13.7817
4678 1 10.9571 78.7314 15.0645
11058 2 17.3213 77.1561 13.7817
4647 1 16.4133 78.7314 15.0645
11081 2 14.5924 78.7323 13.7861
4617 1 19.1425 77.1561 15.0599
11059 2 20.0486 78.7323 13.7861
4632 1 13.6838 80.3066 15.0718
11082 2 11.863 80.3084 13.793
4679 1 10.9539 81.8816 15.0816
11051 2 17.3193 80.3084 13.793
4630 1 16.4101 81.8816 15.0816
11084 2 14.5896 81.8843 13.8025
4616 1 19.14 80.3066 15.0718
11049 2 20.0459 81.8843 13.8025
4631 1 13.68 83.4565 15.094
11071 2 11.8598 83.4601 13.8144
4670 1 10.9496 85.0311 15.1088
11050 2 17.316 83.4601 13.8144
4633 1 16.4059 85.0311 15.1088
11069 2 14.5859 85.0355 13.8285
4613 1 19.1362 83.4565 15.094
11052 2 20.0422 85.0355 13.8285
4624 1 13.6755 86.6054 15.1258
11070 2 11.8558 86.6107 13.8449
4671 1 10.945 88.1794 15.1449
11044 2 17.312 86.6107 13.8449
4622 1 16.4012 88.1794 15.1449
11072 2 14.5817 88.1855 13.8632
4612 1 19.1317 86.6054 15.1258
11042 2 20.038 88.1855 13.8632
4669 1 10.9402 91.3264 15.1885
4673 1 12.7583 91.3431 12.6179
4623 1 13.6707 89.7531 15.1659
11067 2 11.8514 89.76 13.8834
4625 1 16.3964 91.3264 15.1885
11065 2 14.5773 91.3341 13.9052
4628 1 15.4884 89.7681 12.5964
11043 2 17.3076 89.76 13.8834
4626 1 18.2145 91.3431 12.6179
11045 2 20.0335 91.3341 13.9052
4610 1 19.1269 89.7531 15.1659
4614 1 20.9447 89.7681 12.5964
4621 1 13.6658 92.8994 15.2125
11066 2 11.8469 92.9079 13.9284
5078 1 10.9353 94.472 15.2377
5079 1 12.7541 94.4919 12.6648
4627 1 15.4844 92.9177 12.6407
11041 2 17.3032 92.9079 13.9284
5029 1 16.3915 94.472 15.2377
11508 2 14.5727 94.4813 13.9527
4611 1 20.9406 92.9177 12.6407
4609 1 19.1221 92.8994 15.2125
11465 2 20.029 94.4813 13.9527
5044 1 18.2104 94.4919 12.6648
11406 2 13.6953 77.1542 18.9073
4990 1 11.8732 77.1553 17.6224
11418 2 10.9655 78.7257 18.9124
11424 2 12.7784 78.7296 16.3494
11410 2 15.5077 77.1556 16.3447
4967 1 17.3294 77.1553 17.6224
11407 2 16.4217 78.7257 18.9124
4988 1 14.5998 78.7283 17.6273
11361 2 19.1515 77.1542 18.9073
11364 2 20.9639 77.1556 16.3447
11408 2 18.2346 78.7296 16.3494
4968 1 20.0561 78.7283 17.6273
4989 1 11.8697 80.3013 17.635
11398 2 13.6912 80.2973 18.9202
11419 2 10.9602 81.8689 18.9309
11420 2 12.7746 81.8775 16.3669
11409 2 15.5048 80.3036 16.3568
4963 1 17.3259 80.3013 17.635
4991 1 14.5954 81.8742 17.6456
11396 2 16.4165 81.8689 18.9309
11360 2 19.1474 80.2973 18.9202
11363 2 20.961 80.3036 16.3568
4961 1 20.0516 81.8742 17.6456
11411 2 18.2309 81.8775 16.3669
4983 1 11.8645 83.4471 17.6588
11397 2 13.6852 83.4404 18.9444
11421 2 12.7697 85.0247 16.3946
11414 2 10.9537 85.0119 18.9605
11402 2 15.5004 83.4512 16.3796
4962 1 17.3208 83.4471 17.6588
4981 1 14.5897 85.0197 17.6745
11399 2 16.4099 85.0119 18.9605
11353 2 19.1414 83.4404 18.9444
11362 2 20.9566 83.4512 16.3796
4964 1 20.046 85.0197 17.6745
11400 2 18.226 85.0247 16.3946
4982 1 11.8586 86.5922 17.6927
11384 2 13.6784 86.5831 18.979
11416 2 12.7644 88.171 16.4315
11415 2 10.9469 88.1541 18.9999
11401 2 15.4952 86.598 16.412
4951 1 17.3149 86.5922 17.6927
4984 1 14.5838 88.1643 17.7131
11382 2 16.4032 88.1541 18.9999
11352 2 19.1347 86.5831 18.979
11355 2 20.9515 86.598 16.412
11403 2 18.2207 88.171 16.4315
4949 1 20.04 88.1643 17.7131
4976 1 11.8527 89.7362 17.7355
11383 2 13.6717 89.7249 19.0228
11417 2 12.759 91.316 16.4759
11413 2 10.9403 91.2953 19.0473
4950 1 17.309 89.7362 17.7355
11388 2 15.4899 89.7437 16.4529
4974 1 14.5779 91.3077 17.7596
11385 2 16.3966 91.2953 19.0473
11338 2 19.128 89.7249 19.0228
11354 2 20.9461 89.7437 16.4529
4952 1 20.0342 91.3077 17.7596
11386 2 18.2153 91.316 16.4759
4975 1 11.8469 92.8789 17.785
11373 2 13.6652 92.8655 19.0732
11831 2 12.7537 94.4599 16.5259
11830 2 10.9339 94.4356 19.1001
4933 1 17.3031 92.8789 17.785
11387 2 15.4845 92.8881 16.5004
11813 2 16.3902 94.4356 19.1001
5376 1 14.5721 94.4498 17.8115
11337 2 19.1215 92.8655 19.0732
11339 2 20.9407 92.8881 16.5004
11820 2 18.2099 94.4599 16.5259
5350 1 20.0284 94.4498 17.8115
11394 2 11.8844 77.1517 21.47
4987 1 12.7876 78.7238 20.1897
4959 1 15.5178 77.1535 20.1845
11358 2 17.3406 77.1517 21.47
11392 2 14.6101 78.7201 21.4752
4908 1 20.9741 77.1535 20.1845
4957 1 18.2438 78.7238 20.1897
11359 2 20.0663 78.7201 21.4752
11393 2 11.8786 80.2888 21.4833
4979 1 12.7813 81.8647 20.209
4958 1 15.5128 80.2942 20.1978
11350 2 17.3348 80.2888 21.4833
11395 2 14.6027 81.8577 21.4945
4907 1 20.9691 80.2942 20.1978
4960 1 18.2375 81.8647 20.209
11348 2 20.0589 81.8577 21.4945
11380 2 11.8702 83.4267 21.5087
4980 1 12.7737 85.0059 20.2399
4947 1 15.5056 83.4353 20.223
11349 2 17.3265 83.4267 21.5087
11378 2 14.5939 84.9958 21.5259
4906 1 20.9619 83.4353 20.223
4945 1 18.2299 85.0059 20.2399
11351 2 20.0501 84.9958 21.5259
11379 2 11.8614 86.5649 21.5459
4972 1 12.7661 88.1464 20.2815
4946 1 15.4979 86.5763 20.2595
11335 2 17.3176 86.5649 21.5459
11381 2 14.5853 88.1337 21.5685
4899 1 20.9542 86.5763 20.2595
4948 1 18.2223 88.1464 20.2815
11333 2 20.0415 88.1337 21.5685
11372 2 11.853 89.7022 21.5931
4973 1 12.7589 91.2857 20.3314
4932 1 15.4906 89.7162 20.3056
11334 2 17.3093 89.7022 21.5931
11370 2 14.5772 91.2705 21.6196
4898 1 20.9468 89.7162 20.3056
4930 1 18.2151 91.2857 20.3314
11336 2 20.0334 91.2705 21.6196
11371 2 11.8452 92.8387 21.6472
5370 1 12.752 94.4241 20.3867
4931 1 15.4835 92.855 20.3586
11317 2 17.3015 92.8387 21.6472
11812 2 14.5696 94.4069 21.6757
4883 1 20.9398 92.855 20.3586
5349 1 18.2082 94.4241 20.3867
11765 2 20.0258 94.4069 21.6757
4939 1 11.9005 77.1448 25.3116
4955 1 13.708 77.1503 22.7471
4977 1 10.9768 78.7171 22.7522
11391 2 12.7999 78.712 24.0385
4902 1 17.3567 77.1448 25.3116
11346 2 15.5316 77.1476 24.0337
4937 1 14.624 78.7072 25.3159
4956 1 16.433 78.7171 22.7522
4905 1 19.1643 77.1503 22.7471
11292 2 20.9879 77.1476 24.0337
4903 1 20.0803 78.7072 25.3159
11344 2 18.2561 78.712 24.0385
4938 1 11.8898 80.2707 25.3234
4943 1 13.7007 80.2844 22.7605
4978 1 10.9677 81.8521 22.7719
11376 2 12.7894 81.8428 24.0578
4894 1 17.346 80.2707 25.3234
11345 2 15.5232 80.2771 24.0465
4940 1 14.611 81.8351 25.3346
4941 1 16.424 81.8521 22.7719
4904 1 19.157 80.2844 22.7605
11291 2 20.9794 80.2771 24.0465
4892 1 20.0673 81.8351 25.3346
11347 2 18.2457 81.8428 24.0578
4924 1 11.8758 83.4004 25.3498
4942 1 13.6907 83.4202 22.7867
4970 1 10.9575 84.9884 22.8048
11377 2 12.7776 84.9755 24.091
4893 1 17.332 83.4004 25.3498
11331 2 15.5116 83.409 24.0726
4922 1 14.597 84.9659 25.3692
4944 1 16.4137 84.9884 22.8048
4897 1 19.147 83.4202 22.7867
11290 2 20.9679 83.409 24.0726
4895 1 20.0533 84.9659 25.3692
11329 2 18.2338 84.9755 24.091
4923 1 11.8625 86.5314 25.3925
4928 1 13.6806 86.5565 22.826
4971 1 10.9478 88.1244 22.85
11368 2 12.7666 88.1081 24.1373
4879 1 17.3187 86.5314 25.3925
11330 2 15.5001 86.5419 24.1127
4925 1 14.5847 88.0965 25.4192
4926 1 16.404 88.1244 22.85
4896 1 19.1369 86.5565 22.826
11283 2 20.9563 86.5419 24.1127
4877 1 20.041 88.0965 25.4192
11332 2 18.2228 88.1081 24.1373
4916 1 11.8511 89.6612 25.4485
4927 1 13.6714 89.6919 22.8763
4969 1 10.939 91.2591 22.9044
11369 2 12.7568 91.2399 24.1931
4878 1 17.3073 89.6612 25.4485
11316 2 15.4897 89.6741 24.1644
4914 1 14.574 91.2256 25.4794
4929 1 16.3952 91.2591 22.9044
4882 1 19.1277 89.6919 22.8763
11282 2 20.9459 89.6741 24.1644
4880 1 20.0303 91.2256 25.4794
11314 2 18.213 91.2399 24.1931
4915 1 11.841 92.7899 25.5112
4917 1 13.663 92.8261 22.9337
5369 1 10.9308 94.3931 22.9636
11798 2 12.7478 94.372 24.2532
4862 1 17.2972 92.7899 25.5112
11315 2 15.4803 92.8058 24.2229
5337 1 14.5644 94.3547 25.543
5338 1 16.387 94.3931 22.9636
4881 1 19.1192 92.8261 22.9337
11268 2 20.9365 92.8058 24.2229
5285 1 20.0206 94.3547 25.543
11764 2 18.204 94.372 24.2532
11342 2 13.7249 77.1413 26.5996
4936 1 12.8172 78.6931 27.8822
11374 2 10.9915 78.7007 26.6031
11323 2 11.921 77.1333 29.17
4890 1 15.5522 77.1367 27.8806
11343 2 16.4477 78.7007 26.6031
11286 2 17.3773 77.1333 29.17
11321 2 14.6414 78.6861 29.1699
4842 1 21.0084 77.1367 27.8806
11289 2 19.1811 77.1413 26.5996
4888 1 18.2735 78.6931 27.8822
11287 2 20.0976 78.6861 29.1699
11327 2 13.7126 80.2613 26.6098
4920 1 12.7985 81.8125 27.897
11375 2 10.9765 81.8231 26.6206
11322 2 11.9032 80.2408 29.1734
4889 1 15.5365 80.2519 27.8875
11325 2 16.4328 81.8231 26.6206
11278 2 17.3595 80.2408 29.1734
11324 2 14.6199 81.7976 29.1821
4841 1 20.9927 80.2519 27.8875
11288 2 19.1689 80.2613 26.6098
4891 1 18.2548 81.8125 27.897
11276 2 20.0761 81.7976 29.1821
11326 2 13.6965 83.3859 26.6357
4921 1 12.7793 84.9369 27.9332
11366 2 10.9605 84.9491 26.6554
11308 2 11.8805 83.3558 29.1969
4875 1 15.5166 83.3744 27.9123
11328 2 16.4168 84.9491 26.6554
11277 2 17.3367 83.3558 29.1969
11306 2 14.5981 84.9146 29.2183
4840 1 20.9729 83.3744 27.9123
11281 2 19.1527 83.3859 26.6357
4873 1 18.2355 84.9369 27.9332
11279 2 20.0543 84.9146 29.2183
11312 2 13.6814 86.5123 26.6793
4912 1 12.7636 88.0604 27.9902
11367 2 10.9466 88.0752 26.7068
11307 2 11.8608 86.4732 29.2457
4874 1 15.4991 86.499 27.9597
11310 2 16.4028 88.0752 26.7068
11264 2 17.317 86.4732 29.2457
4833 1 20.9554 86.499 27.9597
11280 2 19.1376 86.5123 26.6793
4876 1 18.2199 88.0604 27.9902
11311 2 13.6686 89.638 26.737
4913 1 12.7508 91.1818 28.0579
11365 2 10.9347 91.2008 26.7687
4861 1 15.4851 89.6212 28.0235
11313 2 16.3909 91.2008 26.7687
4832 1 20.9414 89.6212 28.0235
11267 2 19.1248 89.638 26.737
4859 1 18.2071 91.1818 28.0579
11301 2 13.6574 92.7641 26.8009
5319 1 12.7396 94.3058 28.1254
11797 2 10.9242 94.3284 26.8329
4860 1 15.4731 92.7432 28.0921
11749 2 16.3804 94.3284 26.8329
4821 1 20.9294 92.7432 28.0921
11266 2 19.1136 92.7641 26.8009
5284 1 18.1958 94.3058 28.1254
4886 1 13.7523 77.1277 30.4584
4918 1 11.014 78.6754 30.4546
11320 2 12.8383 78.6715 31.742
11274 2 15.5773 77.1262 31.7478
4887 1 16.4702 78.6754 30.4546
4839 1 19.2086 77.1277 30.4584
11244 2 21.0336 77.1262 31.7478
11272 2 18.2946 78.6715 31.742
4871 1 13.7282 80.2271 30.4543
4919 1 10.9866 81.7829 30.4603
11304 2 12.8063 81.7659 31.7407
11273 2 15.5513 80.217 31.7363
4869 1 16.4428 81.7829 30.4603
4838 1 19.1844 80.2271 30.4543
11243 2 21.0075 80.217 31.7363
11275 2 18.2626 81.7659 31.7407
4870 1 13.6997 83.3405 30.4748
4910 1 10.9592 84.8985 30.4986
11305 2 12.7765 84.868 31.7785
11260 2 15.5182 83.3168 31.7536
4872 1 16.4154 84.8985 30.4986
4831 1 19.1559 83.3405 30.4748
11242 2 20.9744 83.3168 31.7536
11258 2 18.2327 84.868 31.7785
4857 1 13.6765 86.4556 30.5298
4911 1 10.9397 88.0112 30.5662
11296 2 12.7546 87.9709 31.8505
11259 2 15.4926 86.4195 31.8114
4855 1 16.3959 88.0112 30.5662
11309 2 14.5806 88.0316 29.2774
4830 1 19.1327 86.4556 30.5298
11239 2 20.9488 86.4195 31.8114
11261 2 18.2108 87.9709 31.8505
11262 2 20.0369 88.0316 29.2774
4856 1 13.66 89.566 30.6045
11300 2 11.8451 89.5901 29.3119
4909 1 10.9246 91.1224 30.6419
11297 2 12.738 91.0807 31.9289
11252 2 15.4738 89.5242 31.8904
11263 2 17.3013 89.5901 29.3119
4858 1 16.3808 91.1224 30.6419
11298 2 14.5663 91.1494 29.3471
4820 1 19.1162 89.566 30.6045
11238 2 20.9301 89.5242 31.8904
11250 2 18.1943 91.0807 31.9289
11265 2 20.0226 91.1494 29.3471
4848 1 13.6462 92.6812 30.6775
11299 2 11.832 92.7104 29.3817
11727 2 12.7259 94.2043 31.9984
11251 2 15.4595 92.6407 31.965
11253 2 17.2882 92.7104 29.3817
5269 1 16.3685 94.243 30.7109
11748 2 14.5545 94.2734 29.415
11692 2 18.1821 94.2043 31.9984
2246 1 21.8247 94.243 30.7109
4819 1 19.1024 92.6812 30.6775
11235 2 20.9157 92.6407 31.965
11693 2 20.0107 94.2734 29.415
4867 1 11.9577 77.1232 33.0467
11270 2 13.787 77.1244 34.3335
11302 2 11.0403 78.6649 34.3225
4864 1 12.8768 78.6645 35.644
4836 1 17.4139 77.1232 33.0467
4865 1 14.6743 78.6636 33.0432
11271 2 16.4966 78.6649 34.3225
4824 1 15.618 77.1242 35.6411
11241 2 19.2432 77.1244 34.3335
4837 1 20.1305 78.6636 33.0432
4806 1 21.0743 77.1242 35.6411
4822 1 18.333 78.6645 35.644
4866 1 11.9231 80.1991 33.0337
11256 2 13.7455 80.2012 34.3048
11303 2 10.9881 81.7302 34.2898
4849 1 12.8198 81.7084 35.6258
4828 1 17.3794 80.1991 33.0337
4868 1 14.628 81.7428 33.0258
11254 2 16.4443 81.7302 34.2898
4823 1 15.581 80.2052 35.6594
11240 2 19.2017 80.2012 34.3048
4826 1 20.0842 81.7428 33.0258
4805 1 21.0373 80.2052 35.6594
4825 1 18.276 81.7084 35.6258
4853 1 11.8774 83.295 33.0435
11255 2 13.6959 83.2653 34.3017
11294 2 10.9461 84.802 34.3305
4850 1 12.7446 84.7434 35.6764
4827 1 17.3336 83.295 33.0435
4851 1 14.5886 84.8446 33.0712
11257 2 16.4024 84.802 34.3305
4813 1 15.4842 83.2035 35.6357
11237 2 19.1521 83.2653 34.3017
4829 1 20.0448 84.8446 33.0712
4804 1 20.9404 83.2035 35.6357
4811 1 18.2008 84.7434 35.6764
4852 1 11.8485 86.3912 33.1113
11248 2 13.662 86.3397 34.378
11295 2 10.9218 87.8827 34.4268
4843 1 12.7257 87.8069 35.7599
4817 1 17.3048 86.3912 33.1113
4854 1 14.5674 87.9359 33.1549
11246 2 16.3781 87.8827 34.4268
4812 1 15.4647 86.2617 35.7237
4814 1 18.1819 87.8069 35.7599
11236 2 19.1183 86.3397 34.378
4815 1 20.0236 87.9359 33.1549
4803 1 20.9209 86.2617 35.7237
4847 1 11.83 89.4849 33.1951
11247 2 13.6408 89.4324 34.472
4844 1 12.7135 90.9214 35.8268
4809 1 15.4472 89.358 35.7961
4807 1 18.1697 90.9214 35.8268
4816 1 17.2863 89.4849 33.1951
4845 1 14.5503 91.0387 33.2327
11249 2 16.3617 90.9893 34.5122
8029 2 21.8179 90.9893 34.5122
11234 2 19.0971 89.4324 34.472
4818 1 20.0066 91.0387 33.2327
4802 1 20.9035 89.358 35.7961
4846 1 11.8155 92.5986 33.2666
11245 2 13.6279 92.5519 34.548
5268 1 14.5383 94.1632 33.2978
5247 1 12.7062 94.0649 35.8819
4810 1 17.2718 92.5986 33.2666
11677 2 16.3518 94.1195 34.5804
5218 1 18.1624 94.0649 35.8819
4808 1 15.4373 92.4907 35.8552
4801 1 20.8935 92.4907 35.8552
5219 1 19.9946 94.1632 33.2978
11233 2 19.0841 92.5519 34.548
8462 2 21.808 94.1195 34.5804
11446 2 12.0247 77.1409 36.9181
16731 1 13.0966 75.6161 38.2494
11435 2 17.4809 77.1409 36.9181
17116 1 15.8194 77.2051 38.255
11444 2 14.7388 78.6814 36.8997
16701 1 18.5528 75.6161 38.2494
11436 2 20.195 78.6814 36.8997
14304 1 21.2756 77.2051 38.255
11445 2 11.959 80.225 36.8701
17117 1 13.0954 78.8537 38.2451
11432 2 17.4152 80.225 36.8701
17118 1 15.8276 80.551 38.3097
11447 2 14.5987 81.7135 36.8658
17082 1 18.5516 78.8537 38.2451
11430 2 20.0549 81.7135 36.8658
14302 1 21.2838 80.551 38.3097
11442 2 11.8291 83.1949 36.8196
17113 1 13.0839 82.4017 38.3842
11431 2 17.2853 83.1949 36.8196
17111 1 16.075 84.1261 38.4325
11440 2 14.567 84.6859 36.8804
17081 1 18.5401 82.4017 38.3842
11433 2 20.0233 84.6859 36.8804
14303 1 21.5313 84.1261 38.4325
11441 2 11.8238 86.2145 36.9396
17112 1 13.545 85.94 38.329
11443 2 14.5387 87.7504 37.0027
11428 2 17.28 86.2145 36.9396
17114 1 16.299 87.5446 38.3617
17076 1 19.0012 85.94 38.329
11426 2 19.9949 87.7504 37.0027
14300 1 21.7552 87.5446 38.3617
11439 2 11.8046 89.3068 37.0499
17102 1 13.5854 89.1589 38.3881
11437 2 14.5274 90.8713 37.0902
11427 2 17.2609 89.3068 37.0499
17100 1 16.3215 90.7583 38.4093
17075 1 19.0416 89.1589 38.3881
11429 2 19.9836 90.8713 37.0902
14301 1 21.7778 90.7583 38.4093
11856 2 14.5222 94.0199 37.1559
11438 2 11.796 92.4432 37.1249
17101 1 13.5989 92.3557 38.4324
11425 2 17.2523 92.4432 37.1249
17103 1 16.3301 93.9489 38.4558
11842 2 19.9784 94.0199 37.1559
17062 1 19.0552 92.3557 38.4324
14299 1 21.7864 93.9489 38.4558
22739 2 12.4149 77.2673 39.4884
16729 1 11.5366 75.6571 40.7859
22329 2 13.4048 75.6484 42.0213
17115 1 14.2779 77.3259 40.7692
22721 2 16.1441 77.3071 42.0055
16681 1 16.9928 75.6571 40.7859
22343 2 15.1313 75.6259 39.5078
22728 2 17.8711 77.2673 39.4884
17078 1 19.7341 77.3259 40.7692
22293 2 18.861 75.6484 42.0213
22295 2 20.5875 75.6259 39.5078
19918 2 21.6003 77.3071 42.0055
22740 2 12.4824 80.6012 39.4173
22722 2 13.4365 78.9787 41.9802
17109 1 11.5904 79.0161 40.7245
17107 1 14.3919 80.7074 40.634
22726 2 15.1663 78.9058 39.4589
22723 2 16.1955 80.659 41.9479
17079 1 17.0466 79.0161 40.7245
22724 2 17.9387 80.6012 39.4173
17080 1 19.8481 80.7074 40.634
22677 2 18.8927 78.9787 41.9802
22680 2 20.6225 78.9058 39.4589
19914 2 21.6517 80.659 41.9479
22736 2 12.6528 84.27 39.4385
17108 1 11.7396 82.4288 40.5627
22714 2 13.507 82.3331 41.9443
17110 1 14.4628 84.0153 40.7015
22725 2 15.267 82.3938 39.3835
17073 1 17.1958 82.4288 40.5627
22712 2 16.2714 83.9967 41.976
22727 2 18.1091 84.27 39.4385
19915 2 21.7276 83.9967 41.976
17071 1 19.9191 84.0153 40.7015
22676 2 18.9633 82.3331 41.9443
22679 2 20.7232 82.3938 39.3835
22737 2 12.6905 87.5228 39.5712
17098 1 11.7137 85.6791 40.8582
22713 2 13.5699 85.6744 42.048
17096 1 14.4598 87.3311 40.8976
22718 2 15.4139 85.9019 39.5136
17072 1 17.17 85.6791 40.8582
22715 2 16.3146 87.3362 42.1064
22716 2 18.1468 87.5228 39.5712
19910 2 21.7708 87.3362 42.1064
17074 1 19.916 87.3311 40.8976
22669 2 19.0261 85.6744 42.048
22678 2 20.8701 85.9019 39.5136
22732 2 12.6957 90.724 39.6541
17097 1 11.7523 88.9777 40.9272
22700 2 13.5955 88.9655 42.1564
17099 1 14.4928 90.603 40.9581
22717 2 15.4232 89.1258 39.614
17059 1 17.2086 88.9777 40.9272
22698 2 16.3285 90.5843 42.1989
22719 2 18.152 90.724 39.6541
19911 2 21.7848 90.5843 42.1989
17057 1 19.9491 90.603 40.9581
22668 2 19.0517 88.9655 42.1564
22671 2 20.8795 89.1258 39.614
22733 2 12.697 93.9102 39.7194
17090 1 11.7722 92.2219 40.9863
22699 2 13.6035 92.1957 42.2363
17088 1 14.5058 93.8323 41.0121
17058 1 17.2284 92.2219 40.9863
22701 2 16.3337 93.8026 42.2698
22704 2 15.4247 92.3174 39.6883
22702 2 18.1532 93.9102 39.7194
19909 2 21.7899 93.8026 42.2698
17060 1 19.962 93.8323 41.0121
22654 2 19.0598 92.1957 42.2363
22670 2 20.8809 92.3174 39.6883
17105 1 12.5528 77.3408 43.2522
22327 2 11.6564 75.6555 44.5325
22720 2 14.3902 77.3163 44.5245
16665 1 13.5087 75.6555 45.7813
16679 1 15.266 75.6628 43.2753
22274 2 17.1127 75.6555 44.5325
17077 1 18.0091 77.3408 43.2522
17064 1 16.2399 77.3127 45.776
14284 1 21.6962 77.3127 45.776
22673 2 19.8465 77.3163 44.5245
16631 1 20.7222 75.6628 43.2753
16629 1 18.965 75.6555 45.7813
17106 1 12.5905 80.6653 43.2
22710 2 11.6733 78.974 44.5141
22708 2 14.4196 80.6247 44.5093
17065 1 13.5185 78.962 45.7729
17069 1 15.3031 79.0107 43.2165
22674 2 17.1295 78.974 44.5141
17067 1 18.0468 80.6653 43.2
17066 1 16.2577 80.6003 45.7803
14272 1 21.714 80.6003 45.7803
17016 1 20.7594 79.0107 43.2165
22675 2 19.8758 80.6247 44.5093
17013 1 18.9747 78.962 45.7729
17094 1 12.6391 83.9205 43.2597
22709 2 11.7137 82.2711 44.5194
22711 2 14.4638 83.9143 44.5457
17051 1 13.5447 82.2335 45.7961
17068 1 15.3417 82.2883 43.2239
22666 2 17.1699 82.2711 44.5194
17070 1 18.0953 83.9205 43.2597
17049 1 16.2888 83.8634 45.8243
14273 1 21.745 83.8634 45.8243
17015 1 20.7979 82.2883 43.2239
22664 2 19.9201 83.9143 44.5457
17012 1 19.0009 82.2335 45.7961
17095 1 12.6703 87.2052 43.3881
22696 2 11.7524 85.5569 44.5885
22694 2 14.4959 87.2002 44.6398
17050 1 13.5768 85.4927 45.8622
17055 1 15.3916 85.5588 43.3113
22665 2 17.2087 85.5569 44.5885
17053 1 18.1265 87.2052 43.3881
17052 1 16.3171 87.1245 45.9099
14264 1 21.7733 87.1245 45.9099
17014 1 20.8478 85.5588 43.3113
22667 2 19.9521 87.2002 44.6398
17005 1 19.033 85.4927 45.8622
17086 1 12.6792 90.4817 43.486
22695 2 11.7773 88.8385 44.6899
22697 2 14.5115 90.4678 44.7348
17054 1 15.4007 88.8472 43.4457
22651 2 17.2335 88.8385 44.6899
17056 1 18.1354 90.4817 43.486
17007 1 20.8569 88.8472 43.4457
22649 2 19.9678 90.4678 44.7348
17087 1 12.6903 93.7288 43.5534
22688 2 11.7875 92.0891 44.775
22686 2 14.5186 93.7052 44.8114
17040 1 15.4135 92.1086 43.5214
22650 2 17.2438 92.0891 44.775
17038 1 18.1466 93.7288 43.5534
17006 1 20.8698 92.1086 43.5214
22652 2 19.9748 93.7052 44.8114
22706 2 12.6164 77.3018 47.0604
16663 1 11.7276 75.6485 48.3195
17063 1 14.4571 77.2896 48.3223
16612 1 17.1838 75.6485 48.3195
22272 2 15.3412 75.6523 47.0612
22672 2 18.0726 77.3018 47.0604
17009 1 19.9133 77.2896 48.3223
22233 2 20.7974 75.6523 47.0612
17047 1 11.7328 78.9271 48.3296
22707 2 12.6341 80.5866 47.0694
17045 1 14.4673 80.5605 48.3419
17010 1 17.189 78.9271 48.3296
22662 2 15.3515 78.9467 47.0623
22660 2 18.0904 80.5866 47.0694
17011 1 19.9236 80.5605 48.3419
22614 2 20.8077 78.9467 47.0623
17046 1 11.7482 82.1901 48.3605
22692 2 12.66 83.8543 47.1097
17048 1 14.4867 83.8171 48.3859
17002 1 17.2044 82.1901 48.3605
22661 2 15.3748 82.2219 47.0848
22663 2 18.1162 83.8543 47.1097
17000 1 19.943 83.8171 48.3859
22613 2 20.831 82.2219 47.0848
17032 1 11.7696 85.4431 48.4178
22693 2 12.6831 87.1174 47.184
17030 1 14.5075 87.069 48.4555
17001 1 17.2259 85.4431 48.4178
22647 2 15.4005 85.4858 47.1439
22645 2 18.1394 87.1174 47.184
17003 1 19.9638 87.069 48.4555
22612 2 20.8567 85.4858 47.1439
17031 1 11.7874 88.6954 48.4972
22684 2 12.6985 90.377 47.2708
17033 1 14.5211 90.322 48.5404
17036 1 13.5968 88.7584 45.9616
16987 1 17.2436 88.6954 48.4972
17034 1 16.3295 90.3904 46.0093
22646 2 15.4201 88.7484 47.2276
22648 2 18.1548 90.377 47.2708
14265 1 21.7857 90.3904 46.0093
16985 1 19.9774 90.322 48.5404
22605 2 20.8764 88.7484 47.2276
17004 1 19.053 88.7584 45.9616
17024 1 11.7969 91.9474 48.5821
17035 1 13.6049 92.0183 46.0507
22685 2 12.7063 93.6218 47.3493
17022 1 14.5278 93.5704 48.6209
16986 1 17.2531 91.9474 48.5821
17037 1 16.3364 93.6418 46.0874
22633 2 15.4312 92.0015 47.3115
22631 2 18.1625 93.6218 47.3493
14263 1 21.7926 93.6418 46.0874
16988 1 19.9841 93.5704 48.6209
16990 1 19.0612 92.0183 46.0507
22604 2 20.8874 92.0015 47.3115
17043 1 12.6655 77.2752 50.8781
22260 2 13.5565 75.648 49.6066
22258 2 11.7639 75.6453 52.1622
22656 2 14.4934 77.2735 52.1659
22657 2 16.2869 77.2855 49.6094
16610 1 15.3924 75.6449 50.8737
17008 1 18.1217 77.2752 50.8781
22222 2 17.2201 75.6453 52.1622
19885 2 21.7431 77.2855 49.6094
16580 1 20.8487 75.6449 50.8737
22231 2 19.0128 75.648 49.6066
22607 2 19.9497 77.2735 52.1659
17044 1 12.6723 80.5313 50.9017
22658 2 13.5632 78.9206 49.6164
22639 2 11.7682 78.9005 52.1744
22637 2 14.5005 80.526 52.1877
16998 1 15.3963 78.9042 50.8874
22659 2 16.2977 80.5526 49.6283
16996 1 18.1286 80.5313 50.9017
22608 2 17.2244 78.9005 52.1744
19870 2 21.754 80.5526 49.6283
16956 1 20.8525 78.9042 50.8874
22611 2 19.0195 78.9206 49.6164
22609 2 19.9567 80.526 52.1877
17028 1 12.685 83.7801 50.9451
22643 2 13.5774 82.1815 49.6461
22638 2 11.7776 82.1498 52.2059
22640 2 14.5115 83.7724 52.2288
16997 1 15.4062 82.1565 50.921
22641 2 16.3142 83.8083 49.6701
16999 1 18.1412 83.7801 50.9451
22600 2 17.2338 82.1498 52.2059
19871 2 21.7704 83.8083 49.6701
16955 1 20.8624 82.1565 50.921
22610 2 19.0337 82.1815 49.6461
22598 2 19.9678 83.7724 52.2288
17029 1 12.6999 87.025 51.0067
22642 2 13.5946 85.4341 49.7
22623 2 14.5238 87.0155 52.2868
22625 2 11.7896 85.3942 52.256
16983 1 15.4206 85.4028 50.9738
22644 2 16.3309 87.0595 49.7345
16981 1 18.1561 87.025 51.0067
22599 2 17.2458 85.3942 52.256
19862 2 21.7871 87.0595 49.7345
16954 1 20.8769 85.4028 50.9738
22603 2 19.0509 85.4341 49.7
22601 2 19.98 87.0155 52.2868
22626 2 14.5343 90.2576 52.356
22624 2 11.8013 88.6367 52.3205
17020 1 12.7118 90.2696 51.0809
22629 2 13.6098 88.6847 49.7721
22589 2 17.2575 88.6367 52.3205
16982 1 15.4345 88.6473 51.0428
22627 2 16.3438 90.3092 49.8112
16984 1 18.168 90.2696 51.0809
19863 2 21.8 90.3092 49.8112
22587 2 19.9906 90.2576 52.356
16948 1 20.8908 88.6473 51.0428
22602 2 19.0661 88.6847 49.7721
22617 2 14.5419 93.4971 52.4284
22619 2 11.8104 91.8778 52.3923
17021 1 12.719 93.5125 51.1576
22628 2 13.6203 91.9322 49.8501
22588 2 17.2666 91.8778 52.3923
16971 1 15.4441 91.8915 51.1196
22630 2 16.3518 93.553 49.8876
16969 1 18.1752 93.5125 51.1576
22590 2 19.9981 93.4971 52.4284
19861 2 21.8081 93.553 49.8876
16947 1 20.9003 91.8915 51.1196
22592 2 19.0765 91.9322 49.8501
22635 2 12.695 77.2653 54.7264
16600 1 13.5954 75.6434 53.4345
16993 1 16.3244 77.2662 53.4387
22220 2 15.4221 75.6441 54.7227
22606 2 18.1512 77.2653 54.7264
14222 1 21.7807 77.2662 53.4387
16578 1 19.0516 75.6434 53.4345
22213 2 20.8784 75.6441 54.7227
16994 1 13.5983 78.8885 53.448
22636 2 12.6999 80.5062 54.7479
16995 1 16.3295 80.5101 53.4621
22596 2 15.4251 78.8861 54.7349
22594 2 18.1561 80.5062 54.7479
14206 1 21.7857 80.5101 53.4621
16953 1 19.0545 78.8885 53.448
22578 2 20.8813 78.8861 54.7349
16979 1 13.6054 82.1308 53.4806
22621 2 12.7078 83.7443 54.7868
16977 1 16.3384 83.7508 53.5034
22595 2 15.4317 82.1255 54.7653
22597 2 18.164 83.7443 54.7868
14207 1 21.7946 83.7508 53.5034
16952 1 19.0617 82.1308 53.4806
22577 2 20.8879 82.1255 54.7653
16978 1 13.6156 85.3703 53.5299
22622 2 12.717 86.9807 54.8402
22583 2 18.1733 86.9807 54.8402
16980 1 16.3492 86.9895 53.5597
22585 2 15.4405 85.3626 54.812
14198 1 21.8055 86.9895 53.5597
22576 2 20.8967 85.3626 54.812
16946 1 19.0719 85.3703 53.5299
22615 2 12.7257 90.2165 54.9037
16967 1 13.6263 88.6086 53.5923
22586 2 18.1819 90.2165 54.9037
22584 2 15.4496 88.5987 54.871
16965 1 16.3591 90.2277 53.6268
14199 1 21.8153 90.2277 53.6268
22575 2 20.9059 88.5987 54.871
16945 1 19.0826 88.6086 53.5923
22616 2 12.7325 93.4513 54.9721
16966 1 13.6348 91.8466 53.6625
22581 2 15.4574 91.8342 54.9376
16968 1 16.3661 93.4652 53.6985
22579 2 18.1887 93.4513 54.9721
22574 2 20.9137 91.8342 54.9376
16939 1 19.0911 91.8466 53.6625
14197 1 21.8223 93.4652 53.6985
17291 1 12.7201 77.2568 58.5649
16598 1 11.7946 75.6432 55.9977
22539 2 13.6206 75.6441 57.2852
16992 1 14.5235 77.2605 56.0015
22924 2 16.3494 77.2601 57.2886
16895 1 15.4476 75.6438 58.5616
16573 1 17.2508 75.6432 55.9977
17280 1 18.1763 77.2568 58.5649
16949 1 19.9797 77.2605 56.0015
16847 1 20.9038 75.6438 58.5616
22509 2 19.0768 75.6441 57.2852
20112 2 21.8057 77.2601 57.2886
16975 1 11.7969 78.8776 56.0101
17292 1 12.7232 80.483 58.5846
22925 2 13.6228 78.8759 57.2965
16973 1 14.5274 80.4946 56.0232
16950 1 17.2531 78.8776 56.0101
17278 1 15.4494 78.8699 58.5726
22926 2 16.3531 80.4915 57.3087
17276 1 18.1794 80.483 58.5846
17232 1 20.9057 78.8699 58.5726
16951 1 19.9836 80.4946 56.0232
22890 2 19.079 78.8759 57.2965
20110 2 21.8093 80.4915 57.3087
16974 1 11.8023 82.1113 56.0405
17288 1 12.7285 83.7095 58.62
22921 2 13.6277 82.1069 57.3249
16976 1 14.5341 83.7278 56.0616
17277 1 15.4538 82.0962 58.6005
16943 1 17.2586 82.1113 56.0405
22919 2 16.3591 83.7222 57.3449
17279 1 18.1848 83.7095 58.62
17231 1 20.91 82.0962 58.6005
16941 1 19.9903 83.7278 56.0616
22889 2 19.0839 82.1069 57.3249
20111 2 21.8153 83.7222 57.3449
16963 1 11.81 85.3442 56.0861
17289 1 12.7351 86.9364 58.6683
22920 2 13.6345 85.3373 57.3682
16961 1 14.5424 86.9605 56.1136
17270 1 15.4599 85.3228 58.6428
16942 1 17.2663 85.3442 56.0861
22922 2 16.3663 86.9524 57.3944
17268 1 18.1914 86.9364 58.6683
17230 1 20.9161 85.3228 58.6428
16944 1 19.9986 86.9605 56.1136
22884 2 19.0907 85.3373 57.3682
20108 2 21.8225 86.9524 57.3944
16962 1 11.8184 88.5768 56.1436
17284 1 12.7419 90.1639 58.7262
22929 2 10.9172 90.1827 57.4535
22910 2 13.6418 88.5676 57.423
16964 1 14.5504 90.1932 56.1756
17269 1 15.4667 88.55 58.6963
16936 1 17.2747 88.5768 56.1436
22908 2 16.3734 90.1827 57.4535
17223 1 20.9229 88.55 58.6963
17271 1 18.1981 90.1639 58.7262
16934 1 20.0067 90.1932 56.1756
22883 2 19.0981 88.5676 57.423
16959 1 11.8258 91.8095 56.2089
17285 1 12.7476 93.3918 58.7902
22927 2 10.9233 93.4128 57.5182
22909 2 13.6485 91.7979 57.4854
16957 1 14.5569 93.4257 56.243
17256 1 15.473 91.7778 58.7577
16935 1 17.282 91.8095 56.2089
22911 2 16.3795 93.4128 57.5182
17222 1 20.9293 91.7778 58.7577
17254 1 18.2039 93.3918 58.7902
16937 1 20.0131 93.4257 56.243
22870 2 19.1048 91.7979 57.4854
16881 1 13.6426 75.6451 61.1253
22537 2 11.8167 75.645 59.8481
22923 2 14.5454 77.2567 59.8511
22913 2 12.7396 77.2546 62.4133
17290 1 10.9149 77.2546 61.1281
17273 1 16.3711 77.2546 61.1281
22489 2 17.273 75.645 59.8481
22487 2 15.4673 75.6464 62.4107
22886 2 20.0016 77.2567 59.8511
16845 1 19.0988 75.6451 61.1253
22885 2 18.1959 77.2546 62.4133
22439 2 20.9236 75.6464 62.4107
17274 1 13.644 78.8643 61.135
17286 1 10.9175 80.4741 61.1459
22917 2 11.8184 78.8685 59.8583
22915 2 14.5482 80.4804 59.8695
22914 2 12.7419 80.4715 62.43
17275 1 16.3737 80.4741 61.1459
22887 2 17.2746 78.8685 59.8583
22877 2 15.4686 78.863 62.4197
17229 1 19.1003 78.8643 61.135
22888 2 20.0044 80.4804 59.8695
22824 2 20.9249 78.863 62.4197
22875 2 18.1981 80.4715 62.43
17266 1 13.6476 82.0841 61.1606
17287 1 10.9218 83.6943 61.1786
22916 2 11.8223 82.0923 59.8845
22902 2 12.7458 83.6891 62.4611
22918 2 14.553 83.7043 59.903
17264 1 16.3781 83.6943 61.1786
22881 2 17.2785 82.0923 59.8845
22876 2 15.4718 82.0801 62.4439
17228 1 19.1038 82.0841 61.1606
22879 2 20.0092 83.7043 59.903
22823 2 20.9281 82.0801 62.4439
22878 2 18.2021 83.6891 62.4611
17265 1 13.6526 85.3048 61.1998
17282 1 10.9273 86.9156 61.2238
22906 2 11.8277 85.3164 59.9247
22903 2 12.7508 86.9078 62.5043
17267 1 16.3836 86.9156 61.2238
22880 2 17.2839 85.3164 59.9247
22904 2 14.5589 86.9287 59.9491
22863 2 15.4764 85.2983 62.4814
17221 1 19.1089 85.3048 61.1998
22882 2 20.0151 86.9287 59.9491
22822 2 20.9326 85.2983 62.4814
22861 2 18.2071 86.9078 62.5043
17252 1 13.6584 88.5268 61.2501
17283 1 10.9331 90.1381 61.2784
22905 2 11.8338 88.5411 59.9759
22894 2 12.7561 90.1277 62.557
17250 1 16.3893 90.1381 61.2784
22867 2 17.29 88.5411 59.9759
22907 2 14.5649 90.1537 60.0047
22862 2 15.4816 88.5176 62.5297
17220 1 19.1146 88.5268 61.2501
22865 2 20.0211 90.1537 60.0047
22815 2 20.9378 88.5176 62.5297
22864 2 18.2123 90.1277 62.557
17251 1 13.6639 91.7498 61.3083
17281 1 10.9383 93.3616 61.3395
22898 2 11.8396 91.7665 60.035
17253 1 16.3945 93.3616 61.3395
22866 2 17.2959 91.7665 60.035
22896 2 14.5703 93.3793 60.0664
22848 2 15.4867 91.7382 62.586
17206 1 19.1201 91.7498 61.3083
22868 2 20.0266 93.3793 60.0664
22814 2 20.943 91.7382 62.586
22912 2 10.9325 77.2533 64.9746
16879 1 11.8361 75.6469 63.6887
22473 2 13.6603 75.6483 64.9724
17272 1 14.5646 77.2533 63.6911
22872 2 16.3888 77.2533 64.9746
16826 1 17.2924 75.6469 63.6887
17225 1 20.0208 77.2533 63.6911
22437 2 19.1166 75.6483 64.9724
17262 1 11.8373 78.8599 63.6973
22873 2 13.6614 78.8584 64.9804
22900 2 10.9344 80.4637 64.9899
17226 1 17.2935 78.8599 63.6973
17260 1 14.5667 80.4666 63.7073
22874 2 16.3906 80.4637 64.9899
17227 1 20.0229 80.4666 63.7073
22821 2 19.1176 78.8584 64.9804
17261 1 11.8403 82.0737 63.7209
22859 2 13.664 82.0693 65.0028
22901 2 10.9378 83.6752 65.0189
17218 1 17.2965 82.0737 63.7209
17263 1 14.5704 83.6811 63.7377
22857 2 16.394 83.6752 65.0189
17216 1 20.0266 83.6811 63.7377
22820 2 19.1203 82.0693 65.0028
17248 1 11.8446 85.2888 63.7576
22858 2 13.668 85.2815 65.038
22892 2 10.9421 86.8883 65.0597
17217 1 17.3008 85.2888 63.7576
17246 1 14.5751 86.897 63.7802
22860 2 16.3983 86.8883 65.0597
17219 1 20.0314 86.897 63.7802
22813 2 19.1242 85.2815 65.038
17247 1 11.8495 88.5056 63.8052
22844 2 13.6726 88.4955 65.0838
22893 2 10.9468 90.1032 65.11
17203 1 17.3058 88.5056 63.8052
17249 1 14.5802 90.1145 63.8322
22842 2 16.4031 90.1032 65.11
17201 1 20.0364 90.1145 63.8322
22812 2 19.1288 88.4955 65.0838
17240 1 11.8545 91.7239 63.8608
22843 2 13.6773 91.7113 65.1379
22891 2 10.9514 93.3199 65.1671
22895 2 12.761 93.3489 62.6162
17202 1 17.3107 91.7239 63.8608
17238 1 14.5849 93.3336 63.8908
22845 2 16.4076 93.3199 65.1671
17204 1 20.0411 93.3336 63.8908
22798 2 19.1335 91.7113 65.1379
22846 2 18.2172 93.3489 62.6162
17258 1 12.7568 77.2527 66.2548
22471 2 11.852 75.6506 67.5323
17257 1 10.9477 77.2528 68.8229
16812 1 13.6757 75.6524 68.8211
22871 2 14.5803 77.2523 67.5341
16824 1 15.4847 75.6493 66.2528
22420 2 17.3082 75.6506 67.5323
17209 1 16.404 77.2528 68.8229
17224 1 18.213 77.2527 66.2548
22817 2 20.0366 77.2523 67.5341
16785 1 20.9409 75.6493 66.2528
16783 1 19.1319 75.6524 68.8211
17259 1 12.7586 80.4601 66.2698
22855 2 11.8528 78.8542 67.5394
17210 1 13.6764 78.8534 68.8282
17242 1 10.9492 80.4542 68.8369
17214 1 15.4856 78.8563 66.2605
22818 2 17.309 78.8542 67.5394
22853 2 14.5819 80.4563 67.5482
17211 1 16.4055 80.4542 68.8369
17166 1 20.9418 78.8563 66.2605
17212 1 18.2148 80.4601 66.2698
22819 2 20.0381 80.4563 67.5482
17163 1 19.1327 78.8534 68.8282
17244 1 12.7617 83.6688 66.2983
22854 2 11.8551 82.0587 67.5603
17195 1 13.6786 82.0554 68.8489
17243 1 10.952 83.657 68.864
17213 1 15.4881 82.0643 66.2824
22810 2 17.3113 82.0587 67.5603
22856 2 14.5849 83.6616 67.5755
17193 1 16.4082 83.657 68.864
17165 1 20.9443 82.0643 66.2824
17215 1 18.218 83.6688 66.2983
22808 2 20.0411 83.6616 67.5755
17162 1 19.1348 82.0554 68.8489
17245 1 12.7658 86.8793 66.3386
22840 2 11.8586 85.2649 67.5936
17194 1 13.6819 85.2592 68.8819
17234 1 10.9557 86.8619 68.9026
17199 1 15.4918 85.2738 66.3171
22809 2 17.3148 85.2649 67.5936
22838 2 14.5888 86.8688 67.6143
17196 1 16.4119 86.8619 68.9026
17164 1 20.9481 85.2738 66.3171
17197 1 18.2221 86.8793 66.3386
22811 2 20.045 86.8688 67.6143
17155 1 19.1381 85.2592 68.8819
17236 1 12.7704 90.0919 66.3884
22839 2 11.8628 88.4733 67.6374
17181 1 13.6858 88.4653 68.9255
17235 1 10.9598 90.0694 68.9505
17198 1 15.4962 88.4853 66.3625
22795 2 17.3191 88.4733 67.6374
22841 2 14.5932 90.0785 67.6626
17179 1 16.416 90.0694 68.9505
17157 1 20.9525 88.4853 66.3625
17200 1 18.2266 90.0919 66.3884
22793 2 20.0494 90.0785 67.6626
17154 1 19.142 88.4653 68.9255
17237 1 12.7748 93.3066 66.4451
22832 2 11.8673 91.6843 67.6895
17180 1 13.69 91.6742 68.9773
17233 1 10.9639 93.2797 69.0056
17185 1 15.5007 91.699 66.416
22794 2 17.3235 91.6843 67.6895
22830 2 14.5975 93.2907 67.7179
17182 1 16.4201 93.2797 69.0056
17156 1 20.957 91.699 66.416
17183 1 18.231 93.3066 66.4451
22796 2 20.0538 93.2907 67.7179
17144 1 19.1462 91.6742 68.9773
22851 2 12.7714 77.2508 70.0884
16810 1 11.8629 75.6548 71.4054
17208 1 14.5912 77.2519 71.4071
16774 1 17.3192 75.6548 71.4054
22418 2 15.4994 75.6526 70.0867
17159 1 20.0475 77.2519 71.4071
22816 2 18.2277 77.2508 70.0884
22388 2 20.9556 75.6526 70.0867
17191 1 11.8636 78.8492 71.4122
22852 2 12.7729 80.4477 70.1021
17160 1 17.3198 78.8492 71.4122
17189 1 14.5925 80.4468 71.4207
22806 2 15.5001 78.8491 70.0936
17161 1 20.0488 80.4468 71.4207
22764 2 20.9564 78.8491 70.0936
22804 2 18.2291 80.4477 70.1021
17190 1 11.8655 82.0449 71.4323
22836 2 12.7757 83.6464 70.1285
17152 1 17.3217 82.0449 71.4323
17192 1 14.5949 83.6435 71.4469
22805 2 15.5023 82.0468 70.1138
17150 1 20.0512 83.6435 71.4469
22763 2 20.9585 82.0468 70.1138
22807 2 18.2319 83.6464 70.1285
17177 1 11.8684 85.2427 71.4643
22837 2 12.7793 86.8475 70.1662
17151 1 17.3246 85.2427 71.4643
17175 1 14.5982 86.8427 71.4843
22791 2 15.5055 85.2466 70.1461
17153 1 20.0544 86.8427 71.4843
22762 2 20.9618 85.2466 70.1461
22789 2 18.2356 86.8475 70.1662
17176 1 11.8718 88.4435 71.5066
22828 2 12.7834 90.0518 70.2132
17141 1 17.3281 88.4435 71.5066
17178 1 14.6018 90.0452 71.531
22790 2 15.5095 88.4492 70.1887
17139 1 20.058 90.0452 71.531
22756 2 20.9657 88.4492 70.1887
22792 2 18.2397 90.0518 70.2132
17171 1 11.8755 91.6477 71.5571
22829 2 12.7876 93.2595 70.2673
17140 1 17.3317 91.6477 71.5571
17169 1 14.6054 93.2512 71.5846
22779 2 15.5136 91.6552 70.2395
17142 1 20.0616 93.2512 71.5846
22755 2 20.9699 91.6552 70.2395
22777 2 18.2438 93.2595 70.2673
17187 1 12.7474 77.2529 74.0657
22850 2 10.9602 77.2483 72.6295
22406 2 11.8608 75.6567 75.1182
22408 2 13.6881 75.654 72.6278
22800 2 14.5891 77.2475 75.1198
22801 2 16.4164 77.2483 72.6295
16772 1 15.4756 75.6587 74.0641
22381 2 17.3171 75.6567 75.1182
17158 1 18.2037 77.2529 74.0657
22757 2 20.0453 77.2475 75.1198
16765 1 20.9318 75.6587 74.0641
22386 2 19.1444 75.654 72.6278
17188 1 12.7474 80.4421 74.0791
22783 2 11.8613 78.8386 75.1246
22802 2 13.6889 78.8427 72.6345
22834 2 10.9616 80.4375 72.6428
17148 1 15.4756 78.8473 74.0708
22758 2 17.3176 78.8386 75.1246
22781 2 14.59 80.4302 75.1325
22803 2 16.4179 80.4375 72.6428
17130 1 20.9318 78.8473 74.0708
17146 1 18.2037 80.4421 74.0791
22759 2 20.0463 80.4302 75.1325
22761 2 19.1451 78.8427 72.6345
17173 1 12.7474 83.6335 74.1051
22782 2 11.8627 82.0225 75.1435
22787 2 13.691 82.0329 72.6542
22835 2 10.9643 83.6289 72.6685
17147 1 15.4755 82.0375 74.0906
22751 2 17.319 82.0225 75.1435
22784 2 14.5918 83.6156 75.1573
22785 2 16.4206 83.6289 72.6685
17129 1 20.9318 82.0375 74.0906
17149 1 18.2037 83.6335 74.1051
22749 2 20.0481 83.6156 75.1573
22760 2 19.1472 82.0329 72.6542
17174 1 12.7474 86.8281 74.1422
22771 2 11.8648 85.2098 75.1738
22786 2 13.6941 85.2258 72.6857
22826 2 10.9679 86.8236 72.7053
17137 1 15.4755 85.2303 74.1224
22750 2 17.3211 85.2098 75.1738
22769 2 14.5942 86.8051 75.1928
22788 2 16.4241 86.8236 72.7053
17128 1 20.9318 85.2303 74.1224
17135 1 18.2036 86.8281 74.1422
22752 2 20.0504 86.8051 75.1928
22754 2 19.1504 85.2258 72.6857
17167 1 12.7473 90.0267 74.1885
22770 2 11.8673 88.4017 75.2141
22775 2 13.698 88.4224 72.7273
22827 2 10.9719 90.0223 72.7513
17136 1 15.4755 88.4269 74.1644
22744 2 17.3236 88.4017 75.2141
22772 2 14.5967 89.9996 75.2373
22773 2 16.4281 90.0223 72.7513
17127 1 20.9317 88.4269 74.1644
17138 1 18.2036 90.0267 74.1885
22742 2 20.053 89.9996 75.2373
22753 2 19.1542 88.4224 72.7273
17168 1 12.7471 93.2297 74.2418
22767 2 11.8699 91.5989 75.2623
22774 2 13.702 91.6234 72.777
22825 2 10.9759 93.2256 72.8043
22776 2 16.4321 93.2256 72.8043
17133 1 15.4754 91.6277 74.2144
22743 2 17.3261 91.5989 75.2623
22765 2 14.5992 93.1996 75.2887
22747 2 19.1583 91.6234 72.777
22745 2 20.0555 93.1996 75.2887
17131 1 18.2034 93.2297 74.2418
17126 1 20.9316 91.6277 74.2144
5183 1 12.7675 94.605 -2.88205
11625 2 11.8375 96.1913 -1.41827
11633 2 13.6619 96.2134 -3.91609
11640 2 10.9356 94.63 -3.93697
5170 1 15.4923 96.1878 -2.86065
11595 2 17.2937 96.1913 -1.41827
11631 2 14.5666 94.6094 -1.43974
11632 2 16.3918 94.63 -3.93697
5124 1 20.9485 96.1878 -2.86065
5172 1 18.2237 94.605 -2.88205
11594 2 20.0229 94.6094 -1.43974
11598 2 19.1181 96.2134 -3.91609
5184 1 12.7608 97.7697 -2.83834
11624 2 11.8353 99.3521 -1.37279
11629 2 13.6581 99.3771 -3.87182
11638 2 10.9318 97.7958 -3.89433
5169 1 15.4854 99.3506 -2.81528
11589 2 17.2915 99.3521 -1.37279
11623 2 14.5645 97.7722 -1.39591
11634 2 16.3881 97.7958 -3.89433
5123 1 20.9417 99.3506 -2.81528
5168 1 18.217 97.7697 -2.83834
11596 2 20.0207 97.7722 -1.39591
11597 2 19.1143 99.3771 -3.87182
5180 1 12.7538 100.931 -2.79162
11614 2 11.8331 102.509 -1.32491
11628 2 13.6542 102.536 -3.82517
11639 2 10.928 100.957 -3.84872
5162 1 15.4784 102.51 -2.76751
11588 2 17.2894 102.509 -1.32491
11626 2 14.5623 100.931 -1.34907
11627 2 16.3843 100.957 -3.84872
5122 1 20.9346 102.51 -2.76751
5171 1 18.21 100.931 -2.79162
11587 2 20.0186 100.931 -1.34907
11592 2 19.1105 102.536 -3.82517
5181 1 12.7467 104.088 -2.7431
11613 2 11.831 105.662 -1.27587
11618 2 13.6504 105.691 -3.77732
11636 2 10.9242 104.114 -3.80133
5161 1 15.4713 105.665 -2.71856
11575 2 17.2872 105.662 -1.27587
11612 2 14.5602 104.086 -1.30046
11630 2 16.3804 104.114 -3.80133
5115 1 20.9276 105.665 -2.71856
5160 1 18.2029 104.088 -2.7431
11590 2 20.0164 104.086 -1.30046
11591 2 19.1066 105.691 -3.77732
5176 1 12.7397 107.241 -2.694
11606 2 11.8288 108.812 -1.22678
11617 2 13.6466 108.842 -3.72935
11637 2 10.9204 107.267 -3.75329
5148 1 15.4645 108.817 -2.66957
11574 2 17.285 108.812 -1.22678
11615 2 14.558 107.238 -1.25126
11616 2 16.3766 107.267 -3.75329
5114 1 20.9207 108.817 -2.66957
5163 1 18.196 107.241 -2.694
11573 2 20.0142 107.238 -1.25126
11578 2 19.1029 108.842 -3.72935
5177 1 12.7331 110.391 -2.64538
11605 2 11.8266 111.959 -1.17867
11607 2 13.643 111.989 -3.68226
11635 2 10.9167 110.416 -3.70564
5147 1 15.458 111.965 -2.62156
11557 2 17.2828 111.959 -1.17867
11604 2 14.5558 110.386 -1.20255
11619 2 16.3729 110.416 -3.70564
5099 1 20.9142 111.965 -2.62156
5146 1 18.1893 110.391 -2.64538
11576 2 20.0121 110.386 -1.20255
11577 2 19.0992 111.989 -3.68226
5154 1 11.8406 96.148 2.39322
5166 1 13.6591 96.1717 -0.198414
5182 1 10.9323 94.5905 -0.220031
11621 2 12.7498 94.5832 1.10876
5118 1 17.2968 96.148 2.39322
5164 1 14.5701 94.5683 2.37108
5165 1 16.3886 94.5905 -0.220031
11585 2 15.4767 96.1636 1.13064
5117 1 20.0263 94.5683 2.37108
5121 1 19.1153 96.1717 -0.198414
11532 2 20.9329 96.1636 1.13064
11593 2 18.206 94.5832 1.10876
5153 1 11.8378 99.3053 2.4401
5158 1 13.6562 99.3316 -0.15258
5178 1 10.9295 97.752 -0.175878
11622 2 12.7473 97.7432 1.15342
5110 1 17.2941 99.3053 2.4401
5152 1 14.5673 97.727 2.41628
5167 1 16.3858 97.752 -0.175878
11584 2 15.4742 99.3221 1.17697
5119 1 20.0236 97.727 2.41628
5120 1 19.1125 99.3316 -0.15258
11531 2 20.9305 99.3221 1.17697
11583 2 18.2036 97.7432 1.15342
5140 1 11.835 102.46 2.48937
5157 1 13.6533 102.488 -0.104329
5179 1 10.9267 100.91 -0.128678
11610 2 12.7448 100.9 1.2011
5109 1 17.2912 102.46 2.48937
5155 1 14.5645 100.883 2.46451
5156 1 16.3829 100.91 -0.128678
11571 2 15.4717 102.477 1.22567
5108 1 20.0208 100.883 2.46451
5113 1 19.1096 102.488 -0.104329
11530 2 20.9279 102.477 1.22567
11586 2 18.2011 100.9 1.2011
5139 1 11.832 105.612 2.53975
5144 1 13.6504 105.641 -0.0548944
5174 1 10.9237 104.065 -0.0796847
11611 2 12.7423 104.054 1.25052
5095 1 17.2883 105.612 2.53975
5138 1 14.5616 104.036 2.51449
5159 1 16.38 104.065 -0.0796847
11570 2 15.4691 105.63 1.27551
5111 1 20.0179 104.036 2.51449
5112 1 19.1066 105.641 -0.0548944
11523 2 20.9253 105.63 1.27551
11569 2 18.1985 104.054 1.25052
5143 1 13.6474 108.792 -0.00543356
5175 1 10.9208 107.217 -0.0300994
11602 2 12.7397 107.205 1.30048
5141 1 14.5587 107.187 2.56498
5142 1 16.377 107.217 -0.0300994
11556 2 15.4665 108.779 1.32531
5093 1 20.0149 107.187 2.56498
5098 1 19.1037 108.792 -0.00543356
11522 2 20.9227 108.779 1.32531
11572 2 18.1959 107.205 1.30048
5133 1 13.6445 111.939 0.0430219
5173 1 10.9178 110.366 0.0189785
11603 2 12.7371 110.353 1.34987
5145 1 16.3741 110.366 0.0189785
11555 2 15.4639 111.926 1.37405
5097 1 19.1007 111.939 0.0430219
11507 2 20.9201 111.926 1.37405
11554 2 18.1933 110.353 1.34987
5150 1 12.7527 94.5478 4.94722
11581 2 13.6596 96.1389 3.69327
11620 2 10.9329 94.5599 3.67095
5106 1 15.4794 96.1261 4.96991
11580 2 16.3891 94.5599 3.67095
5052 1 20.9356 96.1261 4.96991
5116 1 18.209 94.5478 4.94722
11529 2 19.1159 96.1389 3.69327
5151 1 12.7498 97.7038 4.99352
11567 2 13.6568 99.2949 3.74048
11608 2 10.9301 97.7172 3.7165
5105 1 15.4761 99.2812 5.01859
11582 2 16.3863 97.7172 3.7165
5051 1 20.9324 99.2812 5.01859
5104 1 18.206 97.7038 4.99352
11528 2 19.113 99.2949 3.74048
5136 1 12.7464 100.858 5.04354
11566 2 13.6538 102.448 3.79002
11609 2 10.9272 100.872 3.76504
5091 1 15.4729 102.434 5.06888
11565 2 16.3834 100.872 3.76504
5050 1 20.9291 102.434 5.06888
5107 1 18.2026 100.858 5.04354
11521 2 19.1101 102.448 3.79002
5137 1 12.7431 104.009 5.09446
11552 2 13.6508 105.599 3.84061
11600 2 10.9242 104.024 3.81526
5090 1 15.4696 105.584 5.12012
11568 2 16.3805 104.024 3.81526
5043 1 20.9259 105.584 5.12012
5089 1 18.1994 104.009 5.09446
11520 2 19.1071 105.599 3.84061
5132 1 11.8291 108.761 2.59006
5128 1 12.7399 107.159 5.14571
11551 2 13.6478 108.749 3.89106
11601 2 10.9212 107.174 3.86592
5094 1 17.2853 108.761 2.59006
5076 1 15.4663 108.733 5.1711
11550 2 16.3774 107.174 3.86592
5042 1 20.9226 108.733 5.1711
5092 1 18.1961 107.159 5.14571
11506 2 19.104 108.749 3.89106
5131 1 11.8261 111.909 2.63925
5129 1 12.7366 110.307 5.19616
11541 2 13.6448 111.896 3.94033
11599 2 10.9181 110.323 3.9159
5077 1 17.2824 111.909 2.63925
5130 1 14.5557 110.336 2.61485
5075 1 15.4631 111.881 5.22078
11553 2 16.3744 110.323 3.9159
5096 1 20.0119 110.336 2.61485
5028 1 20.9193 111.881 5.22078
5074 1 18.1928 110.307 5.19616
11505 2 19.101 111.896 3.94033
5102 1 13.6611 96.1059 7.54371
5149 1 10.9346 94.5291 7.52032
11559 2 12.7534 94.52 8.80915
11563 2 11.8418 96.1168 6.26184
5101 1 16.3909 94.5291 7.52032
11514 2 15.4798 96.0961 8.83273
11526 2 17.298 96.1168 6.26184
11579 2 14.5715 94.5393 6.23895
5049 1 19.1173 96.1059 7.54371
11472 2 20.936 96.0961 8.83273
11524 2 18.2097 94.52 8.80915
11525 2 20.0277 94.5393 6.23895
5087 1 13.6576 99.2581 7.59312
5134 1 10.9313 97.6822 7.56803
11560 2 12.7499 97.6717 8.85717
11562 2 11.8386 99.2702 6.31018
5103 1 16.3875 97.6822 7.56803
11513 2 15.4762 99.247 8.88225
11518 2 17.2948 99.2702 6.31018
11561 2 14.5683 97.6938 6.28565
5048 1 19.1139 99.2581 7.59312
11471 2 20.9324 99.247 8.88225
11512 2 18.2061 97.6717 8.85717
11527 2 20.0245 97.6938 6.28565
5086 1 13.6541 102.409 7.64457
5135 1 10.9278 100.834 7.61871
11544 2 12.7462 100.822 8.90784
11548 2 11.8352 102.422 6.3607
5085 1 16.384 100.834 7.61871
11499 2 15.4724 102.397 8.93372
11517 2 17.2915 102.422 6.3607
11564 2 14.565 100.846 6.33528
5041 1 19.1103 102.409 7.64457
11470 2 20.9287 102.397 8.93372
11515 2 18.2025 100.822 8.90784
11516 2 20.0213 100.846 6.33528
5072 1 13.6504 105.558 7.69658
5126 1 10.9241 103.984 7.67057
11545 2 12.7424 103.971 8.95973
11547 2 11.8318 105.572 6.41199
5088 1 16.3804 103.984 7.67057
11498 2 15.4686 105.545 8.98571
11503 2 17.288 105.572 6.41199
11546 2 14.5616 103.997 6.38632
5040 1 19.1067 105.558 7.69658
11464 2 20.9249 105.545 8.98571
11497 2 18.1987 103.971 8.95973
11519 2 20.0179 103.997 6.38632
5071 1 13.6468 108.706 7.74807
5127 1 10.9205 107.132 7.72246
11536 2 12.7386 107.119 9.01152
11540 2 11.8284 108.72 6.46292
5070 1 16.3767 107.132 7.72246
11487 2 15.4649 108.693 9.03703
11502 2 17.2846 108.72 6.46292
11549 2 14.5582 107.146 6.43757
5027 1 19.103 108.706 7.74807
11463 2 20.9211 108.693 9.03703
11500 2 18.1949 107.119 9.01152
11501 2 20.0144 107.146 6.43757
5061 1 13.6433 111.853 7.79803
5125 1 10.9169 110.28 7.77329
11537 2 12.7349 110.267 9.06214
11539 2 11.825 111.868 6.51247
5073 1 16.3731 110.28 7.77329
11486 2 15.4612 111.84 9.08674
11488 2 17.2813 111.868 6.51247
11538 2 14.5548 110.294 6.48792
5026 1 19.0995 111.853 7.79803
11456 2 20.9175 111.84 9.08674
11485 2 18.1912 110.267 9.06214
11504 2 20.011 110.294 6.48792
5083 1 11.8427 96.086 10.1166
11510 2 13.6613 96.0756 11.4049
11542 2 10.9311 97.6499 11.43
5046 1 17.2989 96.086 10.1166
5100 1 14.5726 94.5107 10.0925
11511 2 16.3873 97.6499 11.43
5045 1 20.0289 94.5107 10.0925
11469 2 19.1175 96.0756 11.4049
5082 1 11.8388 99.2357 10.1673
11495 2 13.6572 99.224 11.4558
11543 2 10.927 100.798 11.4819
5038 1 17.295 99.2357 10.1673
5081 1 14.5689 97.661 10.1416
11493 2 16.3832 100.798 11.4819
5047 1 20.0251 97.661 10.1416
11468 2 19.1134 99.224 11.4558
5068 1 11.8348 102.384 10.2197
11494 2 13.653 102.372 11.5082
11534 2 10.9228 103.945 11.5346
5037 1 17.2911 102.384 10.2197
5084 1 14.565 100.81 10.1933
11496 2 16.379 103.945 11.5346
5036 1 20.0212 100.81 10.1933
11462 2 19.1092 102.372 11.5082
5067 1 11.8308 105.532 10.2724
11483 2 13.6488 105.519 11.5608
11535 2 10.9186 107.092 11.5868
5024 1 17.2871 105.532 10.2724
5066 1 14.5609 103.958 10.2461
11481 2 16.3749 107.092 11.5868
5039 1 20.0172 103.958 10.2461
11461 2 19.105 105.519 11.5608
5060 1 11.8269 108.679 10.3242
11482 2 13.6447 108.666 11.6125
11533 2 10.9146 110.239 11.6376
5023 1 17.2831 108.679 10.3242
5069 1 14.5569 107.106 10.2985
11484 2 16.3709 110.239 11.6376
5058 1 14.5531 110.253 10.3495
5022 1 20.0132 107.106 10.2985
11455 2 19.101 108.666 11.6125
5025 1 20.0093 110.253 10.3495
5059 1 11.8231 111.827 10.3743
11476 2 13.6409 111.813 11.6622
5484 1 14.5494 113.4 10.3984
5013 1 17.2793 111.827 10.3743
11917 2 16.3672 113.387 11.6861
11454 2 19.0971 111.813 11.6622
5429 1 20.0056 113.4 10.3984
8702 2 21.8234 113.387 11.6861
5030 1 13.6609 96.0444 15.2638
11491 2 11.8423 96.0545 13.978
5062 1 10.9303 97.6167 15.2905
5080 1 12.7498 97.6395 12.7156
5034 1 15.4801 96.0659 12.6898
11466 2 17.2986 96.0545 13.978
5031 1 16.3865 97.6167 15.2905
11489 2 14.5681 97.6275 14.004
5001 1 19.1172 96.0444 15.2638
5004 1 20.9364 96.0659 12.6898
5032 1 18.2061 97.6395 12.7156
11467 2 20.0243 97.6275 14.004
5016 1 13.6559 99.1888 15.3175
11490 2 11.8376 99.2003 14.0305
5063 1 10.9253 100.761 15.3448
5064 1 12.7454 100.786 12.7686
5033 1 15.4758 99.2129 12.7419
11459 2 17.2939 99.2003 14.0305
5014 1 16.3816 100.761 15.3448
11492 2 14.5634 100.773 14.0572
5000 1 19.1122 99.1888 15.3175
5003 1 20.932 99.2129 12.7419
5035 1 18.2017 100.786 12.7686
11457 2 20.0197 100.773 14.0572
5015 1 13.651 102.333 15.3721
11479 2 11.833 102.346 14.084
5054 1 10.9204 103.906 15.3991
5065 1 12.741 103.932 12.8221
5020 1 15.4713 102.359 12.7954
11458 2 17.2892 102.346 14.084
5017 1 16.3767 103.906 15.3991
11477 2 14.5588 103.919 14.1107
4997 1 19.1072 102.333 15.3721
5002 1 20.9276 102.359 12.7954
11460 2 20.015 103.919 14.1107
5018 1 18.1972 103.932 12.8221
5008 1 13.6462 105.478 15.4259
11478 2 11.8284 105.492 14.1371
5055 1 10.9158 107.051 15.4521
5056 1 12.7367 107.079 12.8749
5019 1 15.4669 105.506 12.8487
11452 2 17.2846 105.492 14.1371
5006 1 16.372 107.051 15.4521
11480 2 14.5543 107.065 14.1632
4996 1 19.1024 105.478 15.4259
4999 1 20.9232 105.506 12.8487
11450 2 20.0106 107.065 14.1632
5021 1 18.1929 107.079 12.8749
5007 1 13.6417 108.624 15.4779
11475 2 11.8241 108.638 14.1889
5057 1 12.7325 110.226 12.926
5012 1 15.4627 108.652 12.9007
11451 2 17.2803 108.638 14.1889
5009 1 16.3678 110.198 15.503
11473 2 14.5502 110.212 14.2139
1981 1 21.824 110.198 15.503
5010 1 18.1888 110.226 12.926
11453 2 20.0064 110.212 14.2139
4994 1 19.098 108.624 15.4779
4998 1 20.9189 108.652 12.9007
5005 1 13.6377 111.772 15.5274
11474 2 11.8201 111.786 14.2383
11916 2 14.5464 113.36 14.262
5463 1 12.7287 113.373 12.9746
11449 2 17.2763 111.786 14.2383
5413 1 16.3639 113.346 15.5511
5011 1 15.4587 111.8 12.9507
5428 1 18.185 113.373 12.9746
2390 1 21.8202 113.346 15.5511
11873 2 20.0026 113.36 14.262
4995 1 20.9149 111.8 12.9507
4993 1 19.0939 111.772 15.5274
11814 2 13.6589 96.0057 19.1277
5374 1 11.8411 96.0207 17.8388
11832 2 12.7483 97.6032 16.5791
11826 2 10.9277 97.5759 19.1556
11818 2 15.4791 96.0316 16.5522
5351 1 17.2974 96.0207 17.8388
11815 2 16.384 97.5759 19.1556
5372 1 14.5664 97.5915 17.8665
11769 2 19.1152 96.0057 19.1277
11772 2 20.9353 96.0316 16.5522
11816 2 18.2045 97.6032 16.5791
5352 1 20.0226 97.5915 17.8665
5373 1 11.8354 99.1623 17.8944
11806 2 13.6528 99.1463 19.1836
11828 2 12.743 100.746 16.6337
11827 2 10.9218 100.717 19.2115
11817 2 15.4737 99.1748 16.6064
5347 1 17.2916 99.1623 17.8944
5375 1 14.5607 100.733 17.9223
11804 2 16.378 100.717 19.2115
11768 2 19.1091 99.1463 19.1836
11771 2 20.93 99.1748 16.6064
11819 2 18.1992 100.746 16.6337
5345 1 20.017 100.733 17.9223
5367 1 11.8299 102.305 17.9499
11805 2 13.6471 102.288 19.2391
11829 2 12.7379 103.891 16.6879
11810 2 15.4685 102.318 16.6609
5346 1 17.2861 102.305 17.9499
5365 1 14.5554 103.877 17.9772
11761 2 19.1033 102.288 19.2391
11770 2 20.9248 102.318 16.6609
5348 1 20.0116 103.877 17.9772
11808 2 18.1941 103.891 16.6879
5366 1 11.8248 105.449 18.004
11824 2 12.7332 107.036 16.7406
11809 2 15.4636 105.463 16.7145
5335 1 17.281 105.449 18.004
5368 1 14.5505 107.021 18.0302
11763 2 20.9198 105.463 16.7145
11811 2 18.1894 107.036 16.7406
5333 1 20.0068 107.021 18.0302
5360 1 11.8202 108.595 18.0557
11825 2 12.7289 110.183 16.7909
5358 1 14.5462 110.168 18.0805
5334 1 17.2764 108.595 18.0557
11796 2 15.4591 108.609 16.7661
11794 2 18.1852 110.183 16.7909
11762 2 20.9154 108.609 16.7661
5336 1 20.0025 110.168 18.0805
5359 1 11.8162 111.743 18.1046
12239 2 12.7252 113.332 16.8384
5760 1 14.5425 113.318 18.1278
5317 1 17.2724 111.743 18.1046
11795 2 15.4551 111.757 16.8151
12228 2 18.1814 113.332 16.8384
11747 2 20.9114 111.757 16.8151
5734 1 19.9988 113.318 18.1278
11802 2 11.8378 95.9753 21.7047
5371 1 12.7453 97.5625 20.4441
5343 1 15.4767 95.9932 20.4153
11766 2 17.2941 95.9753 21.7047
11800 2 14.5624 97.5441 21.7336
5292 1 20.933 95.9932 20.4153
5341 1 18.2015 97.5625 20.4441
11767 2 20.0187 97.5441 21.7336
11801 2 11.8309 99.1134 21.7623
5363 1 12.739 100.702 20.5012
5342 1 15.4702 99.1321 20.4728
11758 2 17.2872 99.1134 21.7623
11803 2 14.5558 100.683 21.7906
5291 1 20.9265 99.1321 20.4728
5344 1 18.1952 100.702 20.5012
11756 2 20.0121 100.683 21.7906
11822 2 10.9163 103.86 19.2662
11788 2 11.8247 102.254 21.8184
5364 1 12.7333 103.844 20.5564
11807 2 16.3725 103.86 19.2662
5331 1 15.4642 102.273 20.5291
11757 2 17.281 102.254 21.8184
11786 2 14.5501 103.826 21.8454
5290 1 20.9204 102.273 20.5291
5329 1 18.1895 103.844 20.5564
11759 2 20.0063 103.826 21.8454
11792 2 13.6419 105.432 19.2927
11787 2 11.8194 105.398 21.8717
5356 1 12.7284 106.989 20.6089
11789 2 14.5453 106.971 21.8973
11790 2 16.3677 107.005 19.3187
5330 1 15.4589 105.416 20.583
11743 2 17.2757 105.398 21.8717
5332 1 18.1846 106.989 20.6089
11760 2 19.0981 105.432 19.2927
5283 1 20.9151 105.416 20.583
11741 2 20.0015 106.971 21.8973
8559 2 21.8239 107.005 19.3187
11791 2 13.6374 108.579 19.3439
11780 2 11.8151 108.545 21.9221
5357 1 12.7242 110.137 20.6583
11778 2 14.5413 110.12 21.946
11793 2 16.3635 110.153 19.3684
5316 1 15.4543 108.563 20.634
11742 2 17.2713 108.545 21.9221
5314 1 18.1805 110.137 20.6583
11746 2 19.0936 108.579 19.3439
5282 1 20.9106 108.563 20.634
11744 2 19.9976 110.12 21.946
8557 2 21.8197 110.153 19.3684
11781 2 13.6335 111.727 19.3921
11779 2 11.8116 111.696 21.9692
5754 1 12.7208 113.288 20.7046
12220 2 14.5382 113.272 21.9915
5315 1 15.4506 111.712 20.6819
11725 2 17.2678 111.696 21.9692
12221 2 16.3599 113.303 19.415
5733 1 18.1771 113.288 20.7046
11745 2 19.0897 111.727 19.3921
5267 1 20.9068 111.712 20.6819
12173 2 19.9944 113.272 21.9915
8974 2 21.8162 113.303 19.415
5323 1 11.8318 95.9203 25.5743
5339 1 13.655 95.9604 22.9937
5361 1 10.9231 97.5283 23.0235
11799 2 12.7396 97.5064 24.3133
5286 1 17.288 95.9203 25.5743
11754 2 15.4717 95.9387 24.2835
5321 1 14.5557 97.487 25.6048
5340 1 16.3794 97.5283 23.0235
5289 1 19.1112 95.9604 22.9937
11700 2 20.9279 95.9387 24.2835
5287 1 20.0119 97.487 25.6048
11752 2 18.1958 97.5064 24.3133
5322 1 11.8238 99.055 25.6343
5327 1 13.6477 99.0968 23.0528
5362 1 10.9162 100.666 23.0814
11784 2 12.7326 100.645 24.3709
5324 1 14.5485 100.624 25.6628
5278 1 17.28 99.055 25.6343
11753 2 15.464 99.0749 24.3425
5325 1 16.3725 100.666 23.0814
5288 1 19.1039 99.0968 23.0528
11699 2 20.9203 99.0749 24.3425
5276 1 20.0047 100.624 25.6628
11755 2 18.1888 100.645 24.3709
5308 1 11.8173 102.195 25.6903
5326 1 13.6413 102.237 23.1093
11785 2 12.7268 103.787 24.4252
5306 1 14.5428 103.767 25.7168
5277 1 17.2736 102.195 25.6903
11739 2 15.4576 102.215 24.3985
5328 1 16.3666 103.808 23.1364
11737 2 18.1831 103.787 24.4252
5281 1 19.0975 102.237 23.1093
11698 2 20.9139 102.215 24.3985
5279 1 19.9991 103.767 25.7168
2282 1 21.8228 103.808 23.1364
5307 1 11.8124 105.34 25.7423
5312 1 13.636 105.381 23.1626
11776 2 12.7223 106.934 24.476
5309 1 14.5386 106.915 25.7669
5263 1 17.2687 105.34 25.7423
11738 2 15.4526 105.36 24.4511
5310 1 16.3618 106.954 23.188
11740 2 18.1786 106.934 24.476
2283 1 21.8181 106.954 23.188
5280 1 19.0922 105.381 23.1626
11691 2 20.9088 105.36 24.4511
5261 1 19.9948 106.915 25.7669
5300 1 11.8088 108.491 25.7906
5311 1 13.6317 108.528 23.2125
11777 2 12.7189 110.085 24.5234
5298 1 14.5355 110.067 25.8135
5262 1 17.265 108.491 25.7906
11724 2 15.4486 108.509 24.5001
5313 1 16.3581 110.103 23.2362
11722 2 18.1752 110.085 24.5234
2281 1 21.8143 110.103 23.2362
5266 1 19.088 108.528 23.2125
11690 2 20.9049 108.509 24.5001
5264 1 19.9917 110.067 25.8135
5299 1 11.8062 111.644 25.8356
5301 1 13.6284 111.679 23.259
12206 2 12.7164 113.239 24.5676
5721 1 14.5333 113.223 25.8569
5246 1 17.2624 111.644 25.8356
11723 2 15.4457 111.662 24.5459
5722 1 16.3552 113.256 23.2811
12172 2 18.1726 113.239 24.5676
5669 1 19.9896 113.223 25.8569
2681 1 21.8114 113.256 23.2811
11676 2 20.9019 111.662 24.5459
5265 1 19.0847 111.679 23.259
11750 2 13.6476 95.8939 26.8643
5320 1 12.7303 97.4367 28.1878
11782 2 10.9152 97.4609 26.8946
5274 1 15.4628 95.8703 28.1573
11751 2 16.3714 97.4609 26.8946
5272 1 18.1866 97.4367 28.1878
5226 1 20.919 95.8703 28.1573
11697 2 19.1038 95.8939 26.8643
11735 2 13.6395 99.0294 26.9238
5304 1 12.7233 100.575 28.2447
5273 1 15.4547 99.0051 28.2169
11733 2 16.3644 100.599 26.952
5275 1 18.1796 100.575 28.2447
5225 1 20.9109 99.0051 28.2169
11696 2 19.0958 99.0294 26.9238
8519 2 21.8206 100.599 26.952
11734 2 13.6334 102.171 26.979
5305 1 12.7184 103.721 28.2969
5259 1 15.4488 102.147 28.2713
11736 2 16.3591 103.744 27.0051
5257 1 18.1747 103.721 28.2969
8510 2 21.8153 103.744 27.0051
5224 1 20.905 102.147 28.2713
11689 2 19.0896 102.171 26.979
11720 2 13.6289 105.318 27.0301
5296 1 12.7151 106.872 28.345
5258 1 15.4447 105.296 28.3214
11718 2 16.3553 106.894 27.0543
5260 1 18.1714 106.872 28.345
8511 2 21.8116 106.894 27.0543
5217 1 20.901 105.296 28.3214
11688 2 19.0852 105.318 27.0301
11719 2 13.6258 108.47 27.0776
5297 1 12.713 110.028 28.3898
5245 1 15.4421 108.45 28.3678
11721 2 16.3527 110.048 27.1001
5243 1 18.1692 110.028 28.3898
8509 2 21.809 110.048 27.1001
5216 1 20.8983 108.45 28.3678
11675 2 19.082 108.47 27.0776
11709 2 13.6236 111.626 27.1218
5703 1 12.7117 113.187 28.4315
5244 1 15.4404 111.607 28.411
12157 2 16.351 113.205 27.1427
5668 1 18.168 113.187 28.4315
5205 1 20.8966 111.607 28.411
11674 2 19.0799 111.626 27.1218
8941 2 21.8072 113.205 27.1427
5270 1 13.6354 95.808 30.7422
11731 2 11.8214 95.8386 29.4467
11728 2 12.718 97.3409 32.0587
11729 2 14.5454 97.4061 29.4769
11682 2 15.4496 95.7711 32.0296
11694 2 17.2777 95.8386 29.4467
5271 1 16.3595 97.3759 30.7716
11680 2 18.1742 97.3409 32.0587
2230 1 21.8157 97.3759 30.7716
5223 1 19.0917 95.808 30.7422
11652 2 20.9058 95.7711 32.0296
11695 2 20.0016 97.4061 29.4769
5255 1 13.6281 98.9462 30.7995
11730 2 11.8138 98.9756 29.5056
11712 2 12.7133 100.488 32.1123
11732 2 14.539 100.547 29.5329
11681 2 15.4434 98.9133 32.0862
11686 2 17.27 98.9756 29.5056
5253 1 16.3536 100.519 30.826
11683 2 18.1695 100.488 32.1123
2231 1 21.8099 100.519 30.826
5222 1 19.0843 98.9462 30.7995
11651 2 20.8997 98.9133 32.0862
11684 2 19.9952 100.547 29.5329
5254 1 13.6235 102.093 30.8513
11716 2 11.8085 102.121 29.559
11713 2 12.7106 103.642 32.1611
11714 2 14.5348 103.695 29.5841
11668 2 15.4399 102.064 32.1372
11685 2 17.2648 102.121 29.559
5256 1 16.3501 103.67 30.8755
11666 2 18.1669 103.642 32.1611
2222 1 21.8063 103.67 30.8755
5215 1 19.0797 102.093 30.8513
11650 2 20.8961 102.064 32.1372
11687 2 19.991 103.695 29.5841
5241 1 13.6208 105.247 30.8989
11715 2 11.8052 105.272 29.6081
11704 2 12.7094 106.802 32.2063
11717 2 14.5321 106.849 29.6313
11667 2 15.438 105.221 32.1841
11672 2 17.2614 105.272 29.6081
5239 1 16.3481 106.826 30.9214
11669 2 18.1656 106.802 32.2063
2223 1 21.8044 106.826 30.9214
5214 1 19.0771 105.247 30.8989
11647 2 20.8942 105.221 32.1841
11670 2 19.9884 106.849 29.6313
5240 1 13.6194 108.406 30.9432
11708 2 11.8031 108.428 29.6537
11705 2 12.709 109.965 32.2486
11706 2 14.5306 110.008 29.6753
11660 2 15.4372 108.383 32.2278
11671 2 17.2593 108.428 29.6537
5242 1 16.3472 109.987 30.9643
11658 2 18.1653 109.965 32.2486
2221 1 21.8034 109.987 30.9643
5204 1 19.0757 108.406 30.9432
11646 2 20.8935 108.383 32.2278
11673 2 19.9868 110.008 29.6753
5232 1 13.6189 111.568 30.9847
11707 2 11.8019 111.588 29.6962
12135 2 12.7092 113.132 32.2883
12156 2 14.5297 113.169 29.7164
11659 2 15.4372 111.548 32.2688
11661 2 17.2582 111.588 29.6962
5653 1 16.3469 113.151 31.0045
12100 2 18.1654 113.132 32.2883
5203 1 19.0751 111.568 30.9847
11643 2 20.8934 111.548 32.2688
2630 1 21.8031 113.151 31.0045
12101 2 19.986 113.169 29.7164
5251 1 11.8062 95.732 33.3268
11678 2 13.6206 95.691 34.61
5249 1 14.5313 97.3039 33.3542
5220 1 17.2624 95.732 33.3268
11679 2 16.3466 97.2657 34.6376
5208 1 15.4325 95.6421 35.9076
8446 2 21.8029 97.2657 34.6376
11649 2 19.0769 95.691 34.61
5221 1 19.9875 97.3039 33.3542
5190 1 20.8887 95.6421 35.9076
5252 1 14.5276 100.455 33.4048
5250 1 11.801 98.8785 33.3801
11664 2 13.6171 98.8428 34.6636
11662 2 16.3444 100.422 34.6883
5212 1 17.2572 98.8785 33.3801
8447 2 21.8006 100.422 34.6883
5210 1 19.9838 100.455 33.4048
11648 2 19.0734 98.8428 34.6636
5235 1 14.526 103.614 33.4516
5237 1 11.7985 102.034 33.4286
11663 2 13.6158 102.003 34.712
11665 2 16.3437 103.585 34.7348
5211 1 17.2547 102.034 33.4286
8438 2 21.7999 103.585 34.7348
5213 1 19.9823 103.614 33.4516
11645 2 19.072 102.003 34.712
11656 2 13.6156 105.168 34.7569
5236 1 11.7976 105.195 33.4738
5238 1 14.5256 106.777 33.4953
5201 1 17.2538 105.195 33.4738
11654 2 16.344 106.751 34.7783
8439 2 21.8002 106.751 34.7783
11644 2 19.0719 105.168 34.7569
5199 1 19.9819 106.777 33.4953
5229 1 14.526 109.943 33.5365
5231 1 11.7976 108.36 33.5162
11655 2 13.6162 108.336 34.799
11657 2 16.3448 109.921 34.8192
5200 1 17.2539 108.36 33.5162
8437 2 21.801 109.921 34.8192
5202 1 19.9822 109.943 33.5365
11642 2 19.0724 108.336 34.799
11653 2 13.6172 111.507 34.8389
5230 1 11.7982 111.528 33.5563
5652 1 14.5267 113.112 33.5754
5194 1 17.2544 111.528 33.5563
12085 2 16.3458 113.093 34.8579
8870 2 21.8021 113.093 34.8579
5603 1 19.9829 113.112 33.5754
11641 2 19.0734 111.507 34.8389
11854 2 11.793 95.5999 37.1841
17091 1 13.6041 95.5409 38.4791
11852 2 14.5208 97.1822 37.2104
5248 1 12.7033 97.2217 35.9323
11843 2 17.2493 95.5999 37.1841
17476 1 16.3338 97.1317 38.5023
5206 1 18.1595 97.2217 35.9323
17061 1 19.0603 95.5409 38.4791
11844 2 19.977 97.1822 37.2104
14664 1 21.79 97.1317 38.5023
11853 2 11.7927 98.7662 37.2353
17477 1 13.607 98.7221 38.525
5233 1 12.7027 100.386 35.9793
11855 2 14.5211 100.351 37.259
11840 2 17.2489 98.7662 37.2353
5207 1 15.4309 98.803 35.9562
17478 1 16.3364 100.312 38.5473
5209 1 18.1589 100.386 35.9793
17442 1 19.0633 98.7221 38.525
5189 1 20.8871 98.803 35.9562
11838 2 19.9773 100.351 37.259
14662 1 21.7927 100.312 38.5473
11850 2 11.7935 101.938 37.2819
17473 1 13.6096 101.902 38.5692
5234 1 12.7033 103.554 36.0236
11848 2 14.5223 103.524 37.3041
11839 2 17.2497 101.938 37.2819
5197 1 15.431 101.969 36.0017
17471 1 16.339 103.492 38.5906
5195 1 18.1595 103.554 36.0236
17441 1 19.0658 101.902 38.5692
5188 1 20.8872 101.969 36.0017
11841 2 19.9785 103.524 37.3041
14663 1 21.7952 103.492 38.5906
11849 2 11.7949 105.112 37.3256
17472 1 13.6121 105.082 38.6115
5227 1 12.7045 106.725 36.0657
11851 2 14.5239 106.699 37.3465
11836 2 17.2512 105.112 37.3256
5196 1 15.432 105.139 36.0449
17474 1 16.3414 106.672 38.6321
5198 1 18.1607 106.725 36.0657
17436 1 19.0683 105.082 38.6115
5187 1 20.8882 105.139 36.0449
11834 2 19.9801 106.699 37.3465
14660 1 21.7977 106.672 38.6321
11847 2 11.7966 108.287 37.3669
17462 1 13.6145 108.262 38.6521
5228 1 12.706 109.898 36.1058
11845 2 14.5257 109.876 37.3868
11835 2 17.2529 108.287 37.3669
17460 1 16.3438 109.852 38.6717
5193 1 15.4334 108.312 36.086
5191 1 18.1622 109.898 36.1058
17435 1 19.0708 108.262 38.6521
5186 1 20.8896 108.312 36.086
11837 2 19.9819 109.876 37.3868
14661 1 21.8001 109.852 38.6717
12264 2 14.5275 113.053 37.4249
5631 1 12.7076 113.073 36.1438
11846 2 11.7984 111.464 37.4061
17461 1 13.6169 111.443 38.6909
5602 1 18.1638 113.073 36.1438
11833 2 17.2547 111.464 37.4061
17463 1 16.3461 113.033 38.7095
5192 1 15.4349 111.485 36.1251
12250 2 19.9837 113.053 37.4249
17422 1 19.0731 111.443 38.6909
5185 1 20.8912 111.485 36.1251
14659 1 21.8023 113.033 38.7095
23099 2 12.6986 97.0945 39.7742
17089 1 11.7817 95.4383 41.0371
22689 2 13.6073 95.4061 42.3002
17475 1 14.5128 97.0403 41.0613
23081 2 16.337 97.0076 42.3284
17041 1 17.2379 95.4383 41.0371
22703 2 15.4258 95.5023 39.7478
23088 2 18.1548 97.0945 39.7742
17438 1 19.9691 97.0403 41.0613
22653 2 19.0635 95.4061 42.3002
22655 2 20.8821 95.5023 39.7478
20278 2 21.7932 97.0076 42.3284
23100 2 12.7008 100.279 39.8229
23082 2 13.6104 98.6076 42.3547
17469 1 11.7872 98.6399 41.0848
17467 1 14.5174 100.238 41.1077
23086 2 15.4277 98.6866 39.7991
23083 2 16.34 100.206 42.3797
17439 1 17.2434 98.6399 41.0848
23084 2 18.157 100.279 39.8229
17440 1 19.9736 100.238 41.1077
23037 2 19.0666 98.6076 42.3547
23040 2 20.884 98.6866 39.7991
20274 2 21.7962 100.206 42.3797
23096 2 12.7032 103.463 39.8681
17468 1 11.7912 101.834 41.1301
23074 2 13.6134 101.804 42.4036
17470 1 14.521 103.43 41.1519
23085 2 15.4301 101.871 39.8459
17433 1 17.2474 101.834 41.1301
23072 2 16.343 103.401 42.4266
23087 2 18.1595 103.463 39.8681
17431 1 19.9773 103.43 41.1519
23036 2 19.0696 101.804 42.4036
23039 2 20.8863 101.871 39.8459
20275 2 21.7992 103.401 42.4266
23097 2 12.7057 106.646 39.9106
17458 1 11.7946 105.024 41.1732
23073 2 13.6163 104.997 42.4488
17456 1 14.5242 106.619 41.194
23078 2 15.4326 105.054 39.8896
17432 1 17.2508 105.024 41.1732
23075 2 16.3459 106.593 42.4704
23076 2 18.162 106.646 39.9106
17434 1 19.9805 106.619 41.194
23029 2 19.0726 104.997 42.4488
23038 2 20.8888 105.054 39.8896
20270 2 21.8021 106.593 42.4704
23092 2 12.7082 109.83 39.951
17457 1 11.7976 108.212 41.2144
23060 2 13.6192 108.189 42.4913
17459 1 14.5272 109.806 41.2342
23077 2 15.4351 108.238 39.931
17419 1 17.2539 108.212 41.2144
23058 2 16.3486 109.784 42.5117
23079 2 18.1644 109.83 39.951
17417 1 19.9834 109.806 41.2342
23028 2 19.0754 108.189 42.4913
23031 2 20.8913 108.238 39.931
20271 2 21.8049 109.784 42.5117
23093 2 12.7105 113.013 39.9892
17450 1 11.8004 111.399 41.2536
23059 2 13.6218 111.378 42.5314
17448 1 14.5298 112.993 41.2724
17418 1 17.2566 111.399 41.2536
23061 2 16.3512 112.973 42.5506
23064 2 15.4375 111.421 39.9703
23062 2 18.1667 113.013 39.9892
17420 1 19.9861 112.993 41.2724
23014 2 19.0781 111.378 42.5314
23030 2 20.8937 111.421 39.9703
20269 2 21.8074 112.973 42.5506
17465 1 12.6972 96.9539 43.61
22687 2 11.7927 95.3171 44.8445
23080 2 14.5227 96.9259 44.875
17039 1 15.4222 95.3436 43.5827
22634 2 17.2489 95.3171 44.8445
17437 1 18.1534 96.9539 43.61
23033 2 19.9789 96.9259 44.875
16991 1 20.8784 95.3436 43.5827
17466 1 12.702 100.165 43.6608
23070 2 11.7962 98.5323 44.9035
23068 2 14.5259 100.137 44.9303
17429 1 15.4278 98.5608 43.636
23034 2 17.2525 98.5323 44.9035
17427 1 18.1582 100.165 43.6608
17376 1 20.8841 98.5608 43.636
23035 2 19.9821 100.137 44.9303
17454 1 12.7058 103.368 43.7076
23069 2 11.7993 101.74 44.9558
23071 2 14.5289 103.341 44.9802
17428 1 15.4321 101.767 43.6846
23026 2 17.2555 101.74 44.9558
17430 1 18.1621 103.368 43.7076
17375 1 20.8883 101.767 43.6846
23024 2 19.9851 103.341 44.9802
17455 1 12.7092 106.565 43.7517
23056 2 11.8022 104.942 45.0036
23054 2 14.5318 106.541 45.0262
17415 1 15.4357 104.967 43.73
23025 2 17.2585 104.942 45.0036
17413 1 18.1654 106.565 43.7517
17374 1 20.8919 104.967 43.73
23027 2 19.988 106.541 45.0262
17446 1 12.7122 109.76 43.7932
23055 2 11.805 108.14 45.048
23057 2 14.5345 109.738 45.0692
17414 1 15.4389 108.163 43.7727
23011 2 17.2613 108.14 45.048
17416 1 18.1685 109.76 43.7932
17367 1 20.8951 108.163 43.7727
23009 2 19.9907 109.738 45.0692
17447 1 12.715 112.952 43.8324
23048 2 11.8077 111.336 45.0896
23046 2 14.537 112.933 45.1094
17400 1 15.4418 111.356 43.8131
23010 2 17.2639 111.336 45.0896
17398 1 18.1712 112.952 43.8324
23012 2 19.9933 112.933 45.1094
17366 1 20.898 111.356 43.8131
23066 2 12.7108 96.852 47.417
17023 1 11.802 95.1906 48.6569
17025 1 13.6111 95.2609 46.1209
17423 1 14.5321 96.808 48.6904
17424 1 16.3417 96.8761 46.1518
16972 1 17.2582 95.1906 48.6569
22632 2 15.4369 95.2385 47.3844
23032 2 18.167 96.852 47.417
17369 1 19.9883 96.808 48.6904
16989 1 19.0673 95.2609 46.1209
22593 2 20.8931 95.2385 47.3844
14644 1 21.7979 96.8761 46.1518
17407 1 11.8057 98.4226 48.7218
17425 1 13.6157 98.4879 46.1807
23067 2 12.714 100.072 47.4764
17405 1 14.5353 100.035 48.7514
17370 1 17.2619 98.4226 48.7218
17426 1 16.3458 100.097 46.2079
23022 2 15.4406 98.463 47.4476
23020 2 18.1702 100.072 47.4764
17371 1 19.9916 100.035 48.7514
17373 1 19.072 98.4879 46.1807
22974 2 20.8968 98.463 47.4476
14632 1 21.802 100.097 46.2079
17406 1 11.8087 101.645 48.7794
17411 1 13.6194 101.704 46.2338
23052 2 12.7167 103.284 47.5298
17408 1 14.5382 103.253 48.8061
17362 1 17.2649 101.645 48.7794
17409 1 16.3492 103.309 46.2586
23021 2 15.4435 101.679 47.5037
23023 2 18.173 103.284 47.5298
17360 1 19.9944 103.253 48.8061
17372 1 19.0757 101.704 46.2338
22973 2 20.8997 101.679 47.5037
14633 1 21.8055 103.309 46.2586
17392 1 11.8114 104.859 48.8316
17410 1 13.6227 104.912 46.2825
23053 2 12.7193 106.49 47.5786
17390 1 14.5408 106.464 48.8561
17361 1 17.2676 104.859 48.8316
17412 1 16.3523 106.514 46.3054
23007 2 15.4462 104.888 47.5547
23005 2 18.1756 106.49 47.5786
17363 1 19.997 106.464 48.8561
17365 1 19.0789 104.912 46.2825
22972 2 20.9024 104.888 47.5547
14624 1 21.8086 106.514 46.3054
17391 1 11.8139 108.067 48.8796
17396 1 13.6257 108.114 46.3276
23044 2 12.7218 109.693 47.6238
17393 1 14.5433 109.67 48.9023
17347 1 17.2702 108.067 48.8796
17394 1 16.3552 109.714 46.3491
23006 2 15.4487 108.092 47.6016
23008 2 18.1781 109.693 47.6238
17345 1 19.9995 109.67 48.9023
17364 1 19.0819 108.114 46.3276
22965 2 20.9049 108.092 47.6016
14625 1 21.8114 109.714 46.3491
17384 1 11.8163 111.272 48.9241
17395 1 13.6284 111.314 46.3698
23045 2 12.7242 112.893 47.6657
17382 1 14.5456 112.873 48.945
17346 1 17.2726 111.272 48.9241
17397 1 16.3578 112.912 46.3899
22993 2 15.4511 111.293 47.6451
22991 2 18.1804 112.893 47.6657
17348 1 20.0018 112.873 48.945
17350 1 19.0846 111.314 46.3698
22964 2 20.9074 111.293 47.6451
14623 1 21.814 112.912 46.3899
17403 1 12.7231 96.7495 51.2288
22620 2 13.6263 95.1713 49.9234
22618 2 11.8165 95.115 52.4638
23016 2 14.5467 96.7313 52.4981
23017 2 16.3565 96.7872 49.9574
16970 1 15.4494 95.1319 51.1941
17368 1 18.1794 96.7495 51.2288
22582 2 17.2727 95.115 52.4638
16940 1 20.9057 95.1319 51.1941
22591 2 19.0826 95.1713 49.9234
22967 2 20.0029 96.7313 52.4981
20245 2 21.8127 96.7872 49.9574
17404 1 12.726 99.9789 51.2931
23018 2 13.6301 98.4008 49.9895
22999 2 11.8203 98.3459 52.5311
22997 2 14.5498 99.9588 52.5627
17358 1 15.4528 98.3652 51.2618
23019 2 16.3596 100.012 50.02
17356 1 18.1822 99.9789 51.2931
22968 2 17.2765 98.3459 52.5311
20230 2 21.8159 100.012 50.02
17316 1 20.909 98.3652 51.2618
22971 2 19.0863 98.4008 49.9895
22969 2 20.0061 99.9588 52.5627
17388 1 12.7283 103.201 51.3514
23003 2 13.6328 101.622 50.049
22998 2 11.8229 101.57 52.593
17357 1 15.4553 101.591 51.3229
23001 2 16.3621 103.23 50.0766
17359 1 18.1845 103.201 51.3514
22960 2 17.2792 101.57 52.593
20231 2 21.8184 103.23 50.0766
17315 1 20.9115 101.591 51.3229
22970 2 19.089 101.622 50.049
17389 1 12.7304 106.416 51.4045
23002 2 13.6352 104.837 50.1031
17343 1 15.4575 104.809 51.3785
23004 2 16.3644 106.442 50.1284
17341 1 18.1866 106.416 51.4045
20222 2 21.8206 106.442 50.1284
17314 1 20.9137 104.809 51.3785
22963 2 19.0914 104.837 50.1031
17380 1 12.7324 109.627 51.4534
22989 2 13.6374 108.046 50.1527
17342 1 15.4595 108.022 51.4294
22987 2 16.3665 109.65 50.176
20223 2 21.8228 109.65 50.176
17308 1 20.9158 108.022 51.4294
17344 1 18.1886 109.627 51.4534
22962 2 19.0936 108.046 50.1527
17381 1 12.7343 112.834 51.4983
22988 2 13.6395 111.252 50.1985
17331 1 15.4615 111.231 51.4763
22990 2 16.3686 112.854 50.22
17307 1 20.9177 111.231 51.4763
17329 1 18.1906 112.834 51.4983
22952 2 19.0957 111.252 50.1985
20221 2 21.8248 112.854 50.22
17402 1 10.9142 96.6997 53.769
22995 2 12.7372 96.6833 55.0404
16960 1 13.6404 95.083 53.7342
17353 1 16.3704 96.6997 53.769
22580 2 15.4632 95.0678 55.0065
22966 2 18.1934 96.6833 55.0404
16938 1 19.0966 95.083 53.7342
22573 2 20.9194 95.0678 55.0065
17354 1 13.6438 98.3152 53.8026
17386 1 10.9169 99.9293 53.8349
22996 2 12.7404 99.9111 55.1058
17355 1 16.3732 99.9293 53.8349
22956 2 15.4671 98.2978 55.0736
17313 1 19.1 98.3152 53.8026
22938 2 20.9233 98.2978 55.0736
22954 2 18.1966 99.9111 55.1058
17339 1 13.6461 101.542 53.866
17387 1 10.919 103.153 53.8958
22981 2 12.7426 103.134 55.167
17337 1 16.3752 103.153 53.8958
22955 2 15.4697 101.523 55.1369
23000 2 14.5521 103.18 52.622
17312 1 19.1024 101.542 53.866
22937 2 20.9259 101.523 55.1369
22957 2 18.1988 103.134 55.167
22958 2 20.0084 103.18 52.622
17338 1 13.648 104.763 53.9243
17378 1 10.9207 106.372 53.9517
22982 2 12.7444 106.353 55.2237
22985 2 11.825 104.789 52.6498
17340 1 16.3769 106.372 53.9517
22945 2 15.4717 104.744 55.1959
22959 2 17.2813 104.789 52.6498
22983 2 14.5541 106.396 52.6765
17306 1 19.1042 104.763 53.9243
22936 2 20.9279 104.744 55.1959
22943 2 18.2006 106.353 55.2237
22961 2 20.0104 106.396 52.6765
22984 2 11.8269 108.002 52.7021
22975 2 12.7459 109.567 55.2761
17379 1 10.9223 109.586 54.003
17327 1 13.6496 107.979 53.9779
22986 2 14.5559 109.608 52.7266
22949 2 17.2832 108.002 52.7021
22944 2 15.4733 107.96 55.2504
17325 1 16.3786 109.586 54.003
22947 2 20.0122 109.608 52.7266
22946 2 18.2022 109.567 55.2761
22935 2 20.9295 107.96 55.2504
17305 1 19.1059 107.979 53.9779
22979 2 11.8287 111.212 52.7501
22976 2 12.7473 112.779 55.3241
17377 1 10.9239 112.797 54.0502
17326 1 13.6512 111.192 54.0271
22977 2 14.5577 112.816 52.7726
22948 2 17.2849 111.212 52.7501
22941 2 15.4748 111.174 55.3006
17328 1 16.3801 112.797 54.0502
22939 2 18.2036 112.779 55.3241
22934 2 20.931 111.174 55.3006
17299 1 19.1075 111.192 54.0271
22950 2 20.0139 112.816 52.7726
17651 1 12.7519 96.6194 58.8566
23292 2 10.9278 96.6418 57.5847
16958 1 11.8312 95.0416 56.2774
22899 2 13.6539 95.0275 57.5515
17352 1 14.5613 96.6569 56.3115
23284 2 16.3841 96.6418 57.5847
17255 1 15.4781 95.0057 58.8233
16933 1 17.2874 95.0416 56.2774
17309 1 20.0175 96.6569 56.3115
17640 1 18.2082 96.6194 58.8566
17207 1 20.9343 95.0057 58.8233
22869 2 19.1101 95.0275 57.5515
17335 1 11.8347 98.2715 56.3451
17652 1 12.7549 99.8456 58.9224
23290 2 10.931 99.8683 57.65
23285 2 13.6577 98.2554 57.6177
17333 1 14.5641 99.8852 56.3778
17310 1 17.291 98.2715 56.3451
17638 1 15.4817 98.2327 58.8897
23286 2 16.3873 99.8683 57.65
17592 1 20.9379 98.2327 58.8897
17311 1 20.0204 99.8852 56.3778
17636 1 18.2111 99.8456 58.9224
23250 2 19.1139 98.2554 57.6177
17334 1 11.8371 101.498 56.4096
17648 1 12.7569 103.069 58.9857
23291 2 10.9333 103.092 57.7124
23281 2 13.6603 101.48 57.6816
17336 1 14.5661 103.11 56.4403
17637 1 15.4841 101.458 58.9545
17303 1 17.2933 101.498 56.4096
23279 2 16.3895 103.092 57.7124
17591 1 20.9404 101.458 58.9545
17639 1 18.2132 103.069 58.9857
17301 1 20.0223 103.11 56.4403
23249 2 19.1166 101.48 57.6816
17323 1 11.8388 104.72 56.4699
17649 1 12.7584 106.29 59.0453
23288 2 10.9349 106.312 57.7708
23280 2 13.6623 104.702 57.7421
17321 1 14.5676 106.33 56.4984
17630 1 15.4858 104.68 59.016
17302 1 17.295 104.72 56.4699
23282 2 16.3912 106.312 57.7708
17590 1 20.9421 104.68 59.016
17628 1 18.2146 106.29 59.0453
17304 1 20.0238 106.33 56.4984
23244 2 19.1185 104.702 57.7421
17322 1 11.8402 107.939 56.5257
17644 1 12.7595 109.509 59.1007
23289 2 10.9363 109.529 57.825
23270 2 13.6637 107.92 57.7985
17324 1 14.5689 109.547 56.5519
17629 1 15.4871 107.9 59.0735
17296 1 17.2964 107.939 56.5257
23268 2 16.3925 109.529 57.825
17583 1 20.9433 107.9 59.0735
17631 1 18.2158 109.509 59.1007
17294 1 20.0252 109.547 56.5519
23243 2 19.12 107.92 57.7985
17319 1 11.8414 111.154 56.5771
17645 1 12.7606 112.725 59.1515
23287 2 10.9375 112.743 57.8749
23269 2 13.665 111.136 57.8505
17317 1 14.5702 112.76 56.6011
17616 1 15.4882 111.117 59.1267
17295 1 17.2977 111.154 56.5771
23271 2 16.3937 112.743 57.8749
17582 1 20.9444 111.117 59.1267
17614 1 18.2168 112.725 59.1515
17297 1 20.0264 112.76 56.6011
23230 2 19.1212 111.136 57.8505
17650 1 10.9424 96.5856 61.4039
17241 1 13.6686 94.9736 61.3715
22897 2 11.8445 94.9921 60.0986
17633 1 16.3987 96.5856 61.4039
23283 2 14.5747 96.6048 60.131
22849 2 17.3008 94.9921 60.0986
23246 2 20.0309 96.6048 60.131
17205 1 19.1248 94.9736 61.3715
17634 1 13.6722 98.1975 61.4365
17646 1 10.9455 99.8092 61.469
23277 2 11.8483 98.2172 60.1635
17635 1 16.4017 99.8092 61.469
23247 2 17.3045 98.2172 60.1635
23275 2 14.5779 99.8293 60.1958
17589 1 19.1284 98.1975 61.4365
23248 2 20.0341 99.8293 60.1958
17626 1 13.6748 101.421 61.501
17647 1 10.9476 103.032 61.5325
23276 2 11.851 101.441 60.2275
17624 1 16.4038 103.032 61.5325
23241 2 17.3072 101.441 60.2275
23278 2 14.5801 103.052 60.2586
17588 1 19.131 101.421 61.501
23239 2 20.0364 103.052 60.2586
17625 1 13.6765 104.643 61.5632
17642 1 10.9491 106.253 61.593
23266 2 11.8529 104.663 60.2889
17627 1 16.4053 106.253 61.593
23240 2 17.3091 104.663 60.2889
23264 2 14.5818 106.273 60.3182
17581 1 19.1328 104.643 61.5632
23242 2 20.038 106.273 60.3182
17612 1 13.6778 107.863 61.6219
17643 1 10.9502 109.472 61.6497
23265 2 11.8543 107.882 60.3466
17610 1 16.4065 109.472 61.6497
23227 2 17.3106 107.882 60.3466
23267 2 14.5831 109.491 60.3739
17580 1 19.134 107.863 61.6219
23225 2 20.0393 109.491 60.3739
17611 1 13.6788 111.081 61.6764
17641 1 10.9511 112.69 61.7019
23258 2 11.8555 111.1 60.4001
17613 1 16.4074 112.69 61.7019
23226 2 17.3117 111.1 60.4001
23256 2 14.5841 112.708 60.4253
17566 1 19.135 111.081 61.6764
23228 2 20.0404 112.708 60.4253
23272 2 10.9554 96.5382 65.2284
23273 2 12.7651 96.5708 62.6791
17239 1 11.8589 94.9436 63.9218
22833 2 13.6816 94.9288 65.1974
17632 1 14.5889 96.5539 63.9535
23232 2 16.4116 96.5382 65.2284
17186 1 17.3151 94.9436 63.9218
22847 2 15.4913 94.9598 62.6474
17585 1 20.0451 96.5539 63.9535
23245 2 18.2214 96.5708 62.6791
22797 2 19.1378 94.9288 65.1974
22799 2 20.9475 94.9598 62.6474
17622 1 11.8624 98.1643 63.9855
23233 2 13.6852 98.1478 65.2598
23260 2 10.9586 99.7577 65.2914
23274 2 12.7683 99.7929 62.743
17586 1 17.3187 98.1643 63.9855
17620 1 14.592 99.7749 64.0176
23234 2 16.4148 99.7577 65.2914
23237 2 15.495 98.1819 62.7111
17587 1 20.0482 99.7749 64.0176
23181 2 19.1414 98.1478 65.2598
23184 2 20.9512 98.1819 62.7111
23235 2 18.2246 99.7929 62.743
17621 1 11.8651 101.385 64.0495
23219 2 13.6881 101.368 65.3229
23261 2 10.9611 102.978 65.3541
23262 2 12.7707 103.014 62.8059
17578 1 17.3213 101.385 64.0495
17623 1 14.5943 102.996 64.081
23217 2 16.4173 102.978 65.3541
23236 2 15.4977 101.404 62.7747
17576 1 20.0505 102.996 64.081
23180 2 19.1443 101.368 65.3229
23183 2 20.954 101.404 62.7747
23238 2 18.2269 103.014 62.8059
17608 1 11.867 104.606 64.1119
23218 2 13.6902 104.588 65.3847
23252 2 10.963 106.198 65.4147
23263 2 12.7724 106.235 62.8662
17577 1 17.3233 104.606 64.1119
17606 1 14.5959 106.217 64.142
23220 2 16.4192 106.198 65.4147
23223 2 15.4997 104.625 62.8365
17579 1 20.0521 106.217 64.142
23173 2 19.1465 104.588 65.3847
23182 2 20.956 104.625 62.8365
23221 2 18.2287 106.235 62.8662
17607 1 11.8684 107.827 64.1713
23204 2 13.6918 107.808 65.4439
23253 2 10.9643 109.418 65.4721
23254 2 12.7737 109.455 62.923
17563 1 17.3246 107.827 64.1713
17609 1 14.5971 109.437 64.1995
23202 2 16.4206 109.418 65.4721
23222 2 15.5012 107.845 62.8951
17561 1 20.0533 109.437 64.1995
23172 2 19.1481 107.808 65.4439
23175 2 20.9575 107.845 62.8951
23224 2 18.2299 109.455 62.923
17600 1 11.8694 111.046 64.2267
23203 2 13.693 111.028 65.4994
23251 2 10.9654 112.638 65.5255
23255 2 12.7747 112.673 62.9755
17562 1 17.3257 111.046 64.2267
17598 1 14.598 112.656 64.2528
23205 2 16.4216 112.638 65.5255
23208 2 15.5024 111.064 62.9498
17564 1 20.0542 112.656 64.2528
23158 2 19.1493 111.028 65.4994
23174 2 20.9586 111.064 62.9498
23206 2 18.231 112.673 62.9755
17618 1 12.7787 96.5232 66.5062
22831 2 11.8715 94.8977 67.7474
17617 1 10.9676 96.4926 69.0652
17172 1 13.6939 94.8858 69.0349
23231 2 14.6015 96.5054 67.7777
17184 1 15.5049 94.9146 66.4752
22780 2 17.3277 94.8977 67.7474
17569 1 16.4239 96.4926 69.0652
17584 1 18.2349 96.5232 66.5062
23177 2 20.0577 96.5054 67.7777
17145 1 20.9612 94.9146 66.4752
17143 1 19.1502 94.8858 69.0349
17619 1 12.7818 99.7415 66.5692
23215 2 11.8751 98.1136 67.8086
17570 1 13.6974 98.1001 69.0959
17602 1 10.9707 99.7082 69.127
17574 1 15.5085 98.1321 66.5376
23178 2 17.3314 98.1136 67.8086
23213 2 14.6048 99.7223 67.8398
17571 1 16.427 99.7082 69.127
17526 1 20.9647 98.1321 66.5376
17572 1 18.2381 99.7415 66.5692
23179 2 20.0611 99.7223 67.8398
17523 1 19.1536 98.1001 69.0959
17604 1 12.7843 102.961 66.6322
23214 2 11.8781 101.332 67.8711
17555 1 13.7002 101.317 69.1583
17603 1 10.9733 102.926 69.1895
17573 1 15.5113 101.351 66.6009
23170 2 17.3344 101.332 67.8711
23216 2 14.6075 102.941 67.9021
17553 1 16.4295 102.926 69.1895
17525 1 20.9675 101.351 66.6009
17575 1 18.2405 102.961 66.6322
23168 2 20.0638 102.941 67.9021
17522 1 19.1565 101.317 69.1583
17605 1 12.7861 106.181 66.6934
23200 2 11.8805 104.551 67.9328
17554 1 13.7025 104.536 69.2203
17594 1 10.9753 106.146 69.2505
17559 1 15.5134 104.571 66.6631
23169 2 17.3368 104.551 67.9328
23198 2 14.6096 106.161 67.9629
17556 1 16.4315 106.146 69.2505
17524 1 20.9696 104.571 66.6631
17557 1 18.2423 106.181 66.6934
23171 2 20.0658 106.161 67.9629
17515 1 19.1587 104.536 69.2203
17596 1 12.7874 109.401 66.7513
23199 2 11.8823 107.772 67.9922
17558 1 15.5149 107.791 66.7228
23155 2 17.3385 107.772 67.9922
23201 2 14.6111 109.382 68.0206
17517 1 20.9712 107.791 66.7228
17560 1 18.2436 109.401 66.7513
23153 2 20.0674 109.382 68.0206
17597 1 12.7884 112.622 66.8052
23192 2 11.8836 110.993 68.048
17545 1 15.5161 111.012 66.7788
23154 2 17.3399 110.993 68.048
23190 2 14.6123 112.603 68.0744
17516 1 20.9723 111.012 66.7788
17543 1 18.2447 112.622 66.8052
23156 2 20.0686 112.603 68.0744
23211 2 12.7914 96.4707 70.326
17170 1 11.879 94.8556 71.6133
17568 1 14.6087 96.4609 71.6429
17134 1 17.3352 94.8556 71.6133
22778 2 15.5176 94.8647 70.2962
17519 1 20.065 96.4609 71.6429
23176 2 18.2476 96.4707 70.326
22748 2 20.9739 94.8647 70.2962
17551 1 11.8821 98.067 71.673
23212 2 12.7946 99.6852 70.387
17520 1 17.3384 98.067 71.673
17549 1 14.6116 99.6739 71.7035
23166 2 15.5212 98.0776 70.3564
17521 1 20.0679 99.6739 71.7035
23124 2 20.9774 98.0776 70.3564
23164 2 18.2508 99.6852 70.387
17550 1 11.8848 101.282 71.7339
23196 2 12.7974 102.903 70.4486
17512 1 17.341 101.282 71.7339
17552 1 14.614 102.89 71.7654
23165 2 15.5241 101.294 70.4179
17510 1 20.0702 102.89 71.7654
23123 2 20.9804 101.294 70.4179
23167 2 18.2536 102.903 70.4486
17537 1 11.8868 104.499 71.7962
23197 2 12.7995 106.123 70.5088
17511 1 17.343 104.499 71.7962
17535 1 14.6158 106.109 71.8262
23151 2 15.5266 104.512 70.479
17513 1 20.072 106.109 71.8262
23122 2 20.9829 104.512 70.479
23149 2 18.2558 106.123 70.5088
17536 1 11.8884 107.72 71.8555
17541 1 13.7042 107.756 69.28
17595 1 10.9768 109.366 69.3085
23188 2 12.8012 109.345 70.5663
17501 1 17.3447 107.72 71.8555
17538 1 14.6172 109.331 71.8839
17539 1 16.433 109.366 69.3085
23150 2 15.5285 107.733 70.538
17499 1 20.0735 109.331 71.8839
17514 1 19.1604 107.756 69.28
23116 2 20.9848 107.733 70.538
23152 2 18.2574 109.345 70.5663
17531 1 11.8898 110.942 71.9113
17540 1 13.7055 110.977 69.3361
17593 1 10.9779 112.588 69.3626
23189 2 12.8025 112.568 70.62
17500 1 17.346 110.942 71.9113
17529 1 14.6185 112.554 71.9378
17542 1 16.4342 112.588 69.3626
23139 2 15.53 110.956 70.5937
17502 1 20.0747 112.554 71.9378
17504 1 19.1617 110.977 69.3361
23115 2 20.9863 110.956 70.5937
23137 2 18.2588 112.568 70.62
17547 1 12.7468 96.4369 74.2997
23210 2 10.9795 96.4336 72.8619
22766 2 11.8723 94.8017 75.3163
22768 2 13.7059 94.829 72.8326
23160 2 14.6014 96.4052 75.3449
23161 2 16.4358 96.4336 72.8619
17132 1 15.4751 94.8327 74.2703
22741 2 17.3285 94.8017 75.3163
17518 1 18.203 96.4369 74.2997
23117 2 20.0577 96.4052 75.3449
17125 1 20.9313 94.8327 74.2703
22746 2 19.1621 94.829 72.8326
17548 1 12.7463 99.6479 74.3602
23143 2 11.8743 98.0101 75.3741
23162 2 13.7093 98.0393 72.8918
23194 2 10.9827 99.6462 72.9221
17508 1 15.4747 98.0419 74.3298
23118 2 17.3305 98.0101 75.3741
23141 2 14.6033 99.6161 75.4037
23163 2 16.4389 99.6462 72.9221
17490 1 20.9309 98.0419 74.3298
17506 1 18.2026 99.6479 74.3602
23119 2 20.0595 99.6161 75.4037
23121 2 19.1656 98.0393 72.8918
17533 1 12.7457 102.862 74.4206
23142 2 11.876 101.223 75.4335
23147 2 13.7121 101.254 72.9524
23195 2 10.9855 102.862 72.9825
17507 1 15.4743 101.254 74.3904
23111 2 17.3322 101.223 75.4335
23144 2 14.6049 102.832 75.4622
23145 2 16.4417 102.862 72.9825
17489 1 20.9306 101.254 74.3904
17509 1 18.202 102.862 74.4206
23109 2 20.0611 102.832 75.4622
23120 2 19.1684 101.254 72.9524
17534 1 12.7452 106.081 74.4797
23131 2 11.8774 104.441 75.4909
23146 2 13.7148 104.472 73.0124
23186 2 10.9877 106.083 73.0418
17497 1 15.4735 104.471 74.4504
23110 2 17.3337 104.441 75.4909
23129 2 14.6062 106.052 75.5195
23148 2 16.4439 106.083 73.0418
17488 1 20.9297 104.471 74.4504
17495 1 18.2014 106.081 74.4797
23112 2 20.0624 106.052 75.5195
23114 2 19.171 104.472 73.0124
17527 1 12.7449 109.302 74.5365
23130 2 11.8786 107.663 75.5475
23135 2 13.7167 107.694 73.0706
23187 2 10.9894 109.306 73.0986
17496 1 15.4731 107.691 74.5085
23104 2 17.3349 107.663 75.5475
23132 2 14.6073 109.276 75.575
23133 2 16.4457 109.306 73.0986
17487 1 20.9293 107.691 74.5085
17498 1 18.2011 109.302 74.5365
23102 2 20.0635 109.276 75.575
23113 2 19.173 107.694 73.0706
17528 1 12.7449 112.525 74.5898
23127 2 11.8797 110.888 75.6017
23134 2 13.7183 110.918 73.1257
23185 2 10.9909 112.531 73.1519
17493 1 15.473 110.913 74.5637
23103 2 17.3359 110.888 75.6017
23125 2 14.6083 112.502 75.6275
23136 2 16.4471 112.531 73.1519
17486 1 20.9292 110.913 74.5637
17491 1 18.2011 112.525 74.5898
23105 2 20.0645 112.502 75.6275
23107 2 19.1745 110.918 73.1257
5567 1 12.7268 113.538 -2.5982
12033 2 11.8244 115.103 -1.13241
12041 2 13.6395 115.132 -3.63688
12048 2 10.9131 113.561 -3.65931
5554 1 15.452 115.11 -2.57539
12003 2 17.2806 115.103 -1.13241
12039 2 14.5536 113.531 -1.15526
12040 2 16.3694 113.561 -3.65931
5556 1 18.1831 113.538 -2.5982
5508 1 20.9083 115.11 -2.57539
12002 2 20.0098 113.531 -1.15526
12006 2 19.0958 115.132 -3.63688
5568 1 12.7211 116.682 -2.55323
12032 2 11.8222 118.245 -1.08869
12037 2 13.6363 118.273 -3.59392
5553 1 15.4466 118.253 -2.53178
11997 2 17.2785 118.245 -1.08869
12031 2 14.5514 116.674 -1.1102
12042 2 16.366 116.703 -3.61506
5552 1 18.1774 116.682 -2.55323
5507 1 20.9029 118.253 -2.53178
12004 2 20.0077 116.674 -1.1102
12005 2 19.0925 118.273 -3.59392
8782 2 21.8222 116.703 -3.61506
5564 1 12.716 119.823 -2.5111
12022 2 11.8201 121.385 -1.04807
12036 2 13.6333 121.411 -3.55392
12034 2 14.5493 119.815 -1.06797
5546 1 15.4418 121.393 -2.49125
11996 2 17.2764 121.385 -1.04807
12035 2 16.3629 119.842 -3.57352
5555 1 18.1723 119.823 -2.5111
5506 1 20.8981 121.393 -2.49125
11995 2 20.0055 119.815 -1.06797
12000 2 19.0895 121.411 -3.55392
8783 2 21.8191 119.842 -3.57352
5565 1 12.7116 122.962 -2.47228
12021 2 11.8181 124.524 -1.01095
12026 2 13.6306 124.548 -3.51731
12020 2 14.5472 122.955 -1.02905
5545 1 15.4377 124.531 -2.45422
11983 2 17.2744 124.524 -1.01095
12038 2 16.36 122.98 -3.53517
5544 1 18.1678 122.962 -2.47228
5499 1 20.8939 124.531 -2.45422
11998 2 20.0035 122.955 -1.02905
11999 2 19.0868 124.548 -3.51731
8780 2 21.8163 122.98 -3.53517
5560 1 12.7077 126.1 -2.43711
12014 2 11.8163 127.661 -0.977614
12025 2 13.6282 127.683 -3.48438
12023 2 14.5453 126.093 -0.993795
5532 1 15.4341 127.668 -2.42097
11982 2 17.2725 127.661 -0.977614
12024 2 16.3575 126.115 -3.50037
5547 1 18.164 126.1 -2.43711
5498 1 20.8904 127.668 -2.42097
11981 2 20.0015 126.093 -0.993795
11986 2 19.0844 127.683 -3.48438
8781 2 21.8137 126.115 -3.50037
5561 1 12.7045 129.236 -2.40582
12013 2 11.8146 130.798 -0.948254
12015 2 13.6261 130.816 -3.45534
12012 2 14.5435 129.23 -0.962428
5531 1 15.4312 130.804 -2.39168
11965 2 17.2708 130.798 -0.948254
12027 2 16.3552 129.25 -3.46936
5530 1 18.1607 129.236 -2.40582
5483 1 20.8874 130.804 -2.39168
11984 2 19.9997 129.23 -0.962428
11985 2 19.0823 130.816 -3.45534
8779 2 21.8114 129.25 -3.46936
5550 1 13.6416 115.084 0.0895948
5566 1 10.9149 113.512 0.066592
12029 2 12.7344 113.499 1.39775
5549 1 16.3712 113.512 0.066592
11993 2 15.4613 115.072 1.42086
5505 1 19.0979 115.084 0.0895948
11940 2 20.9175 115.072 1.42086
12001 2 18.1907 113.499 1.39775
5542 1 13.6389 118.228 0.133575
12030 2 12.7319 116.644 1.44331
5551 1 16.3684 116.656 0.111947
11992 2 15.4587 118.215 1.46503
5504 1 19.0951 118.228 0.133575
11939 2 20.915 118.215 1.46503
11991 2 18.1881 116.644 1.44331
2490 1 21.8246 116.656 0.111947
5541 1 13.6363 121.369 0.174414
12018 2 12.7294 119.786 1.48595
5540 1 16.3657 119.799 0.154415
11979 2 15.4563 121.357 1.50602
11994 2 18.1856 119.786 1.48595
5497 1 19.0926 121.369 0.174414
11938 2 20.9126 121.357 1.50602
2491 1 21.8219 119.799 0.154415
5528 1 13.6339 124.509 0.211709
12019 2 12.7271 122.928 1.5252
5543 1 16.3632 122.939 0.193524
11978 2 15.4541 124.498 1.54344
11977 2 18.1833 122.928 1.5252
5496 1 19.0902 124.509 0.211709
11931 2 20.9103 124.498 1.54344
2486 1 21.8194 122.939 0.193524
5527 1 13.6317 127.648 0.24518
12010 2 12.7249 126.069 1.56072
5526 1 16.3609 126.079 0.228936
11964 2 15.452 127.638 1.57701
11980 2 18.1811 126.069 1.56072
5482 1 19.088 127.648 0.24518
11930 2 20.9082 127.638 1.57701
2487 1 21.8172 126.079 0.228936
5517 1 13.6298 130.786 0.274644
12011 2 12.7229 129.208 1.5923
5529 1 16.3589 129.217 0.260421
11963 2 15.4502 130.778 1.60655
11962 2 18.1792 129.208 1.5923
5481 1 19.0861 130.786 0.274644
11915 2 20.9064 130.778 1.60655
2485 1 21.8151 129.217 0.260421
5538 1 11.8232 115.055 2.68643
5534 1 12.7334 113.454 5.24486
11989 2 13.6418 115.042 3.98755
12028 2 10.9151 113.469 3.96424
5502 1 17.2794 115.055 2.68643
5548 1 14.5528 113.482 2.66314
5490 1 15.4599 115.027 5.26831
11988 2 16.3714 113.469 3.96424
5501 1 20.009 113.482 2.66314
5436 1 20.9161 115.027 5.26831
5500 1 18.1896 113.454 5.24486
11937 2 19.098 115.042 3.98755
5537 1 11.8204 118.199 2.73091
5536 1 14.5499 116.627 2.70905
5535 1 12.7303 116.6 5.29105
11975 2 13.6389 118.187 4.03203
5494 1 17.2767 118.199 2.73091
5489 1 15.4569 118.173 5.31302
11990 2 16.3685 116.615 4.01017
5488 1 18.1865 116.6 5.29105
5503 1 20.0062 116.627 2.70905
5435 1 20.9131 118.173 5.31302
11936 2 19.0952 118.187 4.03203
8752 2 21.8247 116.615 4.01017
5524 1 11.8178 121.343 2.77215
5539 1 14.5472 119.771 2.75196
5520 1 12.7273 119.745 5.33414
11974 2 13.6362 121.331 4.07326
5493 1 17.274 121.343 2.77215
5475 1 15.4541 121.318 5.35439
11973 2 16.3657 119.759 4.05308
5491 1 18.1836 119.745 5.33414
5492 1 20.0034 119.771 2.75196
5434 1 20.9103 121.318 5.35439
11929 2 19.0925 121.331 4.07326
8753 2 21.8219 119.759 4.05308
5523 1 11.8153 124.485 2.80976
5522 1 14.5447 122.914 2.79143
5521 1 12.7246 122.89 5.37371
11960 2 13.6338 124.474 4.11085
5479 1 17.2716 124.485 2.80976
5474 1 15.4515 124.462 5.39207
11976 2 16.3631 122.903 4.09253
5473 1 18.1809 122.89 5.37371
5495 1 20.0009 122.914 2.79143
5427 1 20.9077 124.462 5.39207
11928 2 19.09 124.474 4.11085
8744 2 21.8193 122.903 4.09253
5516 1 11.8131 127.627 2.84346
5525 1 14.5423 126.056 2.82711
5512 1 12.7222 126.034 5.40945
11959 2 13.6315 127.617 4.14454
5478 1 17.2694 127.627 2.84346
5460 1 15.4492 127.606 5.42581
11958 2 16.3607 126.046 4.12819
5476 1 18.1784 126.034 5.40945
5477 1 19.9986 126.056 2.82711
5426 1 20.9054 127.606 5.42581
11914 2 19.0878 127.617 4.14454
8745 2 21.817 126.046 4.12819
5515 1 11.8112 130.767 2.8731
5514 1 14.5402 129.197 2.8588
5513 1 12.72 129.178 5.44116
11949 2 13.6296 130.759 4.17415
5461 1 17.2674 130.767 2.8731
5459 1 15.4472 130.75 5.45546
11961 2 16.3586 129.188 4.15986
5458 1 18.1763 129.178 5.44116
5480 1 19.9965 129.197 2.8588
5412 1 20.9034 130.75 5.45546
11913 2 19.0858 130.759 4.17415
8743 2 21.8149 129.188 4.15986
5486 1 13.6399 115 7.84566
5533 1 10.9134 113.427 7.82218
11967 2 12.7314 113.414 9.11074
11971 2 11.8218 115.014 6.55982
5485 1 16.3697 113.427 7.82218
11922 2 15.4578 114.987 9.13407
11934 2 17.278 115.014 6.55982
11987 2 14.5515 113.441 6.53646
5433 1 19.0961 115 7.84566
11880 2 20.914 114.987 9.13407
11932 2 18.1876 113.414 9.11074
11933 2 20.0077 113.441 6.53646
5471 1 13.6367 118.147 7.89034
11968 2 12.7281 116.561 9.15665
11970 2 11.8187 118.16 6.60433
11969 2 14.5483 116.587 6.58246
5487 1 16.3664 116.574 7.8684
11921 2 15.4546 118.135 9.17843
11926 2 17.2749 118.16 6.60433
11920 2 18.1843 116.561 9.15665
5432 1 19.0929 118.147 7.89034
11879 2 20.9108 118.135 9.17843
11935 2 20.0046 116.587 6.58246
2446 1 21.8226 116.574 7.8684
5470 1 13.6338 121.293 7.93162
11952 2 12.725 119.708 9.19936
11956 2 11.8159 121.306 6.64551
11972 2 14.5454 119.733 6.62536
11953 2 12.7222 122.855 9.23851
5469 1 16.3633 119.72 7.91143
11907 2 15.4517 121.282 9.2194
11925 2 17.2721 121.306 6.64551
11923 2 18.1812 119.708 9.19936
11905 2 18.1785 122.855 9.23851
5425 1 19.09 121.293 7.93162
11878 2 20.9079 121.282 9.2194
11924 2 20.0016 119.733 6.62536
2447 1 21.8195 119.72 7.91143
5456 1 13.6311 124.44 7.96917
11955 2 11.8133 124.451 6.68302
11954 2 14.5427 122.879 6.66474
5472 1 16.3605 122.867 7.95088
11911 2 17.2695 124.451 6.68302
5424 1 19.0874 124.44 7.96917
11927 2 19.9989 122.879 6.66474
2438 1 21.8168 122.867 7.95088
5455 1 13.6288 127.586 8.00277
11948 2 11.811 127.596 6.71661
11957 2 14.5402 126.024 6.70031
5454 1 16.358 126.013 7.98647
11910 2 17.2673 127.596 6.71661
5411 1 19.085 127.586 8.00277
11909 2 19.9965 126.024 6.70031
2439 1 21.8143 126.013 7.98647
5445 1 13.6268 130.732 8.03228
11947 2 11.809 130.741 6.74613
11946 2 14.5381 129.169 6.73189
5457 1 16.3559 129.159 8.01804
11896 2 17.2653 130.741 6.74613
5869 1 16.354 132.305 8.04547
5410 1 19.083 130.732 8.03228
11912 2 19.9943 129.169 6.73189
2437 1 21.8121 129.159 8.01804
2845 1 21.8102 132.305 8.04547
5467 1 11.8195 114.974 10.4218
11918 2 13.6373 114.961 11.7093
5465 1 14.5459 116.548 10.4444
5430 1 17.2757 114.974 10.4218
11919 2 16.3638 116.535 11.7317
11877 2 19.0935 114.961 11.7093
5431 1 20.0022 116.548 10.4444
8686 2 21.82 116.535 11.7317
5466 1 11.8162 118.122 10.4662
11903 2 13.6341 118.109 11.7533
5468 1 14.5428 119.696 10.4872
5422 1 17.2725 118.122 10.4662
11901 2 16.3607 119.683 11.774
11876 2 19.0903 118.109 11.7533
5420 1 19.9991 119.696 10.4872
8687 2 21.8169 119.683 11.774
5452 1 11.8133 121.27 10.5072
11902 2 13.6312 121.258 11.7938
5450 1 14.5401 122.844 10.5263
5421 1 17.2695 121.27 10.5072
11904 2 16.358 122.833 11.8127
11870 2 19.0874 121.258 11.7938
5423 1 19.9963 122.844 10.5263
8678 2 21.8142 122.833 11.8127
5451 1 11.8107 124.418 10.5444
11891 2 13.6287 124.407 11.8307
5453 1 14.5376 125.992 10.5616
11944 2 12.7198 126.003 9.27384
11906 2 15.4491 124.429 9.25667
5408 1 17.2669 124.418 10.5444
11889 2 16.3556 125.982 11.8477
11908 2 18.176 126.003 9.27384
11872 2 20.9053 124.429 9.25667
11869 2 19.0849 124.407 11.8307
5406 1 19.9939 125.992 10.5616
8679 2 21.8119 125.982 11.8477
5444 1 11.8084 127.567 10.5777
11890 2 13.6265 127.557 11.8637
11945 2 12.7177 129.15 9.30519
5442 1 14.5355 129.141 10.5929
11895 2 15.4468 127.576 9.29003
5407 1 17.2646 127.567 10.5777
11893 2 18.1739 129.15 9.30519
11892 2 16.3536 129.132 11.8787
11871 2 20.9031 127.576 9.29003
11863 2 19.0827 127.557 11.8637
5409 1 19.9917 129.141 10.5929
8677 2 21.8099 129.132 11.8787
5443 1 11.8064 130.715 10.607
11884 2 13.6246 130.707 11.8927
12375 2 12.7159 132.298 9.33245
5868 1 14.5337 132.29 10.62
11894 2 15.4449 130.724 9.31934
5397 1 17.2627 130.715 10.607
12340 2 18.1721 132.298 9.33245
12325 2 16.3519 132.282 11.9056
11864 2 20.9011 130.724 9.31934
11862 2 19.0808 130.707 11.8927
5813 1 19.99 132.29 10.62
9110 2 21.8081 132.282 11.9056
5414 1 13.6341 114.921 15.574
11899 2 11.8165 114.934 14.285
5464 1 12.7253 116.522 13.0202
11897 2 14.543 116.509 14.3071
5418 1 15.4551 114.948 12.9978
11874 2 17.2727 114.934 14.285
5415 1 16.3606 116.496 15.596
5416 1 18.1815 116.522 13.0202
5385 1 19.0903 114.921 15.574
5388 1 20.9113 114.948 12.9978
2374 1 21.8168 116.496 15.596
11875 2 19.9992 116.509 14.3071
5400 1 13.6309 118.071 15.6172
11898 2 11.8133 118.084 14.3285
5448 1 12.7222 119.671 13.0625
11900 2 14.54 119.659 14.3489
5417 1 15.4518 118.096 13.0418
11867 2 17.2696 118.084 14.3285
5398 1 16.3577 119.646 15.6376
5419 1 18.1784 119.671 13.0625
2375 1 21.8139 119.646 15.6376
5384 1 19.0872 118.071 15.6172
5387 1 20.908 118.096 13.0418
11865 2 19.9963 119.659 14.3489
11885 2 14.5375 122.81 14.3871
5399 1 13.6283 121.222 15.657
11887 2 11.8106 121.234 14.3684
5449 1 12.7195 122.821 13.1011
5402 1 18.1758 122.821 13.1011
5404 1 15.4489 121.246 13.0822
11866 2 17.2668 121.234 14.3684
5401 1 16.3552 122.798 15.6755
11868 2 19.9937 122.81 14.3871
2366 1 21.8114 122.798 15.6755
5381 1 19.0845 121.222 15.657
5386 1 20.9052 121.246 13.0822
11888 2 14.5353 125.962 14.4215
5440 1 12.7172 125.972 13.1359
5392 1 13.626 124.375 15.693
11886 2 11.8082 124.386 14.4047
5405 1 18.1734 125.972 13.1359
5390 1 16.3531 125.951 15.7096
11860 2 17.2644 124.386 14.4047
5403 1 15.4464 124.396 13.1189
11858 2 19.9915 125.962 14.4215
5383 1 20.9027 124.396 13.1189
5380 1 19.0822 124.375 15.693
2367 1 21.8093 125.951 15.7096
11881 2 14.5334 129.114 14.452
5441 1 12.7152 129.123 13.1667
11883 2 11.8062 127.538 14.4372
5391 1 13.624 127.528 15.7253
5394 1 18.1715 129.123 13.1667
5393 1 16.3513 129.105 15.74
11859 2 17.2624 127.538 14.4372
5396 1 15.4443 127.547 13.1518
11861 2 19.9897 129.114 14.452
5382 1 20.9005 127.547 13.1518
5378 1 19.0803 127.528 15.7253
2365 1 21.8075 129.105 15.74
11882 2 11.8045 130.69 14.4658
5389 1 13.6224 130.682 15.7536
5847 1 12.7136 132.274 13.1935
12324 2 14.5319 132.267 14.4785
5797 1 16.3498 132.259 15.7663
5812 1 18.1698 132.274 13.1935
5395 1 15.4425 130.699 13.1806
11857 2 17.2607 130.69 14.4658
12281 2 19.9881 132.267 14.4785
2774 1 21.8061 132.259 15.7663
5377 1 19.0787 130.682 15.7536
5379 1 20.8987 130.699 13.1806
5758 1 11.8128 114.893 18.1503
12240 2 12.722 116.482 16.8828
5756 1 14.5394 116.469 18.1719
12226 2 15.4516 114.907 16.861
5735 1 17.269 114.893 18.1503
12224 2 18.1782 116.482 16.8828
12180 2 20.9079 114.907 16.861
5736 1 19.9956 116.469 18.1719
5757 1 11.8099 118.045 18.1926
12236 2 12.7192 119.634 16.9238
5759 1 14.5368 119.621 18.2125
12225 2 15.4487 118.058 16.9037
5731 1 17.2661 118.045 18.1926
12227 2 18.1755 119.634 16.9238
12179 2 20.9049 118.058 16.9037
5729 1 19.993 119.621 18.2125
5751 1 11.8075 121.198 18.2315
12237 2 12.7169 122.787 16.9612
5749 1 14.5346 122.775 18.2496
12218 2 15.4461 121.21 16.9429
5730 1 17.2638 121.198 18.2315
12216 2 18.1732 122.787 16.9612
12178 2 20.9024 121.21 16.9429
5732 1 19.9908 122.775 18.2496
5750 1 11.8055 124.353 18.2667
12232 2 12.715 125.941 16.9949
5752 1 14.5328 125.931 18.283
12217 2 15.444 124.364 16.9785
5719 1 17.2618 124.353 18.2667
12219 2 18.1712 125.941 16.9949
12171 2 20.9003 124.364 16.9785
5717 1 19.989 125.931 18.283
5744 1 11.8039 127.509 18.2983
12233 2 12.7134 129.096 17.0249
5742 1 14.5313 129.087 18.3126
5718 1 17.2601 127.509 18.2983
12204 2 15.4422 127.519 17.0104
12202 2 18.1696 129.096 17.0249
12170 2 20.8985 127.519 17.0104
5720 1 19.9875 129.087 18.3126
5743 1 11.8026 130.665 18.3261
12647 2 12.712 132.252 17.0509
6144 1 14.5301 132.244 18.3385
5701 1 17.2588 130.665 18.3261
12203 2 15.4408 130.674 17.0384
12636 2 18.1683 132.252 17.0509
12155 2 20.897 130.674 17.0384
6118 1 19.9863 132.244 18.3385
12222 2 13.6303 114.878 19.4372
12210 2 11.8088 114.849 22.0131
5755 1 12.7181 116.441 20.7475
12208 2 14.5357 116.426 22.0338
12223 2 16.357 116.455 19.4584
5727 1 15.4475 114.864 20.7265
12174 2 17.265 114.849 22.0131
5725 1 18.1743 116.441 20.7475
12177 2 19.0865 114.878 19.4372
5676 1 20.9037 114.864 20.7265
12175 2 19.992 116.426 22.0338
8970 2 21.8133 116.455 19.4584
12214 2 13.6276 118.031 19.4789
12209 2 11.8066 118.004 22.0537
5747 1 12.7159 119.596 20.7871
12211 2 14.5338 119.582 22.0727
12212 2 16.3546 119.609 19.4985
5726 1 15.445 118.018 20.7677
12166 2 17.2628 118.004 22.0537
5728 1 18.1721 119.596 20.7871
12176 2 19.0839 118.031 19.4789
5675 1 20.9013 118.018 20.7677
12164 2 19.99 119.582 22.0727
8971 2 21.8108 119.609 19.4985
12213 2 13.6255 121.186 19.5172
12196 2 11.8049 121.161 22.0909
5748 1 12.7141 122.752 20.8232
12194 2 14.5323 122.74 22.1083
12215 2 16.3526 122.764 19.535
5715 1 15.4431 121.174 20.8056
12165 2 17.2611 121.161 22.0909
5713 1 18.1703 122.752 20.8232
12169 2 19.0817 121.186 19.5172
5674 1 20.8993 121.174 20.8056
12167 2 19.9885 122.74 22.1083
8966 2 21.8089 122.764 19.535
12200 2 13.6237 124.342 19.5519
12195 2 11.8035 124.32 22.1248
5740 1 12.7127 125.91 20.8558
12197 2 14.5311 125.9 22.1404
12198 2 16.351 125.921 19.5679
5714 1 15.4415 124.331 20.8399
12151 2 17.2597 124.32 22.1248
5716 1 18.1689 125.91 20.8558
12168 2 19.0799 124.342 19.5519
5667 1 20.8977 124.331 20.8399
12149 2 19.9873 125.9 22.1404
8967 2 21.8073 125.921 19.5679
12199 2 13.6222 127.499 19.5831
12188 2 11.8024 127.48 22.1551
5741 1 12.7115 129.069 20.8847
12186 2 14.5301 129.06 22.169
12201 2 16.3497 129.078 19.5972
5700 1 15.4402 127.49 20.8707
12150 2 17.2587 127.48 22.1551
5698 1 18.1678 129.069 20.8847
12154 2 19.0785 127.499 19.5831
5666 1 20.8964 127.49 20.8707
12152 2 19.9863 129.06 22.169
8965 2 21.806 129.078 19.5972
12189 2 13.621 130.657 19.6105
12187 2 11.8016 130.641 22.1819
6138 1 12.7106 132.229 20.91
12628 2 14.5293 132.221 22.1939
5699 1 15.4392 130.649 20.8978
12133 2 17.2578 130.641 22.1819
12629 2 16.3487 132.237 19.6228
6117 1 18.1668 132.229 20.91
12153 2 19.0773 130.657 19.6105
5651 1 20.8954 130.649 20.8978
12581 2 19.9856 132.221 22.1939
9382 2 21.8049 132.237 19.6228
5707 1 11.8044 114.802 25.8774
5723 1 13.6259 114.833 23.3023
12207 2 12.7145 116.396 24.6085
5705 1 14.5318 116.381 25.8971
5670 1 17.2606 114.802 25.8774
12162 2 15.4435 114.818 24.5884
5724 1 16.353 116.411 23.3227
12160 2 18.1708 116.396 24.6085
5673 1 19.0821 114.833 23.3023
12108 2 20.8998 114.818 24.5884
5671 1 19.988 116.381 25.8971
2673 1 21.8092 116.411 23.3227
5706 1 11.8031 117.961 25.9161
5711 1 13.624 117.99 23.3423
12192 2 12.7132 119.556 24.6463
5662 1 17.2593 117.961 25.9161
12161 2 15.4419 117.976 24.6278
5709 1 16.3513 119.569 23.3611
12163 2 18.1694 119.556 24.6463
5672 1 19.0802 117.99 23.3423
12107 2 20.8981 117.976 24.6278
2674 1 21.8075 119.569 23.3611
5710 1 13.6225 121.149 23.379
12193 2 12.7121 122.716 24.6808
12147 2 15.4407 121.136 24.664
5712 1 16.35 122.728 23.3962
12145 2 18.1684 122.716 24.6808
5665 1 19.0787 121.149 23.379
12106 2 20.897 121.136 24.664
2666 1 21.8063 122.728 23.3962
5696 1 13.6214 124.309 23.4124
12184 2 12.7114 125.879 24.7121
12146 2 15.4399 124.297 24.6969
5694 1 16.349 125.889 23.4279
12148 2 18.1676 125.879 24.7121
5664 1 19.0776 124.309 23.4124
12099 2 20.8961 124.297 24.6969
2667 1 21.8053 125.889 23.4279
5695 1 13.6205 127.47 23.4424
12185 2 12.7108 129.042 24.7399
12132 2 15.4392 127.46 24.7264
5697 1 16.3483 129.051 23.4561
12130 2 18.1671 129.042 24.7399
5650 1 19.0767 127.47 23.4424
12098 2 20.8954 127.46 24.7264
2665 1 21.8045 129.051 23.4561
5685 1 13.6198 130.632 23.4689
12614 2 12.7104 132.206 24.7643
12131 2 15.4387 130.624 24.7526
6106 1 16.3477 132.214 23.4808
12580 2 18.1666 132.206 24.7643
5649 1 19.0761 130.632 23.4689
12084 2 20.8949 130.624 24.7526
3065 1 21.8039 132.214 23.4808
12158 2 13.6222 114.785 27.1629
5704 1 12.711 116.349 28.4704
5658 1 15.4394 114.768 28.4513
12159 2 16.3498 116.365 27.1823
5656 1 18.1672 116.349 28.4704
8926 2 21.8061 116.365 27.1823
5610 1 20.8956 114.768 28.4513
12105 2 19.0785 114.785 27.1629
5708 1 14.5307 119.542 25.9343
12143 2 13.6213 117.946 27.2009
5688 1 12.7106 119.514 28.5063
5657 1 15.4389 117.931 28.4887
12141 2 16.3491 119.528 27.2189
5659 1 18.1668 119.514 28.5063
8927 2 21.8053 119.528 27.2189
5660 1 19.987 119.542 25.9343
5609 1 20.8951 117.931 28.4887
12104 2 19.0775 117.946 27.2009
5692 1 11.8022 121.123 25.9517
5690 1 14.53 122.704 25.9683
12142 2 13.6207 121.11 27.236
5689 1 12.7105 122.679 28.5394
5661 1 17.2585 121.123 25.9517
5643 1 15.4386 121.096 28.5232
12144 2 16.3486 122.692 27.2524
5641 1 18.1667 122.679 28.5394
8918 2 21.8049 122.692 27.2524
5663 1 19.9863 122.704 25.9683
5608 1 20.8949 121.096 28.5232
12097 2 19.077 121.11 27.236
5691 1 11.8016 124.286 25.9841
5693 1 14.5295 125.868 25.9991
12128 2 13.6204 124.274 27.268
5680 1 12.7105 125.846 28.5694
5647 1 17.2579 124.286 25.9841
5642 1 15.4386 124.263 28.5548
12126 2 16.3484 125.857 27.2828
5644 1 18.1667 125.846 28.5694
8919 2 21.8046 125.857 27.2828
5645 1 19.9857 125.868 25.9991
5601 1 20.8948 124.263 28.5548
12096 2 19.0766 124.274 27.268
5684 1 11.8012 127.45 26.0133
5682 1 14.5292 129.033 26.0267
12127 2 13.6201 127.44 27.2968
5681 1 12.7105 129.015 28.5963
5646 1 17.2574 127.45 26.0133
5629 1 15.4386 127.43 28.5833
12129 2 16.3482 129.024 27.31
5627 1 18.1667 129.015 28.5963
8917 2 21.8044 129.024 27.31
5648 1 19.9854 129.033 26.0267
5600 1 20.8948 127.43 28.5833
12083 2 19.0764 127.44 27.2968
5683 1 11.8009 130.616 26.0392
12117 2 13.62 130.607 27.3224
6105 1 14.5289 132.199 26.0508
6087 1 12.7106 132.183 28.6199
5630 1 17.2571 130.616 26.0392
5628 1 15.4387 130.599 28.6085
12565 2 16.3481 132.191 27.3339
6052 1 18.1668 132.183 28.6199
5589 1 20.8949 130.599 28.6085
12082 2 19.0763 130.607 27.3224
6053 1 19.9851 132.199 26.0508
9349 2 21.8043 132.191 27.3339
5654 1 13.6188 114.733 31.0236
12139 2 11.8014 114.751 29.7359
12136 2 12.7096 116.3 32.3255
12137 2 14.5294 116.333 29.7547
12090 2 15.4375 114.716 32.3072
12102 2 17.2576 114.751 29.7359
5655 1 16.347 116.317 31.0421
12088 2 18.1658 116.3 32.3255
2614 1 21.8032 116.317 31.0421
5607 1 19.075 114.733 31.0236
12060 2 20.8937 114.716 32.3072
12103 2 19.9856 116.333 29.7547
5639 1 13.619 117.901 31.0599
12138 2 11.8012 117.916 29.7728
12120 2 12.7102 119.47 32.3601
12140 2 14.5293 119.499 29.7902
12089 2 15.438 117.885 32.3431
12094 2 17.2574 117.916 29.7728
5637 1 16.3473 119.485 31.077
12091 2 18.1664 119.47 32.3601
2615 1 21.8036 119.485 31.077
5606 1 19.0753 117.901 31.0599
12059 2 20.8942 117.885 32.3431
12092 2 19.9855 119.499 29.7902
5638 1 13.6194 121.069 31.0935
12124 2 11.8012 121.083 29.8069
12121 2 12.7108 122.641 32.392
12122 2 14.5294 122.667 29.8229
12076 2 15.4386 121.056 32.3764
12093 2 17.2575 121.083 29.8069
5640 1 16.3477 122.654 31.1092
12074 2 18.1671 122.641 32.392
2606 1 21.804 122.654 31.1092
5599 1 19.0756 121.069 31.0935
12058 2 20.8949 121.056 32.3764
12095 2 19.9857 122.667 29.8229
5625 1 13.6199 124.239 31.1243
12123 2 11.8014 124.251 29.8381
12112 2 12.7115 125.814 32.4211
12125 2 14.5296 125.836 29.8526
12075 2 15.4393 124.227 32.4069
12080 2 17.2576 124.251 29.8381
5623 1 16.3482 125.825 31.1386
12077 2 18.1677 125.814 32.4211
2607 1 21.8044 125.825 31.1386
5598 1 19.0761 124.239 31.1243
12055 2 20.8955 124.227 32.4069
12078 2 19.9859 125.836 29.8526
5624 1 13.6203 127.41 31.1521
12116 2 11.8016 127.42 29.8662
12113 2 12.7121 128.987 32.4471
12114 2 14.5298 129.005 29.8791
12068 2 15.4399 127.4 32.4345
12079 2 17.2578 127.42 29.8662
5626 1 16.3486 128.996 31.1649
12066 2 18.1683 128.987 32.4471
2605 1 21.8049 128.996 31.1649
5588 1 19.0766 127.41 31.1521
12054 2 20.8961 127.4 32.4345
12081 2 19.9861 129.005 29.8791
5616 1 13.6207 130.582 31.1768
12115 2 11.8018 130.591 29.8912
12543 2 12.7126 132.16 32.4701
12564 2 14.5301 132.176 29.9025
12067 2 15.4405 130.573 32.459
12069 2 17.2581 130.591 29.8912
6037 1 16.349 132.168 31.188
12508 2 18.1688 132.16 32.4701
5587 1 19.077 130.582 31.1768
12051 2 20.8967 130.573 32.459
3014 1 21.8053 132.168 31.188
12509 2 19.9863 132.176 29.9025
5635 1 11.799 114.697 33.594
12086 2 13.6183 114.679 34.8764
5633 1 14.5276 116.283 33.612
5604 1 17.2552 114.697 33.594
12087 2 16.347 116.266 34.8943
8854 2 21.8032 116.266 34.8943
12057 2 19.0745 114.679 34.8764
5605 1 19.9838 116.283 33.612
5636 1 14.5286 119.455 33.6461
5634 1 11.8 117.869 33.6293
12072 2 13.6195 117.853 34.9115
12070 2 16.3482 119.44 34.9282
5596 1 17.2562 117.869 33.6293
8855 2 21.8044 119.44 34.9282
5594 1 19.9848 119.455 33.6461
12056 2 19.0757 117.853 34.9115
5619 1 14.5295 122.628 33.6776
5621 1 11.8009 121.042 33.6622
12071 2 13.6206 121.028 34.9442
12073 2 16.3493 122.615 34.9596
5595 1 17.2572 121.042 33.6622
8846 2 21.8055 122.615 34.9596
5597 1 19.9857 122.628 33.6776
12053 2 19.0769 121.028 34.9442
5622 1 14.5304 125.803 33.7064
12064 2 13.6217 124.203 34.9743
5620 1 11.8018 124.215 33.6924
12062 2 16.3503 125.791 34.9882
5585 1 17.2581 124.215 33.6924
8847 2 21.8066 125.791 34.9882
5583 1 19.9866 125.803 33.7064
12052 2 19.0779 124.203 34.9743
5613 1 14.5312 128.977 33.7323
12063 2 13.6227 127.38 35.0015
5615 1 11.8027 127.39 33.7198
12065 2 16.3512 128.968 35.014
5584 1 17.2589 127.39 33.7198
5586 1 19.9874 128.977 33.7323
12050 2 19.0789 127.38 35.0015
8845 2 21.8075 128.968 35.014
12061 2 13.6235 130.556 35.0257
5614 1 11.8034 130.565 33.7441
6036 1 14.5319 132.153 33.7551
5578 1 17.2597 130.565 33.7441
12493 2 16.352 132.145 35.0367
12049 2 19.0797 130.556 35.0257
9278 2 21.8082 132.145 35.0367
5987 1 19.9881 132.153 33.7551
12262 2 11.8002 114.642 37.4432
17451 1 13.6191 114.623 38.7277
5632 1 12.7092 116.249 36.1798
12260 2 14.5292 116.231 37.4609
12251 2 17.2565 114.642 37.4432
5592 1 15.4365 114.661 36.1621
17836 1 16.3482 116.214 38.7453
5590 1 18.1654 116.249 36.1798
5574 1 20.8928 114.661 36.1621
17421 1 19.0753 114.623 38.7277
12252 2 19.9855 116.231 37.4609
15024 1 21.8045 116.214 38.7453
12261 2 11.8019 117.821 37.478
17837 1 13.6211 117.804 38.7623
5617 1 12.7107 119.425 36.2134
12263 2 14.5309 119.41 37.4945
12248 2 17.2582 117.821 37.478
5591 1 15.4381 117.837 36.1969
17838 1 16.3501 119.395 38.7787
5593 1 18.167 119.425 36.2134
17802 1 19.0773 117.804 38.7623
5573 1 20.8943 117.837 36.1969
12246 2 19.9871 119.41 37.4945
15022 1 21.8064 119.395 38.7787
12258 2 11.8035 121 37.5104
17833 1 13.6229 120.985 38.7945
5618 1 12.7121 122.602 36.2445
12256 2 14.5324 122.589 37.5256
12247 2 17.2597 121 37.5104
5581 1 15.4395 121.014 36.2293
17831 1 16.3518 122.576 38.8097
5579 1 18.1683 122.602 36.2445
17801 1 19.0791 120.985 38.7945
5572 1 20.8958 121.014 36.2293
12249 2 19.9886 122.589 37.5256
15023 1 21.8081 122.576 38.8097
12257 2 11.8049 124.179 37.5402
17832 1 13.6245 124.167 38.8242
5611 1 12.7133 125.78 36.273
12259 2 14.5337 125.769 37.554
12244 2 17.2612 124.179 37.5402
5580 1 15.4409 124.191 36.2591
17834 1 16.3533 125.758 38.838
5582 1 18.1696 125.78 36.273
17796 1 19.0807 124.167 38.8242
5571 1 20.8971 124.191 36.2591
12242 2 19.9899 125.769 37.554
15020 1 21.8096 125.758 38.838
12255 2 11.8062 127.359 37.5672
17822 1 13.6259 127.348 38.8511
5612 1 12.7144 128.958 36.2985
12253 2 14.5348 128.949 37.5796
12243 2 17.2624 127.359 37.5672
17820 1 16.3546 128.939 38.8635
5577 1 15.442 127.369 36.2861
5575 1 18.1707 128.958 36.2985
17795 1 19.0821 127.348 38.8511
5570 1 20.8983 127.369 36.2861
12245 2 19.9911 128.949 37.5796
15021 1 21.8109 128.939 38.8635
12254 2 11.8072 130.539 37.5912
17821 1 13.6271 130.53 38.8751
6015 1 12.7153 132.137 36.3211
12672 2 14.5358 132.129 37.6021
12241 2 17.2635 130.539 37.5912
17823 1 16.3557 132.121 38.8859
5576 1 15.443 130.548 36.3102
5986 1 18.1716 132.137 36.3211
17782 1 19.0833 130.53 38.8751
5569 1 20.8992 130.548 36.3102
15019 1 21.8119 132.121 38.8859
12658 2 19.992 132.129 37.6021
23459 2 12.7126 116.196 40.0252
17449 1 11.8029 114.586 41.2907
23049 2 13.6243 114.567 42.5692
17835 1 14.5322 116.178 41.3084
23441 2 16.3535 116.161 42.5872
17401 1 17.2592 114.586 41.2907
23063 2 15.4397 114.605 40.0075
23448 2 18.1689 116.196 40.0252
17798 1 19.9885 116.178 41.3084
23013 2 19.0805 114.567 42.5692
23015 2 20.8959 114.605 40.0075
20638 2 21.8098 116.161 42.5872
23460 2 12.7146 119.379 40.0589
17829 1 11.8052 117.771 41.3256
17827 1 14.5344 119.364 41.3421
23446 2 15.4418 117.788 40.0423
17799 1 17.2615 117.771 41.3256
23444 2 18.1708 119.379 40.0589
17800 1 19.9906 119.364 41.3421
23400 2 20.898 117.788 40.0423
23456 2 12.7163 122.563 40.09
17828 1 11.8073 120.957 41.358
17830 1 14.5363 122.549 41.3733
23445 2 15.4436 120.971 40.0748
17793 1 17.2635 120.957 41.358
23447 2 18.1726 122.563 40.09
17791 1 19.9925 122.549 41.3733
23399 2 20.8999 120.971 40.0748
23457 2 12.7179 125.746 40.1184
17818 1 11.809 124.142 41.3878
17816 1 14.5379 125.735 41.4017
23438 2 15.4453 124.154 40.1045
17792 1 17.2653 124.142 41.3878
23436 2 18.1741 125.746 40.1184
17794 1 19.9942 125.735 41.4017
23398 2 20.9015 124.154 40.1045
23452 2 12.7192 128.93 40.1439
17817 1 11.8106 127.327 41.4148
17819 1 14.5394 128.92 41.4272
23437 2 15.4467 127.338 40.1315
17779 1 17.2668 127.327 41.4148
23439 2 18.1754 128.93 40.1439
17777 1 19.9956 128.92 41.4272
23391 2 20.9029 127.338 40.1315
23453 2 12.7203 132.113 40.1663
17810 1 11.8119 130.513 41.4388
17808 1 14.5406 132.105 41.4496
17778 1 17.2681 130.513 41.4388
23424 2 15.4479 130.521 40.1555
23422 2 18.1765 132.113 40.1663
17780 1 19.9968 132.105 41.4496
23390 2 20.9041 130.521 40.1555
17825 1 12.7175 116.143 43.8693
23047 2 11.8101 114.529 45.1285
23440 2 14.5394 116.126 45.1469
17399 1 15.4444 114.548 43.8512
22994 2 17.2664 114.529 45.1285
17797 1 18.1737 116.143 43.8693
23393 2 19.9956 116.126 45.1469
17351 1 20.9006 114.548 43.8512
23442 2 13.6265 117.755 42.6045
17826 1 12.7197 119.333 43.9035
23430 2 11.8123 117.722 45.1647
23428 2 14.5415 119.318 45.1818
23443 2 16.3556 119.349 42.6213
17789 1 15.4468 117.738 43.8867
23394 2 17.2686 117.722 45.1647
17787 1 18.176 119.333 43.9035
23397 2 19.0827 117.755 42.6045
17736 1 20.903 117.738 43.8867
23395 2 19.9977 119.318 45.1818
20634 2 21.8119 119.349 42.6213
23434 2 13.6285 120.942 42.6373
17814 1 12.7217 122.523 43.9351
23429 2 11.8144 120.914 45.1981
23431 2 14.5434 122.509 45.2137
23432 2 16.3575 122.536 42.6527
17788 1 15.4489 120.928 43.9197
23386 2 17.2706 120.914 45.1981
17790 1 18.1779 122.523 43.9351
23396 2 19.0847 120.942 42.6373
17735 1 20.9051 120.928 43.9197
23384 2 19.9996 122.509 45.2137
20635 2 21.8138 122.536 42.6527
23433 2 13.6303 124.13 42.6674
17815 1 12.7234 125.712 43.9639
23416 2 11.8161 124.105 45.2286
23414 2 14.5451 125.7 45.2428
23435 2 16.3592 125.723 42.6813
17775 1 15.4507 124.117 43.9499
23385 2 17.2724 124.105 45.2286
17773 1 18.1797 125.712 43.9639
23389 2 19.0865 124.13 42.6674
17734 1 20.9069 124.117 43.9499
23387 2 20.0013 125.7 45.2428
20630 2 21.8154 125.723 42.6813
23420 2 13.6318 127.317 42.6945
17806 1 12.7249 128.901 43.9896
23415 2 11.8177 127.295 45.2561
23417 2 14.5465 128.891 45.2687
23418 2 16.3606 128.91 42.7069
17774 1 15.4523 127.306 43.9771
23371 2 17.2739 127.295 45.2561
17776 1 18.1811 128.901 43.9896
23388 2 19.088 127.317 42.6945
17727 1 20.9085 127.306 43.9771
23369 2 20.0027 128.891 45.2687
20631 2 21.8168 128.91 42.7069
23419 2 13.6331 130.504 42.7186
17807 1 12.7261 132.089 44.0122
23408 2 11.819 130.486 45.2805
23406 2 14.5477 132.081 45.2914
23421 2 16.3618 132.097 42.7295
17760 1 15.4537 130.495 44.0013
23370 2 17.2752 130.486 45.2805
17758 1 18.1824 132.089 44.0122
23374 2 19.0893 130.504 42.7186
17726 1 20.9099 130.495 44.0013
23372 2 20.0039 132.081 45.2914
20629 2 21.818 132.097 42.7295
23426 2 12.7263 116.091 47.7046
17383 1 11.8186 114.473 48.9652
17385 1 13.6309 114.51 46.4092
17783 1 14.5477 116.073 48.9846
17784 1 16.3602 116.108 46.4279
17332 1 17.2748 114.473 48.9652
22992 2 15.4534 114.492 47.6855
23392 2 18.1826 116.091 47.7046
17729 1 20.004 116.073 48.9846
17349 1 19.0871 114.51 46.4092
22953 2 20.9096 114.492 47.6855
15004 1 21.8164 116.108 46.4279
17767 1 11.8206 117.673 49.0032
17785 1 13.6332 117.705 46.4459
23427 2 12.7283 119.287 47.7405
17765 1 14.5497 119.272 49.021
17730 1 17.2769 117.673 49.0032
17786 1 16.3623 119.302 46.4631
23382 2 15.4555 117.689 47.7229
23380 2 18.1846 119.287 47.7405
17731 1 20.0059 119.272 49.021
17733 1 19.0894 117.705 46.4459
23334 2 20.9117 117.689 47.7229
14992 1 21.8186 119.302 46.4631
17766 1 11.8225 120.87 49.038
17771 1 13.6352 120.899 46.4796
23412 2 12.7302 122.482 47.7733
17722 1 17.2787 120.87 49.038
17768 1 14.5515 122.469 49.0542
17769 1 16.3643 122.496 46.4954
23381 2 15.4574 120.885 47.7573
23383 2 18.1864 122.482 47.7733
14993 1 21.8205 122.496 46.4954
17720 1 20.0077 122.469 49.0542
17732 1 19.0915 120.899 46.4796
23333 2 20.9136 120.885 47.7573
17752 1 11.8242 124.067 49.0695
17770 1 13.637 124.092 46.5104
23413 2 12.7318 125.677 47.8029
17721 1 17.2804 124.067 49.0695
17750 1 14.5531 125.665 49.0841
17772 1 16.366 125.689 46.5246
23367 2 15.4591 124.08 47.7885
14984 1 21.8222 125.689 46.5246
17723 1 20.0093 125.665 49.0841
17725 1 19.0933 124.092 46.5104
23332 2 20.9153 124.08 47.7885
23365 2 18.188 125.677 47.8029
17751 1 11.8257 127.263 49.0978
17756 1 13.6386 127.285 46.5381
23404 2 12.7332 128.871 47.8292
17707 1 17.2819 127.263 49.0978
17753 1 14.5544 128.861 49.1106
17754 1 16.3674 128.881 46.5507
23366 2 15.4606 127.274 47.8164
14985 1 21.8237 128.881 46.5507
17705 1 20.0107 128.861 49.1106
17724 1 19.0948 127.285 46.5381
23325 2 20.9168 127.274 47.8164
23368 2 18.1894 128.871 47.8292
17744 1 11.8269 130.459 49.1227
17755 1 13.6399 130.477 46.5626
23405 2 12.7343 132.065 47.8522
17706 1 17.2832 130.459 49.1227
17742 1 14.5556 132.057 49.1338
17757 1 16.3686 132.073 46.5736
23353 2 15.4619 130.468 47.8411
14983 1 21.8249 132.073 46.5736
17708 1 20.0119 132.057 49.1338
17710 1 19.0962 130.477 46.5626
23324 2 20.9181 130.468 47.8411
23351 2 18.1906 132.065 47.8522
17763 1 12.7362 116.039 51.5396
23425 2 10.9143 116.056 50.2605
22980 2 13.6415 114.455 50.2407
23377 2 16.3705 116.056 50.2605
17330 1 15.4634 114.437 51.5194
17728 1 18.1924 116.039 51.5396
17300 1 20.9196 114.437 51.5194
22951 2 19.0977 114.455 50.2407
17764 1 12.7379 119.241 51.5773
23378 2 13.6433 117.656 50.2795
23410 2 10.9161 119.256 50.2976
17718 1 15.4652 117.64 51.5589
23379 2 16.3723 119.256 50.2976
17676 1 20.9214 117.64 51.5589
17716 1 18.1941 119.241 51.5773
23331 2 19.0996 117.656 50.2795
17748 1 12.7395 122.442 51.6116
23363 2 13.6451 120.856 50.3149
23411 2 10.9177 122.455 50.3313
17717 1 15.4668 120.842 51.5949
23361 2 16.374 122.455 50.3313
17675 1 20.9231 120.842 51.5949
17719 1 18.1957 122.442 51.6116
23330 2 19.1013 120.856 50.3149
17749 1 12.7409 125.642 51.6423
23362 2 13.6466 124.055 50.3469
23402 2 10.9192 125.654 50.3616
17703 1 15.4683 124.042 51.6274
23364 2 16.3755 125.654 50.3616
17674 1 20.9246 124.042 51.6274
17701 1 18.1971 125.642 51.6423
23323 2 19.1029 124.055 50.3469
17740 1 12.7422 128.841 51.6694
23349 2 13.648 127.253 50.3755
23403 2 10.9205 128.851 50.3885
17702 1 15.4697 127.242 51.6563
23347 2 16.3768 128.851 50.3885
17668 1 20.9259 127.242 51.6563
17704 1 18.1984 128.841 51.6694
23322 2 19.1043 127.253 50.3755
17741 1 12.7433 132.04 51.693
23348 2 13.6492 130.45 50.4006
23401 2 10.9217 132.049 50.4119
17691 1 15.4709 130.441 51.6816
23350 2 16.3779 132.049 50.4119
17667 1 20.9271 130.441 51.6816
17689 1 18.1995 132.04 51.693
23312 2 19.1055 130.45 50.4006
17762 1 10.9254 116.005 54.0933
23355 2 12.7487 115.988 55.3681
17320 1 13.6527 114.401 54.0722
22978 2 11.8304 114.419 52.7942
17713 1 16.3816 116.005 54.0933
23376 2 14.5593 116.022 52.8149
22940 2 15.4762 114.384 55.3466
22942 2 17.2866 114.419 52.7942
23326 2 18.2049 115.988 55.3681
23327 2 20.0155 116.022 52.8149
17298 1 19.109 114.401 54.0722
22933 2 20.9324 114.384 55.3466
17714 1 13.6542 117.608 54.1133
17746 1 10.9268 119.211 54.1324
23356 2 12.75 119.196 55.4079
23359 2 11.832 117.624 52.8346
17715 1 16.383 119.211 54.1324
23316 2 15.4775 117.592 55.3885
23328 2 17.2882 117.624 52.8346
23357 2 14.5609 119.226 52.8533
17673 1 19.1105 117.608 54.1133
23298 2 20.9337 117.592 55.3885
23314 2 18.2063 119.196 55.4079
23329 2 20.0171 119.226 52.8533
17699 1 13.6556 120.813 54.1506
17747 1 10.9282 122.415 54.1678
23341 2 12.7513 122.402 55.4438
23358 2 11.8335 120.827 52.8712
17697 1 16.3844 122.415 54.1678
23315 2 15.4788 120.799 55.4264
23320 2 17.2897 120.827 52.8712
23360 2 14.5623 122.429 52.8881
17672 1 19.1118 120.813 54.1506
23297 2 20.935 120.799 55.4264
23317 2 18.2075 122.402 55.4438
23318 2 20.0185 122.429 52.8881
17698 1 13.6569 124.017 54.184
17738 1 10.9294 125.619 54.1993
23342 2 12.7524 125.607 55.4758
23345 2 11.8349 124.029 52.9041
17700 1 16.3857 125.619 54.1993
23305 2 15.48 124.004 55.4603
23319 2 17.2911 124.029 52.9041
23343 2 14.5636 125.63 52.9192
17666 1 19.1132 124.017 54.184
23296 2 20.9362 124.004 55.4603
23303 2 18.2087 125.607 55.4758
23321 2 20.0199 125.63 52.9192
17687 1 13.6581 127.22 54.2136
17739 1 10.9306 128.821 54.2271
23335 2 12.7535 128.811 55.5038
23344 2 11.8361 127.231 52.9334
23346 2 14.5648 128.831 52.9467
23309 2 17.2924 127.231 52.9334
17685 1 16.3868 128.821 54.2271
23304 2 15.4811 127.209 55.4903
23307 2 20.0211 128.831 52.9467
23306 2 18.2098 128.811 55.5038
23295 2 20.9374 127.209 55.4903
17665 1 19.1144 127.22 54.2136
23339 2 11.8373 130.432 52.9591
23336 2 12.7545 132.015 55.5281
17737 1 10.9316 132.024 54.2511
17686 1 13.6592 130.423 54.2395
23337 2 14.5659 132.032 52.9705
23308 2 17.2935 130.432 52.9591
23301 2 15.4821 130.413 55.5164
17688 1 16.3878 132.024 54.2511
23310 2 20.0221 132.032 52.9705
23299 2 18.2107 132.015 55.5281
23294 2 20.9384 130.413 55.5164
17659 1 19.1154 130.423 54.2395
18011 1 12.7615 115.938 59.1979
23652 2 10.9386 115.955 57.9204
17318 1 11.8426 114.366 56.624
23259 2 13.6662 114.349 57.8982
17712 1 14.5714 115.971 56.6459
23644 2 16.3949 115.955 57.9204
17615 1 15.4892 114.332 59.1753
17293 1 17.2989 114.366 56.624
17669 1 20.0276 115.971 56.6459
18000 1 18.2178 115.938 59.1979
17567 1 20.9454 114.332 59.1753
23229 2 19.1224 114.349 57.8982
17695 1 11.8438 117.576 56.6667
18012 1 12.7625 119.151 59.2398
23650 2 10.9397 119.166 57.9616
23645 2 13.6673 117.561 57.9415
17693 1 14.5725 119.18 56.6865
17670 1 17.3001 117.576 56.6667
17998 1 15.4901 117.545 59.2194
23646 2 16.396 119.166 57.9616
17952 1 20.9464 117.545 59.2194
17671 1 20.0288 119.18 56.6865
17996 1 18.2187 119.151 59.2398
23610 2 19.1235 117.561 57.9415
17694 1 11.845 120.785 56.7052
23651 2 10.9408 122.375 57.9985
23641 2 13.6684 120.77 57.9806
17696 1 14.5737 122.388 56.7229
17997 1 15.4911 120.756 59.259
17663 1 17.3012 120.785 56.7052
23639 2 16.397 122.375 57.9985
17951 1 20.9473 120.756 59.259
17661 1 20.0299 122.388 56.7229
23609 2 19.1246 120.77 57.9806
17683 1 11.8461 123.992 56.7396
23648 2 10.9418 125.583 58.0313
23640 2 13.6694 123.979 58.0154
17681 1 14.5748 125.595 56.7553
17662 1 17.3024 123.992 56.7396
23642 2 16.3981 125.583 58.0313
17664 1 20.031 125.595 56.7553
23604 2 19.1257 123.979 58.0154
17682 1 11.8472 127.198 56.77
23649 2 10.9428 128.791 58.06
23630 2 13.6704 127.187 58.0461
17684 1 14.5758 128.801 56.7837
17656 1 17.3034 127.198 56.77
23628 2 16.399 128.791 58.06
17654 1 20.032 128.801 56.7837
23603 2 19.1267 127.187 58.0461
17679 1 11.8482 130.404 56.7964
23647 2 10.9437 131.999 58.0847
23629 2 13.6714 130.395 58.0728
17677 1 14.5767 132.007 56.8082
17655 1 17.3044 130.404 56.7964
23631 2 16.3999 131.999 58.0847
17657 1 20.033 132.007 56.8082
23590 2 19.1276 130.395 58.0728
18010 1 10.952 115.906 61.7496
17601 1 13.6797 114.298 61.7263
23257 2 11.8565 114.315 60.4493
17993 1 16.4082 115.906 61.7496
23643 2 14.5851 115.922 60.4721
23209 2 17.3128 114.315 60.4493
23606 2 20.0414 115.922 60.4721
17565 1 19.1359 114.298 61.7263
17994 1 13.6805 117.514 61.7716
18006 1 10.9528 119.121 61.7925
23637 2 11.8575 117.529 60.4939
17995 1 16.409 119.121 61.7925
23607 2 17.3137 117.529 60.4939
23635 2 14.5861 119.136 60.5145
17949 1 19.1367 117.514 61.7716
23608 2 20.0423 119.136 60.5145
18008 1 12.7635 122.362 59.2772
17986 1 13.6813 120.728 61.8123
18007 1 10.9537 122.335 61.8309
23636 2 11.8584 120.742 60.534
17984 1 16.4099 122.335 61.8309
23601 2 17.3147 120.742 60.534
23638 2 14.587 122.348 60.5524
17999 1 18.2197 122.362 59.2772
17948 1 19.1376 120.728 61.8123
23599 2 20.0432 122.348 60.5524
18009 1 12.7644 125.572 59.3104
17985 1 13.6822 123.942 61.8485
18002 1 10.9545 125.548 61.8649
23626 2 11.8593 123.954 60.5697
17990 1 15.4921 123.967 59.2944
17987 1 16.4108 125.548 61.8649
23600 2 17.3156 123.954 60.5697
23624 2 14.5879 125.56 60.5859
17950 1 20.9483 123.967 59.2944
17988 1 18.2207 125.572 59.3104
17941 1 19.1384 123.942 61.8485
23602 2 20.0442 125.56 60.5859
18004 1 12.7653 128.781 59.3394
17972 1 13.6831 127.155 61.8802
18003 1 10.9554 128.761 61.8944
23625 2 11.8603 127.166 60.6011
17989 1 15.493 127.177 59.3255
17970 1 16.4116 128.761 61.8944
23587 2 17.3165 127.166 60.6011
23627 2 14.5888 128.771 60.6152
17943 1 20.9492 127.177 59.3255
17991 1 18.2216 128.781 59.3394
17940 1 19.1393 127.155 61.8802
23585 2 20.0451 128.771 60.6152
18005 1 12.7662 131.99 59.3644
17971 1 13.6839 130.367 61.9076
18001 1 10.9562 131.973 61.9197
23618 2 11.8611 130.376 60.6283
17976 1 15.4939 130.386 59.3524
17973 1 16.4124 131.973 61.9197
23586 2 17.3174 130.376 60.6283
23616 2 14.5897 131.982 60.6403
17942 1 20.9501 130.386 59.3524
17974 1 18.2224 131.99 59.3644
17926 1 19.1401 130.367 61.9076
23588 2 20.0459 131.982 60.6403
23632 2 10.9663 115.858 65.5743
23633 2 12.7756 115.89 63.0235
17599 1 11.8703 114.265 64.2777
23193 2 13.694 114.248 65.5504
17992 1 14.5988 115.874 64.3014
23592 2 16.4225 115.858 65.5743
17546 1 17.3265 114.265 64.2777
23207 2 15.5033 114.281 63
17945 1 20.055 115.874 64.3014
23605 2 18.2319 115.89 63.0235
23157 2 19.1502 114.248 65.5504
23159 2 20.9596 114.281 63
17982 1 11.8711 117.483 64.3239
23593 2 13.6949 117.467 65.5969
23620 2 10.9672 119.077 65.6183
23634 2 12.7765 119.106 63.0668
17946 1 17.3273 117.483 64.3239
17980 1 14.5996 119.092 64.3452
23594 2 16.4234 119.077 65.6183
23597 2 15.5042 117.498 63.0457
17947 1 20.0558 119.092 64.3452
23541 2 19.1511 117.467 65.5969
23544 2 20.9604 117.498 63.0457
23595 2 18.2327 119.106 63.0668
17981 1 11.8719 120.7 64.3654
23579 2 13.6958 120.686 65.6386
23621 2 10.9681 122.295 65.6577
23622 2 12.7774 122.322 63.1055
17938 1 17.3281 120.7 64.3654
17983 1 14.6004 122.309 64.3844
23577 2 16.4243 122.295 65.6577
23596 2 15.5051 120.714 63.0867
17936 1 20.0566 122.309 64.3844
23540 2 19.152 120.686 65.6386
23543 2 20.9613 120.714 63.0867
23598 2 18.2336 122.322 63.1055
17968 1 11.8727 123.917 64.4022
23578 2 13.6966 123.904 65.6756
23612 2 10.9689 125.513 65.6924
23623 2 12.7782 125.536 63.1397
17937 1 17.3289 123.917 64.4022
17966 1 14.6012 125.525 64.4189
23580 2 16.4252 125.513 65.6924
23583 2 15.5059 123.929 63.1231
17939 1 20.0575 125.525 64.4189
23533 2 19.1529 123.904 65.6756
23542 2 20.9622 123.929 63.1231
23581 2 18.2345 125.536 63.1397
17967 1 11.8735 127.133 64.4345
23564 2 13.6975 127.122 65.708
23613 2 10.9698 128.731 65.7226
23614 2 12.7791 128.751 63.1694
17923 1 17.3298 127.133 64.4345
17969 1 14.6021 128.741 64.4489
23562 2 16.426 128.731 65.7226
23582 2 15.5068 127.144 63.1551
17921 1 20.0583 128.741 64.4489
23532 2 19.1537 127.122 65.708
23535 2 20.963 127.144 63.1551
23584 2 18.2353 128.751 63.1694
17960 1 11.8743 130.349 64.4623
23563 2 13.6983 130.339 65.736
23611 2 10.9706 131.948 65.7484
23615 2 12.7799 131.965 63.1949
17922 1 17.3306 130.349 64.4623
17958 1 14.6029 131.957 64.4746
23565 2 16.4269 131.948 65.7484
23568 2 15.5076 130.358 63.1827
17924 1 20.0591 131.957 64.4746
23518 2 19.1546 130.339 65.736
23534 2 20.9639 130.358 63.1827
23566 2 18.2362 131.965 63.1949
17978 1 12.7894 115.842 66.8542
23191 2 11.8847 114.214 68.0997
23591 2 14.6133 115.825 68.1237
17544 1 15.517 114.232 66.8304
23140 2 17.341 114.214 68.0997
17944 1 18.2456 115.842 66.8542
23537 2 20.0696 115.825 68.1237
17505 1 20.9732 114.232 66.8304
17979 1 12.7902 119.063 66.8988
23575 2 11.8857 117.436 68.1466
17934 1 15.5179 117.453 66.8771
23538 2 17.3419 117.436 68.1466
23573 2 14.6143 119.047 68.1683
17886 1 20.9742 117.453 66.8771
17932 1 18.2464 119.063 66.8988
23539 2 20.0705 119.047 68.1683
17964 1 12.791 122.282 66.9386
23574 2 11.8866 120.657 68.1888
17933 1 15.5187 120.673 66.9193
23530 2 17.3429 120.657 68.1888
23576 2 14.6152 122.268 68.2082
17885 1 20.975 120.673 66.9193
17935 1 18.2473 122.282 66.9386
23528 2 20.0714 122.268 68.2082
17965 1 12.7919 125.502 66.9736
23560 2 11.8876 123.879 68.2263
17919 1 15.5196 123.892 66.9567
23529 2 17.3438 123.879 68.2263
23558 2 14.6161 125.489 68.2432
17884 1 20.9758 123.892 66.9567
17917 1 18.2481 125.502 66.9736
23531 2 20.0724 125.489 68.2432
17956 1 12.7927 128.721 67.004
23559 2 11.8885 127.1 68.2591
17918 1 15.5204 127.112 66.9893
23515 2 17.3447 127.1 68.2591
23561 2 14.6171 128.71 68.2737
17877 1 20.9767 127.112 66.9893
17920 1 18.249 128.721 67.004
23513 2 20.0733 128.71 68.2737
17957 1 12.7936 131.94 67.0299
23552 2 11.8894 130.321 68.2873
17905 1 15.5213 130.331 67.0175
23514 2 17.3456 130.321 68.2873
23550 2 14.618 131.931 68.2998
17876 1 20.9775 130.331 67.0175
17903 1 18.2498 131.94 67.0299
23516 2 20.0742 131.931 68.2998
17977 1 10.9789 115.81 69.4121
23571 2 12.8037 115.792 70.6694
17530 1 11.8909 114.166 71.9631
17532 1 13.7065 114.199 69.3879
17928 1 14.6196 115.778 71.9873
17929 1 16.4352 115.81 69.4121
17494 1 17.3472 114.166 71.9631
23138 2 15.5313 114.18 70.6453
17879 1 20.0759 115.778 71.9873
23536 2 18.2599 115.792 70.6694
17503 1 19.1628 114.199 69.3879
23108 2 20.9875 114.18 70.6453
17911 1 11.8921 117.391 72.0103
17930 1 13.7075 117.422 69.4351
17962 1 10.9799 119.033 69.457
23572 2 12.8048 119.016 70.7141
17880 1 17.3483 117.391 72.0103
17909 1 14.6208 119.003 72.0322
17931 1 16.4361 119.033 69.457
23526 2 15.5324 117.404 70.6924
17881 1 20.077 119.003 72.0322
17883 1 19.1638 117.422 69.4351
23484 2 20.9886 117.404 70.6924
23524 2 18.261 119.016 70.7141
17910 1 11.8932 120.616 72.0528
17915 1 13.7085 120.644 69.4776
17963 1 10.9809 122.256 69.497
23556 2 12.8059 122.241 70.7541
17872 1 17.3495 120.616 72.0528
17912 1 14.622 122.229 72.0723
17913 1 16.4371 122.256 69.497
23525 2 15.5335 120.628 70.7347
17870 1 20.0782 122.229 72.0723
17882 1 19.1647 120.644 69.4776
23483 2 20.9897 120.628 70.7347
23527 2 18.2621 122.241 70.7541
17897 1 11.8945 123.841 72.0906
17914 1 13.7095 123.867 69.5152
17954 1 10.9819 125.478 69.5322
23557 2 12.807 125.465 70.7894
17871 1 17.3507 123.841 72.0906
17895 1 14.6232 125.454 72.1077
17916 1 16.4381 125.478 69.5322
23511 2 15.5345 123.853 70.7723
17873 1 20.0794 125.454 72.1077
17875 1 19.1657 123.867 69.5152
23482 2 20.9908 123.853 70.7723
23509 2 18.2632 125.465 70.7894
17896 1 11.8957 127.067 72.1236
17901 1 13.7105 127.09 69.5481
17955 1 10.9829 128.701 69.5629
23548 2 12.808 128.69 70.82
17861 1 17.3519 127.067 72.1236
17898 1 14.6244 128.68 72.1384
17899 1 16.4391 128.701 69.5629
23510 2 15.5356 127.077 70.8053
17859 1 20.0806 128.68 72.1384
17874 1 19.1667 127.09 69.5481
23476 2 20.9919 127.077 70.8053
23512 2 18.2643 128.69 70.82
17891 1 11.8968 130.293 72.1521
17900 1 13.7115 130.312 69.5765
17953 1 10.9838 131.923 69.589
23549 2 12.809 131.914 70.8463
17860 1 17.3531 130.293 72.1521
17889 1 14.6255 131.906 72.1647
17902 1 16.44 131.923 69.589
23499 2 15.5366 130.302 70.8337
17862 1 20.0818 131.906 72.1647
17864 1 19.1677 130.312 69.5765
23475 2 20.9929 130.302 70.8337
23497 2 18.2653 131.914 70.8463
17907 1 12.7454 115.75 74.639
23570 2 10.9922 115.758 73.2011
23126 2 11.8807 114.116 75.6524
23128 2 13.7196 114.144 73.1771
23520 2 14.6094 115.73 75.6761
23521 2 16.4484 115.758 73.2011
17492 1 15.4732 114.138 74.615
23101 2 17.3369 114.116 75.6524
17878 1 18.2016 115.75 74.639
23477 2 20.0656 115.73 75.6761
17485 1 20.9294 114.138 74.615
23106 2 19.1759 114.144 73.1771
17908 1 12.7463 118.976 74.6836
23503 2 11.8819 117.344 75.6989
23522 2 13.7209 117.372 73.224
23554 2 10.9934 118.985 73.2458
17868 1 15.4739 117.363 74.6619
23478 2 17.3382 117.344 75.6989
23501 2 14.6107 118.959 75.7204
23523 2 16.4497 118.985 73.2458
17850 1 20.9301 117.363 74.6619
17866 1 18.2025 118.976 74.6836
23479 2 20.0669 118.959 75.7204
23481 2 19.1772 117.372 73.224
17893 1 12.7475 122.203 74.7236
23502 2 11.8833 120.574 75.7409
23507 2 13.7222 120.599 73.2663
23555 2 10.9947 122.213 73.2857
17867 1 15.475 120.59 74.7042
23471 2 17.3395 120.574 75.7409
23504 2 14.6121 122.189 75.7602
23505 2 16.451 122.213 73.2857
17849 1 20.9312 120.59 74.7042
17869 1 18.2038 122.203 74.7236
23469 2 20.0684 122.189 75.7602
23480 2 19.1784 120.599 73.2663
17894 1 12.749 125.431 74.7589
23491 2 11.8848 123.804 75.7784
23506 2 13.7235 123.827 73.304
23546 2 10.996 125.441 73.3211
17857 1 15.4763 123.817 74.7418
23470 2 17.341 123.804 75.7784
23489 2 14.6137 125.419 75.7954
23508 2 16.4522 125.441 73.3211
17848 1 20.9326 123.817 74.7418
17855 1 18.2052 125.431 74.7589
23472 2 20.0699 125.419 75.7954
23474 2 19.1797 123.827 73.304
17887 1 12.7505 128.66 74.7896
23490 2 11.8863 127.034 75.8113
23495 2 13.7247 127.055 73.337
23547 2 10.9972 128.669 73.3518
17856 1 15.4778 127.046 74.7748
23464 2 17.3425 127.034 75.8113
23492 2 14.6152 128.649 75.8261
23493 2 16.4535 128.669 73.3518
17847 1 20.9341 127.046 74.7748
17858 1 18.2067 128.66 74.7896
23462 2 20.0714 128.649 75.8261
23473 2 19.181 127.055 73.337
17888 1 12.7519 131.889 74.8159
23487 2 11.8878 130.265 75.8398
23494 2 13.7259 130.282 73.3655
23545 2 10.9984 131.896 73.3781
17853 1 15.4793 130.274 74.8033
23463 2 17.344 130.265 75.8398
23485 2 14.6166 131.88 75.8524
23496 2 16.4546 131.896 73.3781
17846 1 20.9356 130.274 74.8033
17851 1 18.2082 131.889 74.8159
23465 2 20.0728 131.88 75.8524
23467 2 19.1822 130.282 73.3655
5951 1 12.7017 132.371 -2.37854
12441 2 11.8131 133.934 -0.923009
12449 2 13.6243 133.949 -3.43033
12447 2 14.5419 132.366 -0.935108
5938 1 15.4287 133.938 -2.36644
12411 2 17.2693 133.934 -0.923009
12448 2 16.3533 132.383 -3.44232
5940 1 18.158 132.371 -2.37854
5892 1 20.885 133.938 -2.36644
12410 2 19.9982 132.366 -0.935108
12414 2 19.0805 133.949 -3.43033
9192 2 21.8095 132.383 -3.44232
5952 1 12.6997 135.506 -2.35548
12440 2 11.8118 137.069 -0.901999
12445 2 13.6229 137.081 -3.40947
12439 2 14.5405 135.501 -0.911974
5937 1 15.4271 137.073 -2.34559
12405 2 17.2681 137.069 -0.901999
12450 2 16.3517 135.515 -3.41938
5936 1 18.1559 135.506 -2.35548
5891 1 20.8833 137.073 -2.34559
12412 2 19.9968 135.501 -0.911974
12413 2 19.0791 137.081 -3.40947
9190 2 21.8079 135.515 -3.41938
5948 1 12.6983 138.639 -2.33672
12430 2 11.8108 140.204 -0.885202
12444 2 13.6218 140.213 -3.39276
12442 2 14.5394 138.636 -0.893077
5930 1 15.4259 140.206 -2.32889
12404 2 17.267 140.204 -0.885202
12443 2 16.3504 138.647 -3.40059
5939 1 18.1546 138.639 -2.33672
5890 1 20.8821 140.206 -2.32889
12403 2 19.9956 138.636 -0.893077
12408 2 19.078 140.213 -3.39276
9191 2 21.8067 138.647 -3.40059
5949 1 12.6973 141.773 -2.3221
12429 2 11.81 143.339 -0.8726
12434 2 13.621 143.345 -3.38022
12428 2 14.5385 141.771 -0.878376
5944 1 12.6966 144.906 -2.31165
12431 2 14.5378 144.906 -0.867873
5929 1 15.425 143.34 -2.31636
12391 2 17.2662 143.339 -0.8726
12446 2 16.3495 141.779 -3.38597
5928 1 18.1535 141.773 -2.3221
5931 1 18.1528 144.906 -2.31165
5883 1 20.8812 143.34 -2.31636
12406 2 19.9947 141.771 -0.878376
12407 2 19.0772 143.345 -3.38022
9188 2 21.8057 141.779 -3.38597
12389 2 19.994 144.906 -0.867873
12422 2 11.8095 146.473 -0.864196
12433 2 13.6204 146.476 -3.37185
5945 1 12.6961 148.039 -2.30538
12420 2 14.5374 148.04 -0.86157
5916 1 15.4244 146.473 -2.30799
12390 2 17.2657 146.473 -0.864196
12432 2 16.3488 144.911 -3.37551
12435 2 16.3484 148.042 -3.36924
5914 1 18.1524 148.039 -2.30538
5882 1 20.8807 146.473 -2.30799
12394 2 19.0767 146.476 -3.37185
9189 2 21.805 144.911 -3.37551
12392 2 19.9936 148.04 -0.86157
9187 2 21.8046 148.042 -3.36924
12421 2 11.8092 149.608 -0.859994
12423 2 13.6201 149.608 -3.36767
3263 1 12.696 151.172 -2.30329
9591 2 14.5373 151.175 -0.859469
5915 1 15.4241 149.606 -2.30381
12373 2 17.2654 149.608 -0.859994
9592 2 16.3482 151.173 -3.36715
3252 1 18.1522 151.172 -2.30329
5867 1 20.8804 149.606 -2.30381
12393 2 19.0764 149.608 -3.36767
9554 2 19.9935 151.175 -0.859469
6336 2 21.8045 151.173 -3.36715
5934 1 13.6282 133.924 0.299961
12437 2 12.7212 132.347 1.61976
5933 1 16.3571 132.355 0.287831
12401 2 15.4486 133.917 1.63192
12409 2 18.1775 132.347 1.61976
5889 1 19.0844 133.924 0.299961
12348 2 20.9048 133.917 1.63192
2878 1 21.8133 132.355 0.287831
5926 1 13.6268 137.061 0.321006
12438 2 12.7197 135.486 1.64301
5935 1 16.3556 135.493 0.311018
12400 2 15.4472 137.055 1.65304
12399 2 18.176 135.486 1.64301
5888 1 19.083 137.061 0.321006
12347 2 20.9035 137.055 1.65304
2874 1 21.8118 135.493 0.311018
5925 1 13.6257 140.198 0.337818
12426 2 12.7185 138.625 1.66201
5924 1 16.3543 138.629 0.329937
12387 2 15.4461 140.194 1.66992
12402 2 18.1748 138.625 1.66201
5881 1 19.0819 140.198 0.337818
12346 2 20.9024 140.194 1.66992
2875 1 21.8106 138.629 0.329937
5912 1 13.6249 143.334 0.350429
12427 2 12.7176 141.763 1.67677
12418 2 12.7169 144.901 1.68731
5927 1 16.3534 141.766 0.344648
12386 2 15.4453 143.332 1.68257
12385 2 18.1738 141.763 1.67677
12388 2 18.1731 144.901 1.68731
5910 1 16.3527 144.902 0.355159
5880 1 19.0811 143.334 0.350429
12339 2 20.9016 143.332 1.68257
2870 1 21.8096 141.766 0.344648
2871 1 21.8089 144.902 0.355159
5911 1 13.6243 146.47 0.358838
12419 2 12.7165 148.038 1.69364
12372 2 15.4448 146.47 1.691
5913 1 16.3523 148.038 0.361465
12370 2 18.1727 148.038 1.69364
5866 1 19.0806 146.47 0.358838
12338 2 20.901 146.47 1.691
2869 1 21.8085 148.038 0.361465
5901 1 13.624 149.607 0.363042
9581 2 12.7163 151.176 1.69574
12371 2 15.4445 149.607 1.69522
3245 1 16.3521 151.175 0.363568
9553 2 18.1726 151.176 1.69574
5865 1 19.0803 149.607 0.363042
12323 2 20.9007 149.607 1.69522
190 1 21.8084 151.175 0.363568
5922 1 11.8095 133.908 2.89853
5932 1 14.5384 132.338 2.88635
5918 1 12.7182 132.321 5.46871
12397 2 13.6279 133.901 4.19957
5886 1 17.2657 133.908 2.89853
5874 1 15.4455 133.893 5.4809
12396 2 16.3568 132.33 4.18739
5884 1 18.1744 132.321 5.46871
5885 1 19.9947 132.338 2.88635
5820 1 20.9017 133.893 5.4809
12345 2 19.0841 133.901 4.19957
9172 2 21.8131 132.33 4.18739
5921 1 11.8081 137.048 2.9197
5920 1 14.5369 135.478 2.90965
5919 1 12.7166 135.465 5.49202
12383 2 13.6265 137.043 4.22074
5878 1 17.2643 137.048 2.9197
5873 1 15.444 137.036 5.50208
12398 2 16.3553 135.472 4.21069
5872 1 18.1728 135.465 5.49202
5887 1 19.9931 135.478 2.90965
5819 1 20.9003 137.036 5.50208
12344 2 19.0827 137.043 4.22074
9160 2 21.8115 135.472 4.21069
5908 1 11.807 140.188 2.93661
5923 1 14.5356 138.618 2.92869
5904 1 12.7153 138.608 5.51108
12382 2 13.6253 140.184 4.23766
5905 1 12.7143 141.751 5.52588
5877 1 17.2632 140.188 2.93661
5859 1 15.4429 140.179 5.51901
12381 2 16.354 138.613 4.22974
5875 1 18.1716 138.608 5.51108
5857 1 18.1706 141.751 5.52588
12384 2 16.353 141.755 4.24453
5876 1 19.9919 138.618 2.92869
5818 1 20.8991 140.179 5.51901
12337 2 19.0816 140.184 4.23766
9161 2 21.8102 138.613 4.22974
9152 2 21.8092 141.755 4.24453
5907 1 11.8061 143.328 2.94927
5906 1 14.5346 141.758 2.94347
12368 2 13.6245 143.325 4.25034
5909 1 14.5339 144.898 2.95402
5896 1 12.7136 144.894 5.53644
5863 1 17.2624 143.328 2.94927
5858 1 15.4421 143.322 5.53169
12366 2 16.3523 144.896 4.25509
5860 1 18.1699 144.894 5.53644
5879 1 19.9909 141.758 2.94347
5811 1 20.8983 143.322 5.53169
12336 2 19.0807 143.325 4.25034
5861 1 19.9902 144.898 2.95402
9153 2 21.8085 144.896 4.25509
5900 1 11.8056 146.467 2.95771
12367 2 13.6239 146.466 4.25878
5898 1 14.5335 148.037 2.96035
5897 1 12.7132 148.036 5.54278
5862 1 17.2618 146.467 2.95771
5844 1 15.4415 146.465 5.54014
12369 2 16.3519 148.037 4.26142
5842 1 18.1694 148.036 5.54278
12322 2 19.0802 146.466 4.25878
5810 1 20.8977 146.465 5.54014
9151 2 21.8081 148.037 4.26142
5864 1 19.9898 148.037 2.96035
12357 2 13.6237 149.608 4.263
5899 1 11.8053 149.607 2.96193
3230 1 12.7131 151.179 5.5449
3244 1 14.5334 151.176 2.96246
5843 1 15.4412 149.608 5.54436
5845 1 17.2615 149.607 2.96193
3196 1 18.1693 151.179 5.5449
9540 2 16.3518 151.178 4.26353
12321 2 19.0799 149.608 4.263
5796 1 20.8975 149.608 5.54436
6316 2 21.808 151.178 4.26353
3197 1 19.9896 151.176 2.96246
5870 1 13.6251 133.879 8.05761
12379 2 11.8073 133.886 6.77148
12395 2 14.5363 132.314 6.75933
12342 2 17.2636 133.886 6.77148
5871 1 16.3525 135.452 8.0687
5817 1 19.0813 133.879 8.05761
12341 2 19.9925 132.314 6.75933
2830 1 21.8087 135.452 8.0687
5855 1 13.6237 137.025 8.07873
12378 2 11.8059 137.031 6.7926
12377 2 14.5347 135.458 6.78257
12380 2 14.5334 138.603 6.80158
12334 2 17.2622 137.031 6.7926
5853 1 16.3512 138.598 8.08769
5816 1 19.0799 137.025 8.07873
12343 2 19.9909 135.458 6.78257
2831 1 21.8074 138.598 8.08769
12332 2 19.9897 138.603 6.80158
5854 1 13.6226 140.171 8.09561
12364 2 11.8048 140.175 6.80949
12362 2 14.5325 141.747 6.81635
12333 2 17.261 140.175 6.80949
5856 1 16.3502 141.744 8.10246
5809 1 19.0788 140.171 8.09561
12335 2 19.9887 141.747 6.81635
2822 1 21.8065 141.744 8.10246
5840 1 13.6217 143.317 8.10826
12363 2 11.804 143.32 6.82215
12365 2 14.5318 144.892 6.8269
12319 2 17.2602 143.32 6.82215
5838 1 16.3495 144.89 8.113
5808 1 19.078 143.317 8.10826
12317 2 19.988 144.892 6.8269
2823 1 21.8058 144.89 8.113
5839 1 13.6212 146.463 8.11669
12356 2 11.8034 146.464 6.83059
12354 2 14.5314 148.036 6.83323
12318 2 17.2597 146.464 6.83059
5841 1 16.3491 148.036 8.11933
5795 1 19.0774 146.463 8.11669
12320 2 19.9876 148.036 6.83323
2821 1 21.8054 148.036 8.11933
5829 1 13.6209 149.609 8.12092
12355 2 11.8032 149.608 6.83481
9539 2 14.5312 151.181 6.83534
12304 2 17.2594 149.608 6.83481
3181 1 16.349 151.182 8.12145
5794 1 19.0772 149.609 8.12092
9485 2 19.9875 151.181 6.83534
157 1 21.8052 151.182 8.12145
5851 1 11.8048 133.864 10.6321
12326 2 13.623 133.857 11.9176
12376 2 12.7144 135.445 9.35554
5849 1 14.5322 135.439 10.6431
12330 2 15.4432 133.872 9.34452
5814 1 17.2611 133.864 10.6321
12328 2 18.1706 135.445 9.35554
12327 2 16.3505 135.433 11.9285
12288 2 20.8994 133.872 9.34452
12285 2 19.0793 133.857 11.9176
5815 1 19.9885 135.439 10.6431
9094 2 21.8067 135.433 11.9285
5850 1 11.8035 137.013 10.653
12311 2 13.6218 137.008 11.9384
12360 2 12.7132 138.593 9.37444
5852 1 14.531 138.588 10.6619
12329 2 15.4418 137.019 9.36552
5806 1 17.2597 137.013 10.653
12331 2 18.1694 138.593 9.37444
12309 2 16.3494 138.583 11.9472
12287 2 20.8981 137.019 9.36552
12284 2 19.078 137.008 11.9384
5804 1 19.9873 138.588 10.6619
9095 2 21.8056 138.583 11.9472
5836 1 11.8024 140.162 10.6698
12310 2 13.6208 140.158 11.955
12361 2 12.7122 141.741 9.38915
5834 1 14.5301 141.737 10.6766
12315 2 15.4408 140.167 9.38232
5805 1 17.2587 140.162 10.6698
12313 2 18.1685 141.741 9.38915
12312 2 16.3485 141.734 11.9618
12286 2 20.897 140.167 9.38232
12278 2 19.077 140.158 11.955
5807 1 19.9864 141.737 10.6766
9086 2 21.8047 141.734 11.9618
5835 1 11.8016 143.312 10.6824
12299 2 13.62 143.309 11.9675
12352 2 12.7116 144.888 9.39965
5837 1 14.5295 144.886 10.6871
12314 2 15.44 143.314 9.39492
5792 1 17.2579 143.312 10.6824
12316 2 18.1678 144.888 9.39965
12297 2 16.3479 144.884 11.9722
12280 2 20.8962 143.314 9.39492
12277 2 19.0763 143.309 11.9675
5790 1 19.9857 144.886 10.6871
9087 2 21.8041 144.884 11.9722
5828 1 11.8011 146.461 10.6908
12298 2 13.6196 146.46 11.9759
12353 2 12.7112 148.036 9.40596
5826 1 14.5291 148.035 10.6934
12303 2 15.4394 146.462 9.40333
5791 1 17.2574 146.461 10.6908
12301 2 18.1674 148.036 9.40596
12300 2 16.3475 148.035 11.9785
12279 2 20.8957 146.462 9.40333
12271 2 19.0758 146.46 11.9759
5793 1 19.9853 148.035 10.6934
9085 2 21.8038 148.035 11.9785
5827 1 11.8009 149.61 10.695
12292 2 13.6193 149.61 11.9801
9519 2 12.711 151.183 9.40808
3180 1 14.529 151.184 10.6955
12302 2 15.4392 149.609 9.40754
5781 1 17.2571 149.61 10.695
9484 2 18.1673 151.183 9.40808
9469 2 16.3474 151.186 11.9806
12272 2 20.8954 149.609 9.40754
12270 2 19.0756 149.61 11.9801
3125 1 19.9852 151.184 10.6955
6254 2 21.8037 151.186 11.9806
5798 1 13.6211 133.836 15.778
12307 2 11.8031 133.843 14.4903
5848 1 12.7122 135.426 13.2163
12305 2 14.5306 135.42 14.5011
5802 1 15.441 133.85 13.2054
12282 2 17.2593 133.843 14.4903
5799 1 16.3487 135.414 15.7887
5800 1 18.1684 135.426 13.2163
2758 1 21.8049 135.414 15.7887
5769 1 19.0773 133.836 15.778
5772 1 20.8972 133.85 13.2054
12283 2 19.9868 135.42 14.5011
5784 1 13.62 136.991 15.7984
12306 2 11.8019 136.997 14.5108
5832 1 12.7111 138.578 13.2349
12308 2 14.5296 138.574 14.5196
5801 1 15.4397 137.002 13.2261
12275 2 17.2582 136.997 14.5108
5782 1 16.3477 138.569 15.8071
5803 1 18.1674 138.578 13.2349
2759 1 21.8039 138.569 15.8071
5768 1 19.0763 136.991 15.7984
5771 1 20.896 137.002 13.2261
12273 2 19.9858 138.574 14.5196
12293 2 14.5288 141.727 14.534
5783 1 13.6192 140.146 15.8148
12295 2 11.801 140.15 14.5273
5833 1 12.7103 141.73 13.2495
5785 1 16.347 141.724 15.8214
5788 1 15.4388 140.154 13.2427
12274 2 17.2573 140.15 14.5273
5786 1 18.1665 141.73 13.2495
12276 2 19.985 141.727 14.534
2750 1 21.8032 141.724 15.8214
5765 1 19.0754 140.146 15.8148
5770 1 20.895 140.154 13.2427
12296 2 14.5283 144.881 14.5443
12294 2 11.8004 143.304 14.5396
5776 1 13.6186 143.302 15.8271
5824 1 12.7097 144.883 13.2599
5774 1 16.3465 144.879 15.8317
12268 2 17.2566 143.304 14.5396
5787 1 15.4381 143.307 13.2552
5789 1 18.1659 144.883 13.2599
12266 2 19.9845 144.881 14.5443
5767 1 20.8943 143.307 13.2552
5764 1 19.0748 143.302 15.8271
2751 1 21.8027 144.879 15.8317
12291 2 11.8 146.458 14.5479
5775 1 13.6182 146.457 15.8353
12289 2 14.528 148.035 14.5505
5825 1 12.7094 148.035 13.2661
5778 1 18.1656 148.035 13.2661
5777 1 16.3462 148.035 15.8379
12267 2 17.2562 146.458 14.5479
5780 1 15.4376 146.459 13.2635
2749 1 21.8024 148.035 15.8379
12269 2 19.9842 148.035 14.5505
5762 1 19.0744 146.457 15.8353
5766 1 20.8939 146.459 13.2635
5773 1 13.618 149.612 15.8395
12290 2 11.7998 149.612 14.5521
9468 2 14.5279 151.188 14.5526
3159 1 12.7093 151.187 13.2682
5779 1 15.4374 149.611 13.2677
12265 2 17.256 149.612 14.5521
3124 1 18.1655 151.187 13.2682
3109 1 16.3461 151.19 15.84
5761 1 19.0742 149.612 15.8395
5763 1 20.8936 149.611 13.2677
86 1 21.8023 151.19 15.84
9425 2 19.9841 151.188 14.5526
6142 1 11.8015 133.823 18.35
12648 2 12.7109 135.408 17.0731
6140 1 14.5291 135.402 18.3605
12634 2 15.4396 133.83 17.0625
6119 1 17.2577 133.823 18.35
12632 2 18.1672 135.408 17.0731
12588 2 20.8958 133.83 17.0625
6120 1 19.9854 135.402 18.3605
6141 1 11.8006 136.98 18.37
12644 2 12.7101 138.564 17.0913
6143 1 14.5283 138.559 18.3785
12633 2 15.4386 136.986 17.0827
6115 1 17.2568 136.98 18.37
12635 2 18.1663 138.564 17.0913
12587 2 20.8948 136.986 17.0827
6113 1 19.9846 138.559 18.3785
6135 1 11.7999 140.138 18.3861
12645 2 12.7094 141.721 17.1055
6133 1 14.5278 141.718 18.3927
12626 2 15.4379 140.142 17.0989
6114 1 17.2561 140.138 18.3861
12624 2 18.1657 141.721 17.1055
12586 2 20.8941 140.142 17.0989
6116 1 19.984 141.718 18.3927
6134 1 11.7994 143.297 18.3982
12640 2 12.709 144.878 17.1157
6136 1 14.5273 144.876 18.4028
12625 2 15.4373 143.299 17.1111
6103 1 17.2557 143.297 18.3982
12627 2 18.1652 144.878 17.1157
12579 2 20.8935 143.299 17.1111
6101 1 19.9836 144.876 18.4028
6128 1 11.7991 146.455 18.4063
12641 2 12.7087 148.034 17.1218
6126 1 14.5271 148.034 18.4089
6102 1 17.2553 146.455 18.4063
12612 2 15.4369 146.456 17.1193
12610 2 18.165 148.034 17.1218
12578 2 20.8932 146.456 17.1193
6104 1 19.9834 148.034 18.4089
6127 1 11.7989 149.613 18.4104
9791 2 12.7086 151.191 17.1239
3456 1 14.527 151.193 18.411
6085 1 17.2552 149.613 18.4104
12611 2 15.4368 149.613 17.1234
9780 2 18.1649 151.191 17.1239
12563 2 20.893 149.613 17.1234
3430 1 19.9833 151.193 18.411
12630 2 13.6201 133.816 19.6341
12618 2 11.8009 133.802 22.205
6139 1 12.7099 135.389 20.9315
12616 2 14.5287 135.383 22.2152
12631 2 16.3478 135.395 19.6445
6111 1 15.4383 133.809 20.9213
12582 2 17.2571 133.802 22.205
6109 1 18.1661 135.389 20.9315
12585 2 19.0763 133.816 19.6341
6060 1 20.8946 133.809 20.9213
12583 2 19.985 135.383 22.2152
9378 2 21.804 135.395 19.6445
12622 2 13.6193 136.975 19.6539
12617 2 11.8004 136.964 22.2244
6131 1 12.7093 138.55 20.9493
12619 2 14.5283 138.546 22.2327
12620 2 16.3471 138.555 19.6624
6110 1 15.4377 136.97 20.9409
12574 2 17.2566 136.964 22.2244
6112 1 18.1655 138.55 20.9493
12584 2 19.0756 136.975 19.6539
6059 1 20.8939 136.97 20.9409
12572 2 19.9845 138.546 22.2327
9379 2 21.8034 138.555 19.6624
12621 2 13.6187 140.135 19.6698
12604 2 11.8 140.127 22.2401
6132 1 12.7089 141.711 20.9631
12602 2 14.5279 141.708 22.2464
12623 2 16.3466 141.714 19.6763
6099 1 15.4372 140.131 20.9567
12573 2 17.2562 140.127 22.2401
6097 1 18.1651 141.711 20.9631
12577 2 19.075 140.135 19.6698
6058 1 20.8934 140.131 20.9567
12575 2 19.9842 141.708 22.2464
9374 2 21.8029 141.714 19.6763
12608 2 13.6183 143.294 19.6818
12603 2 11.7997 143.29 22.2519
6124 1 12.7086 144.873 20.9731
12605 2 14.5277 144.871 22.2563
12606 2 16.3463 144.874 19.6864
6098 1 15.4368 143.292 20.9686
12559 2 17.2559 143.29 22.2519
6100 1 18.1648 144.873 20.9731
12576 2 19.0745 143.294 19.6818
6051 1 20.8931 143.292 20.9686
12557 2 19.9839 144.871 22.2563
9375 2 21.8025 144.874 19.6864
12607 2 13.618 146.454 19.6899
12596 2 11.7995 146.453 22.2598
6125 1 12.7084 148.034 20.9791
12594 2 14.5275 148.034 22.2623
12609 2 16.3461 148.034 19.6924
6084 1 15.4366 146.453 20.9766
12558 2 17.2557 146.453 22.2598
6082 1 18.1646 148.034 20.9791
12562 2 19.0743 146.454 19.6899
6050 1 20.8928 146.453 20.9766
12560 2 19.9838 148.034 22.2623
9373 2 21.8023 148.034 19.6924
12597 2 13.6179 149.614 19.694
12595 2 11.7994 149.616 22.2638
3450 1 12.7083 151.196 20.9812
9772 2 14.5275 151.197 22.2644
6083 1 15.4365 149.615 20.9806
12541 2 17.2556 149.616 22.2638
9773 2 16.346 151.194 19.6945
3429 1 18.1646 151.196 20.9812
12561 2 19.0741 149.614 19.694
6035 1 20.8927 149.615 20.9806
9725 2 19.9837 151.197 22.2644
6526 2 21.8022 151.194 19.6945
6107 1 13.6193 133.795 23.4918
12615 2 12.7101 135.371 24.7852
12570 2 15.4383 133.789 24.7752
6108 1 16.3472 135.377 23.5019
12568 2 18.1663 135.371 24.7852
6057 1 19.0755 133.795 23.4918
12516 2 20.8946 133.789 24.7752
3057 1 21.8034 135.377 23.5019
6095 1 13.6189 136.959 23.511
12600 2 12.7098 138.536 24.8023
12569 2 15.438 136.954 24.7942
6093 1 16.3469 138.541 23.5192
12571 2 18.166 138.536 24.8023
6056 1 19.0751 136.959 23.511
12515 2 20.8943 136.954 24.7942
3058 1 21.8031 138.541 23.5192
6094 1 13.6186 140.123 23.5265
12601 2 12.7096 141.702 24.8158
12555 2 15.4378 140.119 24.8095
6096 1 16.3466 141.705 23.5328
12553 2 18.1659 141.702 24.8158
6049 1 19.0748 140.123 23.5265
12514 2 20.8941 140.119 24.8095
3050 1 21.8028 141.705 23.5328
6080 1 13.6184 143.287 23.5382
12592 2 12.7095 144.868 24.8255
12554 2 15.4377 143.285 24.8211
6078 1 16.3464 144.87 23.5426
12556 2 18.1657 144.868 24.8255
6048 1 19.0746 143.287 23.5382
12507 2 20.8939 143.285 24.8211
3051 1 21.8026 144.87 23.5426
6079 1 13.6182 146.452 23.5461
12593 2 12.7094 148.034 24.8314
12538 2 18.1656 148.034 24.8314
6081 1 16.3463 148.034 23.5486
12540 2 15.4376 146.451 24.8289
3049 1 21.8025 148.034 23.5486
12506 2 20.8938 146.451 24.8289
6034 1 19.0745 146.452 23.5461
6069 1 13.6181 149.616 23.5501
9758 2 12.7094 151.2 24.8334
12539 2 15.4375 149.617 24.8329
9724 2 18.1656 151.2 24.8334
3418 1 16.3463 151.199 23.5506
12492 2 20.8938 149.617 24.8329
6033 1 19.0744 149.616 23.5501
377 1 21.8025 151.199 23.5506
6091 1 11.8007 133.782 26.0615
6089 1 14.5287 135.365 26.0714
12566 2 13.6199 133.775 27.3445
6088 1 12.7107 135.353 28.6401
6054 1 17.2569 133.782 26.0615
6042 1 15.4388 133.768 28.6304
12567 2 16.348 135.359 27.3543
6040 1 18.1669 135.353 28.6401
9334 2 21.8043 135.359 27.3543
6055 1 19.985 135.365 26.0714
5994 1 20.895 133.768 28.6304
12513 2 19.0762 133.775 27.3445
6090 1 11.8005 136.948 26.0804
6092 1 14.5286 138.532 26.0884
12551 2 13.6199 136.943 27.3631
6072 1 12.7107 138.523 28.6568
6046 1 17.2568 136.948 26.0804
6041 1 15.4388 136.938 28.6489
12549 2 16.348 138.527 27.3711
6043 1 18.167 138.523 28.6568
9335 2 21.8042 138.527 27.3711
6044 1 19.9848 138.532 26.0884
5993 1 20.8951 136.938 28.6489
12512 2 19.0761 136.943 27.3631
6076 1 11.8004 140.115 26.0956
6074 1 14.5285 141.699 26.1018
12550 2 13.6199 140.112 27.3782
6073 1 12.7108 141.693 28.6699
6045 1 17.2566 140.115 26.0956
6027 1 15.4389 140.108 28.6638
12552 2 16.348 141.696 27.3843
6025 1 18.167 141.693 28.6699
9326 2 21.8042 141.696 27.3843
6047 1 19.9847 141.699 26.1018
5992 1 20.8951 140.108 28.6638
12505 2 19.0761 140.112 27.3782
6075 1 11.8003 143.283 26.107
6077 1 14.5284 144.866 26.1114
12536 2 13.6198 143.28 27.3896
6064 1 12.7108 144.863 28.6794
6031 1 17.2565 143.283 26.107
6026 1 15.4389 143.278 28.6751
12534 2 16.348 144.865 27.3939
6028 1 18.1671 144.863 28.6794
9327 2 21.8042 144.865 27.3939
6029 1 19.9846 144.866 26.1114
5985 1 20.8952 143.278 28.6751
12504 2 19.0761 143.28 27.3896
6068 1 11.8003 146.45 26.1148
6066 1 14.5284 148.034 26.1172
12535 2 13.6198 146.449 27.3973
6065 1 12.7109 148.034 28.6851
6030 1 17.2565 146.45 26.1148
6013 1 15.439 146.449 28.6827
12537 2 16.3479 148.034 27.3997
6011 1 18.1671 148.034 28.6851
9325 2 21.8042 148.034 27.3997
6032 1 19.9846 148.034 26.1172
5984 1 20.8952 146.449 28.6827
12491 2 19.0761 146.449 27.3973
6067 1 11.8002 149.618 26.1187
12525 2 13.6198 149.618 27.4012
3417 1 14.5283 151.202 26.1193
3399 1 12.7109 151.205 28.6872
6014 1 17.2565 149.618 26.1187
6012 1 15.439 149.619 28.6866
9709 2 16.3479 151.203 27.4017
3364 1 18.1671 151.205 28.6872
5973 1 20.8952 149.619 28.6866
12490 2 19.0761 149.618 27.4012
3365 1 19.9846 151.202 26.1193
6493 2 21.8042 151.203 27.4017
6038 1 13.6211 133.754 31.1983
12547 2 11.8021 133.761 29.9129
12544 2 12.713 135.335 32.4898
12545 2 14.5303 135.347 29.9225
12498 2 15.4409 133.747 32.4804
12510 2 17.2583 133.761 29.9129
6039 1 16.3494 135.341 31.2078
12496 2 18.1693 135.335 32.4898
2998 1 21.8056 135.341 31.2078
5991 1 19.0773 133.754 31.1983
12468 2 20.8972 133.747 32.4804
12511 2 19.9865 135.347 29.9225
6023 1 13.6214 136.927 31.2165
12546 2 11.8022 136.932 29.9312
12528 2 12.7134 138.509 32.5061
12548 2 14.5304 138.518 29.9391
12497 2 15.4413 136.922 32.4984
12502 2 17.2585 136.932 29.9312
6021 1 16.3497 138.514 31.2243
12499 2 18.1696 138.509 32.5061
2999 1 21.8059 138.514 31.2243
5990 1 19.0776 136.927 31.2165
12467 2 20.8976 136.922 32.4984
12500 2 19.9867 138.518 29.9391
6022 1 13.6216 140.1 31.2312
12532 2 11.8024 140.104 29.946
12529 2 12.7136 141.684 32.5189
12530 2 14.5306 141.69 29.9521
12484 2 15.4416 140.096 32.513
12501 2 17.2586 140.104 29.946
6024 1 16.3499 141.687 31.2372
12482 2 18.1699 141.684 32.5189
2990 1 21.8061 141.687 31.2372
5983 1 19.0779 140.1 31.2312
12466 2 20.8979 140.096 32.513
12503 2 19.9868 141.69 29.9521
6009 1 13.6218 143.274 31.2423
12531 2 11.8025 143.276 29.9572
12520 2 12.7138 144.859 32.5282
12533 2 14.5306 144.862 29.9615
12483 2 15.4419 143.271 32.524
12488 2 17.2587 143.276 29.9572
6007 1 16.35 144.86 31.2465
12485 2 18.1701 144.859 32.5282
2991 1 21.8062 144.86 31.2465
5982 1 19.0781 143.274 31.2423
12463 2 20.8981 143.271 32.524
12486 2 19.9869 144.862 29.9615
6008 1 13.6219 146.447 31.2498
12524 2 11.8026 146.448 29.9648
12521 2 12.7139 148.034 32.5339
12522 2 14.5307 148.034 29.9672
12476 2 15.442 146.446 32.5315
12487 2 17.2588 146.448 29.9648
6010 1 16.3501 148.034 31.2522
12474 2 18.1702 148.034 32.5339
2989 1 21.8063 148.034 31.2522
5972 1 19.0782 146.447 31.2498
12462 2 20.8982 146.446 32.5315
12489 2 19.9869 148.034 29.9672
6000 1 13.622 149.621 31.2537
12523 2 11.8026 149.62 29.9687
9708 2 14.5307 151.206 29.9692
12475 2 15.4421 149.622 32.5353
12477 2 17.2588 149.62 29.9687
3349 1 16.3501 151.208 31.2542
5971 1 19.0782 149.621 31.2537
12459 2 20.8983 149.622 32.5353
326 1 21.8063 151.208 31.2542
9653 2 19.9869 151.206 29.9692
6019 1 11.804 133.74 33.7653
12494 2 13.6242 133.733 35.0468
6017 1 14.5324 135.328 33.7746
5988 1 17.2603 133.74 33.7653
12495 2 16.3526 135.322 35.0561
9262 2 21.8089 135.322 35.0561
12465 2 19.0804 133.733 35.0468
5989 1 19.9887 135.328 33.7746
6020 1 14.5329 138.505 33.7908
6018 1 11.8045 136.916 33.7832
12480 2 13.6248 136.911 35.0646
12478 2 16.3531 138.5 35.0722
5980 1 17.2608 136.916 33.7832
9263 2 21.8094 138.5 35.0722
5978 1 19.9891 138.505 33.7908
12464 2 19.081 136.911 35.0646
6003 1 14.5332 141.681 33.8036
6005 1 11.8049 140.093 33.7977
12479 2 13.6252 140.089 35.079
12481 2 16.3535 141.678 35.0849
5979 1 17.2612 140.093 33.7977
9254 2 21.8098 141.678 35.0849
5981 1 19.9894 141.681 33.8036
12461 2 19.0815 140.089 35.079
6006 1 14.5334 144.857 33.8128
12472 2 13.6255 143.267 35.0899
6004 1 11.8052 143.269 33.8087
12470 2 16.3538 144.856 35.0941
5969 1 17.2614 143.269 33.8087
9255 2 21.81 144.856 35.0941
5967 1 19.9897 144.857 33.8128
12460 2 19.0818 143.267 35.0899
5997 1 14.5336 148.034 33.8184
12471 2 13.6257 146.445 35.0973
5999 1 11.8054 146.446 33.8161
5968 1 17.2616 146.446 33.8161
12473 2 16.3539 148.034 35.0997
9253 2 21.8102 148.034 35.0997
12458 2 19.082 146.445 35.0973
5970 1 19.9898 148.034 33.8184
5998 1 11.8055 149.622 33.8199
12469 2 13.6258 149.623 35.1011
5962 1 17.2617 149.622 33.8199
12457 2 19.0821 149.623 35.1011
12670 2 11.8081 133.719 37.6121
17811 1 13.628 133.712 38.896
6016 1 12.7161 135.316 36.3404
12668 2 14.5366 135.31 37.6214
12659 2 17.2643 133.719 37.6121
18165 1 16.3566 135.304 38.9052
5976 1 15.4438 133.727 36.3312
5974 1 18.1723 135.316 36.3404
5958 1 20.9001 133.727 36.3312
17781 1 19.0843 133.712 38.896
12660 2 19.9928 135.31 37.6214
15352 1 21.8128 135.304 38.9052
12669 2 11.8088 136.9 37.6298
18166 1 13.6288 136.895 38.9136
6001 1 12.7167 138.495 36.3565
12671 2 14.5372 138.491 37.6374
12656 2 17.2651 136.9 37.6298
18167 1 16.3573 138.486 38.9211
5975 1 15.4445 136.906 36.3489
5977 1 18.1729 138.495 36.3565
18137 1 19.0851 136.895 38.9136
5957 1 20.9007 136.906 36.3489
12654 2 19.9935 138.491 37.6374
15350 1 21.8135 138.486 38.9211
12666 2 11.8094 140.081 37.6441
18162 1 13.6294 140.077 38.9278
6002 1 12.7171 141.675 36.3691
12664 2 14.5377 141.672 37.65
12655 2 17.2656 140.081 37.6441
18160 1 16.3578 141.669 38.9337
5965 1 15.445 140.085 36.3632
5963 1 18.1733 141.675 36.3691
18136 1 19.0857 140.077 38.9278
5956 1 20.9013 140.085 36.3632
12657 2 19.9939 141.672 37.65
15351 1 21.814 141.669 38.9337
12665 2 11.8098 143.262 37.6549
18161 1 13.6299 143.26 38.9387
5995 1 12.7174 144.854 36.3782
12667 2 14.538 144.853 37.6591
12652 2 17.266 143.262 37.6549
18163 1 16.3582 144.851 38.9428
5964 1 15.4454 143.265 36.3741
5966 1 18.1736 144.854 36.3782
18131 1 19.0861 143.26 38.9387
5955 1 20.9016 143.265 36.3741
12650 2 19.9943 144.853 37.6591
15348 1 21.8144 144.851 38.9428
12663 2 11.81 146.443 37.6623
18152 1 13.6302 146.443 38.946
5996 1 12.7176 148.034 36.3838
12661 2 14.5382 148.034 37.6646
12651 2 17.2663 146.443 37.6623
18150 1 16.3584 148.034 38.9483
5961 1 15.4456 146.444 36.3815
5959 1 18.1738 148.034 36.3838
18130 1 19.0864 146.443 38.946
5954 1 20.9019 146.444 36.3815
12653 2 19.9945 148.034 37.6646
15349 1 21.8146 148.034 38.9483
12662 2 11.8101 149.625 37.6661
18151 1 13.6303 149.626 38.9498
12649 2 17.2664 149.625 37.6661
5960 1 15.4457 149.624 36.3853
18117 1 19.0865 149.626 38.9498
5953 1 20.902 149.624 36.3853
23791 2 12.7212 135.297 40.1856
17809 1 11.8129 133.698 41.4597
18164 1 14.5415 135.291 41.4689
17761 1 17.2692 133.698 41.4597
23423 2 15.4489 133.705 40.1764
23782 2 18.1775 135.297 40.1856
18133 1 19.9978 135.291 41.4689
23375 2 20.9051 133.705 40.1764
23792 2 12.7219 138.481 40.2015
18158 1 11.8138 136.884 41.4773
18156 1 14.5423 138.477 41.4848
23780 2 15.4497 136.889 40.194
18134 1 17.2701 136.884 41.4773
23778 2 18.1782 138.481 40.2015
18135 1 19.9985 138.477 41.4848
23742 2 20.906 136.889 40.194
23788 2 12.7225 141.665 40.2141
18157 1 11.8145 140.07 41.4915
18159 1 14.5429 141.662 41.4973
23779 2 15.4504 140.073 40.2082
18128 1 17.2707 140.07 41.4915
23781 2 18.1787 141.665 40.2141
18126 1 19.9991 141.662 41.4973
23741 2 20.9066 140.073 40.2082
23789 2 12.7229 144.85 40.2231
18148 1 11.815 143.255 41.5023
18146 1 14.5433 144.848 41.5064
18127 1 17.2712 143.255 41.5023
23772 2 15.4508 143.258 40.219
23770 2 18.1791 144.85 40.2231
18129 1 19.9995 144.848 41.5064
23740 2 20.9071 143.258 40.219
23785 2 12.7231 148.034 40.2287
18147 1 11.8153 146.441 41.5096
18149 1 14.5435 148.034 41.5119
18116 1 17.2715 146.441 41.5096
23771 2 15.4511 146.442 40.2263
23773 2 18.1793 148.034 40.2287
18114 1 19.9998 148.034 41.5119
23733 2 20.9074 146.442 40.2263
18141 1 11.8154 149.627 41.5133
18115 1 17.2717 149.627 41.5133
23758 2 15.4513 149.626 40.2301
23732 2 20.9075 149.626 40.2301
23409 2 13.6342 133.691 42.7395
18154 1 12.7271 135.278 44.0315
23407 2 11.8201 133.677 45.3015
23774 2 14.5487 135.272 45.3108
23775 2 16.3628 135.285 42.7487
17759 1 15.4548 133.684 44.0223
23354 2 17.2764 133.677 45.3015
18132 1 18.1834 135.278 44.0315
23373 2 19.0904 133.691 42.7395
23735 2 20.005 135.272 45.3108
17711 1 20.911 133.684 44.0223
20970 2 21.819 135.285 42.7487
23776 2 13.635 136.878 42.7571
18155 1 12.728 138.467 44.0475
23764 2 11.821 136.867 45.3193
23762 2 14.5495 138.462 45.3268
23777 2 16.3635 138.472 42.7647
18124 1 15.4557 136.873 44.0399
23736 2 17.2773 136.867 45.3193
18122 1 18.1842 138.467 44.0475
20966 2 21.8198 138.472 42.7647
23739 2 19.0913 136.878 42.7571
18082 1 20.9119 136.873 44.0399
23737 2 20.0058 138.462 45.3268
23768 2 13.6357 140.066 42.7714
18144 1 12.7286 141.656 44.06
23763 2 11.8217 140.058 45.3335
23766 2 16.3641 141.659 42.7772
18123 1 15.4564 140.062 44.0542
23728 2 17.278 140.058 45.3335
23765 2 14.5501 141.653 45.3394
18125 1 18.1848 141.656 44.06
20967 2 21.8204 141.659 42.7772
23738 2 19.092 140.066 42.7714
18081 1 20.9126 140.062 44.0542
23726 2 20.0064 141.653 45.3394
23767 2 13.6362 143.253 42.7822
18145 1 12.729 144.845 44.0691
23753 2 11.8222 143.248 45.3444
23769 2 16.3645 144.847 42.7863
18112 1 15.4569 143.251 44.065
23727 2 17.2785 143.248 45.3444
23751 2 14.5506 144.843 45.3485
18110 1 18.1852 144.845 44.0691
20963 2 21.8208 144.847 42.7863
23731 2 19.0925 143.253 42.7822
18080 1 20.9132 143.251 44.065
23729 2 20.0068 144.843 45.3485
23757 2 13.6365 146.44 42.7895
18140 1 12.7292 148.034 44.0746
23752 2 11.8226 146.439 45.3517
23755 2 16.3648 148.034 42.7918
18111 1 15.4573 146.44 44.0723
23716 2 17.2788 146.439 45.3517
23754 2 14.5508 148.034 45.354
18113 1 18.1855 148.034 44.0746
20964 2 21.821 148.034 42.7918
23730 2 19.0928 146.44 42.7895
18073 1 20.9135 146.44 44.0723
23714 2 20.007 148.034 45.354
23756 2 13.6367 149.628 42.7932
23746 2 11.8227 149.629 45.3554
18098 1 15.4574 149.629 44.076
23715 2 17.279 149.629 45.3554
23717 2 19.0929 149.628 42.7932
18072 1 20.9137 149.629 44.076
18153 1 10.9134 135.265 46.593
23760 2 12.7353 135.259 47.8718
17743 1 11.828 133.655 49.1441
17745 1 13.6411 133.669 46.5837
18118 1 14.5566 135.252 49.1535
18119 1 16.3697 135.265 46.593
17692 1 17.2843 133.655 49.1441
23352 2 15.463 133.662 47.8624
18075 1 20.0129 135.252 49.1535
23734 2 18.1916 135.259 47.8718
17709 1 19.0973 133.669 46.5837
23313 2 20.9192 133.662 47.8624
18104 1 11.8289 136.85 49.1621
18120 1 13.642 136.862 46.6015
18142 1 10.9143 138.458 46.6091
23761 2 12.7361 138.453 47.888
18076 1 17.2852 136.85 49.1621
18102 1 14.5574 138.448 49.1697
18121 1 16.3705 138.458 46.6091
23724 2 15.4639 136.856 47.8803
18077 1 20.0137 138.448 49.1697
18079 1 19.0982 136.862 46.6015
23687 2 20.9201 136.856 47.8803
23722 2 18.1924 138.453 47.888
18103 1 11.8296 140.046 49.1765
18108 1 13.6427 140.054 46.6158
18143 1 10.9149 141.65 46.6217
23749 2 12.7368 141.646 47.9006
18068 1 17.2859 140.046 49.1765
18105 1 14.5581 141.643 49.1824
18106 1 16.3711 141.65 46.6217
23723 2 15.4646 140.05 47.8947
18066 1 20.0143 141.643 49.1824
18078 1 19.0989 140.054 46.6158
23686 2 20.9208 140.05 47.8947
23725 2 18.193 141.646 47.9006
18093 1 11.8302 143.241 49.1874
18107 1 13.6432 143.246 46.6267
18138 1 10.9153 144.842 46.6308
23750 2 12.7372 144.84 47.9097
18067 1 17.2864 143.241 49.1874
18091 1 14.5585 144.839 49.1915
18109 1 16.3716 144.842 46.6308
23712 2 15.4651 143.243 47.9056
18069 1 20.0147 144.839 49.1915
18071 1 19.0995 143.246 46.6267
23685 2 20.9214 143.243 47.9056
23710 2 18.1934 144.84 47.9097
18092 1 11.8305 146.436 49.1948
18097 1 13.6436 146.438 46.634
18139 1 10.9156 148.034 46.6363
23745 2 12.7374 148.034 47.9152
18056 1 17.2868 146.436 49.1948
18094 1 14.5587 148.034 49.1971
18095 1 16.3718 148.034 46.6363
23711 2 15.4655 146.437 47.9129
18054 1 20.015 148.034 49.1971
18070 1 19.0998 146.438 46.634
23678 2 20.9217 146.437 47.9129
23713 2 18.1937 148.034 47.9152
18086 1 11.8307 149.632 49.1985
18096 1 13.6437 149.63 46.6377
18055 1 17.2869 149.632 49.1985
23699 2 15.4656 149.631 47.9167
18057 1 19.1 149.63 46.6377
23677 2 20.9219 149.631 47.9167
18100 1 12.7442 135.239 51.713
23759 2 10.9226 135.246 50.4318
23340 2 13.6503 133.647 50.4223
23719 2 16.3789 135.246 50.4318
17690 1 15.4719 133.64 51.7034
18074 1 18.2005 135.239 51.713
17660 1 20.9281 133.64 51.7034
23311 2 19.1065 133.647 50.4223
18101 1 12.745 138.438 51.7294
23720 2 13.6512 136.844 50.4404
23747 2 10.9234 138.443 50.4481
18064 1 15.4728 136.839 51.7216
23721 2 16.3797 138.443 50.4481
18032 1 20.929 136.839 51.7216
18062 1 18.2012 138.438 51.7294
23684 2 19.1074 136.844 50.4404
18089 1 12.7456 141.637 51.7421
23708 2 13.6519 140.041 50.4549
23748 2 10.924 141.64 50.4608
18063 1 15.4734 140.037 51.7362
23706 2 16.3803 141.64 50.4608
18031 1 20.9297 140.037 51.7362
18065 1 18.2018 141.637 51.7421
23683 2 19.1081 140.041 50.4549
18090 1 12.746 144.835 51.7513
23707 2 13.6524 143.238 50.4658
23743 2 10.9244 144.837 50.47
18052 1 15.474 143.236 51.7472
23709 2 16.3807 144.837 50.47
18030 1 20.9302 143.236 51.7472
18050 1 18.2023 144.835 51.7513
23676 2 19.1086 143.238 50.4658
18085 1 12.7463 148.034 51.7569
23698 2 13.6527 146.435 50.4732
23744 2 10.9247 148.034 50.4755
18051 1 15.4743 146.435 51.7546
23696 2 16.3809 148.034 50.4755
18024 1 20.9305 146.435 51.7546
18053 1 18.2025 148.034 51.7569
23675 2 19.1089 146.435 50.4732
23697 2 13.6529 149.632 50.477
18041 1 15.4745 149.633 51.7583
18023 1 20.9307 149.633 51.7583
23666 2 19.1091 149.632 50.477
18099 1 10.9325 135.226 54.2714
23700 2 12.7553 135.219 55.5486
17680 1 13.6602 133.625 54.2617
23338 2 11.8382 133.632 52.981
18059 1 16.3887 135.226 54.2714
23718 2 14.5668 135.233 52.9907
23300 2 15.4831 133.617 55.5388
23302 2 17.2945 133.632 52.981
23679 2 18.2116 135.219 55.5486
23680 2 20.023 135.233 52.9907
17658 1 19.1164 133.625 54.2617
23293 2 20.9393 133.617 55.5388
18060 1 13.661 136.827 54.2801
18087 1 10.9332 138.428 54.288
23701 2 12.7561 138.423 55.5653
23704 2 11.8391 136.833 52.9994
18061 1 16.3894 138.428 54.288
23669 2 15.4838 136.821 55.5574
23681 2 17.2953 136.833 52.9994
23702 2 14.5675 138.433 53.0072
18029 1 19.1172 136.827 54.2801
23657 2 20.9401 136.821 55.5574
23667 2 18.2123 138.423 55.5653
23682 2 20.0238 138.433 53.0072
18048 1 13.6616 140.029 54.2949
18088 1 10.9338 141.63 54.3009
23690 2 12.7566 141.626 55.5783
23703 2 11.8397 140.033 53.0141
18046 1 16.39 141.63 54.3009
23668 2 15.4845 140.025 55.5722
23673 2 17.296 140.033 53.0141
23705 2 14.5681 141.633 53.02
18028 1 19.1179 140.029 54.2949
23656 2 20.9407 140.025 55.5722
23670 2 18.2129 141.626 55.5783
23671 2 20.0244 141.633 53.02
18047 1 13.6621 143.231 54.306
18083 1 10.9342 144.832 54.3101
23691 2 12.757 144.83 55.5876
23694 2 11.8402 143.233 53.0251
18049 1 16.3904 144.832 54.3101
23661 2 15.485 143.228 55.5834
23672 2 17.2965 143.233 53.0251
23692 2 14.5685 144.833 53.0293
18022 1 19.1184 143.231 54.306
23655 2 20.9412 143.228 55.5834
23659 2 18.2133 144.83 55.5876
23674 2 20.0248 144.833 53.0293
18040 1 13.6624 146.433 54.3134
18084 1 10.9344 148.034 54.3157
23688 2 12.7573 148.034 55.5932
23693 2 11.8406 146.434 53.0325
18038 1 16.3907 148.034 54.3157
23660 2 15.4853 146.432 55.5908
23665 2 17.2968 146.434 53.0325
23695 2 14.5688 148.034 53.0348
23663 2 20.025 148.034 53.0348
23662 2 18.2135 148.034 55.5932
23654 2 20.9415 146.432 55.5908
18021 1 19.1187 146.433 54.3134
23689 2 11.8407 149.634 53.0363
18039 1 13.6626 149.635 54.3172
23664 2 17.297 149.634 53.0363
23658 2 15.4854 149.635 55.5946
23653 2 20.9417 149.635 55.5946
18016 1 19.1188 149.635 54.3172
23952 2 10.9445 135.206 58.1055
17678 1 11.849 133.61 56.819
23619 2 13.6722 133.602 58.0956
23945 2 16.4007 135.206 58.1055
18058 1 14.5775 135.213 56.8288
17653 1 17.3053 133.61 56.819
18025 1 20.0338 135.213 56.8288
23589 2 19.1285 133.602 58.0956
23946 2 13.6729 136.809 58.1144
23950 2 10.9452 138.413 58.1224
18044 1 11.8498 136.815 56.8377
23947 2 16.4014 138.413 58.1224
18026 1 17.306 136.815 56.8377
18042 1 14.5782 138.418 56.8456
23917 2 19.1292 136.809 58.1144
18027 1 20.0345 138.418 56.8456
23942 2 13.6736 140.016 58.1294
23951 2 10.9457 141.62 58.1355
18043 1 11.8504 140.021 56.8526
23940 2 16.4019 141.62 58.1355
18019 1 17.3067 140.021 56.8526
18045 1 14.5788 141.623 56.8587
23916 2 19.1298 140.016 58.1294
18017 1 20.035 141.623 56.8587
23941 2 13.674 143.223 58.1407
23948 2 10.9461 144.827 58.1449
18036 1 11.8509 143.226 56.8638
23943 2 16.4023 144.827 58.1449
18018 1 17.3071 143.226 56.8638
18034 1 14.5792 144.828 56.868
23911 2 19.1303 143.223 58.1407
18020 1 20.0354 144.828 56.868
23932 2 13.6743 146.43 58.1482
23949 2 10.9463 148.033 58.1506
18035 1 11.8512 146.431 56.8713
23930 2 16.4026 148.033 58.1506
18015 1 17.3074 146.431 56.8713
18037 1 14.5794 148.034 56.8736
23910 2 19.1306 146.43 58.1482
18013 1 20.0357 148.034 56.8736
23931 2 13.6745 149.637 58.152
18033 1 11.8514 149.636 56.8751
18014 1 17.3076 149.636 56.8751
23897 2 19.1307 149.637 58.152
18311 1 12.767 135.199 59.3853
18310 1 10.9569 135.186 61.9409
17961 1 13.6847 133.58 61.9308
23617 2 11.8619 133.587 60.6514
17975 1 15.4947 133.595 59.3753
18295 1 16.4132 135.186 61.9409
23944 2 14.5904 135.192 60.6614
23569 2 17.3182 133.587 60.6514
18302 1 18.2232 135.199 59.3853
17927 1 20.9509 133.595 59.3753
23913 2 20.0467 135.192 60.6614
17925 1 19.1409 133.58 61.9308
18312 1 12.7676 138.408 59.4023
18296 1 13.6854 136.792 61.95
18306 1 10.9576 138.398 61.9582
23938 2 11.8626 136.797 60.6704
18300 1 15.4954 136.803 59.3943
18297 1 16.4138 138.398 61.9582
23914 2 17.3189 136.797 60.6704
23936 2 14.5911 138.403 60.6785
18262 1 20.9517 136.803 59.3943
18298 1 18.2239 138.408 59.4023
18259 1 19.1416 136.792 61.95
23915 2 20.0473 138.403 60.6785
18308 1 12.7682 141.616 59.4155
18288 1 13.686 140.003 61.9653
18307 1 10.9581 141.609 61.9715
23937 2 11.8632 140.008 60.6856
18299 1 15.496 140.012 59.4094
18286 1 16.4143 141.609 61.9715
23908 2 17.3195 140.008 60.6856
23939 2 14.5916 141.613 60.6918
18261 1 20.9523 140.012 59.4094
18301 1 18.2244 141.616 59.4155
18258 1 19.1422 140.003 61.9653
23906 2 20.0478 141.613 60.6918
18309 1 12.7685 144.825 59.4249
18287 1 13.6864 143.215 61.9767
18303 1 10.9585 144.821 61.981
23928 2 11.8637 143.218 60.697
18292 1 15.4965 143.221 59.4207
18289 1 16.4147 144.821 61.981
23907 2 17.3199 143.218 60.697
23926 2 14.592 144.823 60.7012
18260 1 20.9527 143.221 59.4207
18290 1 18.2248 144.825 59.4249
18251 1 19.1427 143.215 61.9767
23909 2 20.0482 144.823 60.7012
18305 1 12.7688 148.033 59.4306
18277 1 13.6867 146.427 61.9843
18304 1 10.9587 148.033 61.9866
23927 2 11.864 146.428 60.7045
18291 1 15.4968 146.429 59.4282
18275 1 16.415 148.033 61.9866
23896 2 17.3202 146.428 60.7045
23929 2 14.5922 148.033 60.7069
18253 1 20.953 146.429 59.4282
18293 1 18.225 148.033 59.4306
18250 1 19.143 146.427 61.9843
23894 2 20.0485 148.033 60.7069
18276 1 13.6869 149.639 61.9881
23921 2 11.8642 149.638 60.7084
18278 1 15.497 149.638 59.432
23895 2 17.3204 149.638 60.7084
18252 1 20.9532 149.638 59.432
18237 1 19.1431 149.639 61.9881
23933 2 10.9714 135.165 65.77
23934 2 12.7807 135.179 63.2163
17959 1 11.8751 133.564 64.4858
23553 2 13.6991 133.557 65.7597
18294 1 14.6036 135.172 64.4961
23899 2 16.4276 135.165 65.77
17906 1 17.3314 133.564 64.4858
23567 2 15.5084 133.572 63.2061
18255 1 20.0598 135.172 64.4961
23912 2 18.2369 135.179 63.2163
23517 2 19.1554 133.557 65.7597
23519 2 20.9647 133.572 63.2061
18284 1 11.8758 136.78 64.5053
23900 2 13.6999 136.774 65.7792
23922 2 10.9721 138.382 65.7874
23935 2 12.7813 138.392 63.2336
18256 1 17.3321 136.78 64.5053
18282 1 14.6043 138.387 64.5135
23901 2 16.4283 138.382 65.7874
23904 2 15.5091 136.786 63.2255
18257 1 20.0605 138.387 64.5135
23859 2 19.1561 136.774 65.7792
23862 2 20.9654 136.786 63.2255
23902 2 18.2375 138.392 63.2336
18283 1 11.8764 139.995 64.5207
23888 2 13.7005 139.991 65.7947
23923 2 10.9726 141.599 65.8009
23924 2 12.7818 141.606 63.247
18248 1 17.3327 139.995 64.5207
18285 1 14.6048 141.603 64.5269
23886 2 16.4288 141.599 65.8009
23903 2 15.5097 139.999 63.2408
18246 1 20.061 141.603 64.5269
23858 2 19.1567 139.991 65.7947
23861 2 20.9659 139.999 63.2408
23905 2 18.2381 141.606 63.247
18273 1 11.8769 143.21 64.5321
23887 2 13.7009 143.207 65.8062
23918 2 10.973 144.816 65.8105
23925 2 12.7822 144.819 63.2565
18247 1 17.3331 143.21 64.5321
18271 1 14.6052 144.818 64.5364
23889 2 16.4292 144.816 65.8105
23892 2 15.5102 143.213 63.2522
18249 1 20.0614 144.818 64.5364
23851 2 19.1572 143.207 65.8062
23860 2 20.9664 143.213 63.2522
23890 2 18.2385 144.819 63.2565
18272 1 11.8772 146.425 64.5398
23877 2 13.7013 146.424 65.8139
23919 2 10.9733 148.032 65.8163
23920 2 12.7825 148.033 63.2622
18236 1 17.3334 146.425 64.5398
18274 1 14.6054 148.033 64.5421
23875 2 16.4295 148.032 65.8163
23891 2 15.5105 146.426 63.2598
18234 1 20.0617 148.033 64.5421
23850 2 19.1575 146.424 65.8139
23853 2 20.9667 146.426 63.2598
23893 2 18.2387 148.033 63.2622
18266 1 11.8774 149.64 64.5436
23876 2 13.7014 149.641 65.8177
18235 1 17.3336 149.64 64.5436
23878 2 15.5106 149.639 63.2637
23837 2 19.1577 149.641 65.8177
23852 2 20.9669 149.639 63.2637
18280 1 12.7944 135.159 67.0516
23551 2 11.8902 133.541 68.3112
23898 2 14.6188 135.152 68.3216
17904 1 15.5221 133.55 67.0413
23500 2 17.3465 133.541 68.3112
18254 1 18.2506 135.159 67.0516
23855 2 20.075 135.152 68.3216
17865 1 20.9783 133.55 67.0413
18281 1 12.795 138.378 67.0692
23884 2 11.891 136.762 68.3309
18244 1 15.5228 136.768 67.0609
23856 2 17.3472 136.762 68.3309
23882 2 14.6195 138.372 68.3392
18207 1 20.9791 136.768 67.0609
18242 1 18.2513 138.378 67.0692
23857 2 20.0757 138.372 68.3392
18269 1 12.7956 141.596 67.0827
23883 2 11.8917 139.982 68.3465
18243 1 15.5235 139.987 67.0764
23848 2 17.3479 139.982 68.3465
23885 2 14.62 141.592 68.3528
18206 1 20.9797 139.987 67.0764
18245 1 18.2518 141.596 67.0827
23846 2 20.0763 141.592 68.3528
18270 1 12.796 144.815 67.0923
23873 2 11.8922 143.202 68.3581
18232 1 15.5239 143.205 67.088
23847 2 17.3484 143.202 68.3581
23871 2 14.6205 144.812 68.3624
18205 1 20.9802 143.205 67.088
18230 1 18.2523 144.815 67.0923
23849 2 20.0767 144.812 68.3624
18265 1 12.7963 148.033 67.098
23872 2 11.8925 146.422 68.3658
18231 1 15.5243 146.424 67.0956
23836 2 17.3487 146.422 68.3658
23874 2 14.6207 148.032 68.3682
18198 1 20.9805 146.424 67.0956
18233 1 18.2525 148.033 67.098
23834 2 20.077 148.032 68.3682
23866 2 11.8927 149.642 68.3696
18219 1 15.5245 149.642 67.0995
23835 2 17.3489 149.642 68.3696
18197 1 20.9807 149.642 67.0995
18279 1 10.9847 135.145 69.6109
23880 2 12.8099 135.137 70.8682
17890 1 11.8979 133.518 72.1763
17892 1 13.7124 133.534 69.6005
18238 1 14.6265 135.131 72.1867
18239 1 16.4409 135.145 69.6109
17854 1 17.3542 133.518 72.1763
23498 2 15.5376 133.526 70.8577
18200 1 20.0828 135.131 72.1867
23854 2 18.2662 135.137 70.8682
17863 1 19.1686 133.534 69.6005
23468 2 20.9938 133.526 70.8577
18224 1 11.8989 136.744 72.1961
18240 1 13.7132 136.756 69.6202
18267 1 10.9854 138.367 69.6286
23881 2 12.8107 138.361 70.8859
18201 1 17.3551 136.744 72.1961
18222 1 14.6274 138.357 72.2045
18241 1 16.4417 138.367 69.6286
23844 2 15.5384 136.749 70.8775
18202 1 20.0836 138.357 72.2045
18204 1 19.1694 136.756 69.6202
23812 2 20.9947 136.749 70.8775
23842 2 18.2669 138.361 70.8859
18223 1 11.8996 139.969 72.2119
18228 1 13.7139 139.978 69.6359
18268 1 10.986 141.589 69.6422
23869 2 12.8113 141.584 70.8996
18193 1 17.3559 139.969 72.2119
18225 1 14.6281 141.582 72.2182
18226 1 16.4423 141.589 69.6422
23843 2 15.5391 139.973 70.8932
18191 1 20.0843 141.582 72.2182
18203 1 19.1701 139.978 69.6359
23811 2 20.9954 139.973 70.8932
23845 2 18.2675 141.584 70.8996
18214 1 11.9002 143.194 72.2236
18227 1 13.7144 143.2 69.6475
18263 1 10.9865 144.811 69.6519
23870 2 12.8118 144.807 70.9093
18192 1 17.3565 143.194 72.2236
18212 1 14.6286 144.807 72.2279
18229 1 16.4427 144.811 69.6519
23832 2 15.5397 143.196 70.9049
18194 1 20.0848 144.807 72.2279
18196 1 19.1706 143.2 69.6475
23810 2 20.9959 143.196 70.9049
23830 2 18.268 144.807 70.9093
18213 1 11.9006 146.419 72.2313
18218 1 13.7148 146.422 69.6552
18264 1 10.9867 148.032 69.6576
23865 2 12.812 148.031 70.9151
18185 1 17.3569 146.419 72.2313
18215 1 14.6289 148.032 72.2338
18216 1 16.443 148.032 69.6576
23831 2 15.54 146.419 70.9126
18183 1 20.0851 148.032 72.2338
18195 1 19.171 146.422 69.6552
23804 2 20.9963 146.419 70.9126
23833 2 18.2683 148.031 70.9151
18209 1 11.9009 149.644 72.2352
18217 1 13.7149 149.643 69.6591
18184 1 17.3571 149.644 72.2352
23821 2 15.5402 149.642 70.9165
18186 1 19.1712 149.643 69.6591
23803 2 20.9965 149.642 70.9165
18220 1 12.7532 135.118 74.8379
23879 2 10.9994 135.123 73.4001
23486 2 11.8891 133.495 75.864
23488 2 13.727 133.51 73.3896
23838 2 14.6178 135.11 75.8745
23839 2 16.4556 135.123 73.4001
17852 1 15.4807 133.503 74.8274
23461 2 17.3453 133.495 75.864
18199 1 18.2095 135.118 74.8379
23805 2 20.0741 135.11 75.8745
17845 1 20.937 133.503 74.8274
23466 2 19.1832 133.51 73.3896
18221 1 12.7544 138.347 74.8558
23824 2 11.8902 136.725 75.8839
23840 2 13.728 136.736 73.4095
23867 2 11.0002 138.35 73.4179
18189 1 15.4819 136.732 74.8474
23806 2 17.3465 136.725 75.8839
23822 2 14.6189 138.34 75.8924
23841 2 16.4565 138.35 73.4179
18177 1 20.9382 136.732 74.8474
18187 1 18.2106 138.347 74.8558
23807 2 20.0751 138.34 75.8924
23809 2 19.1842 136.736 73.4095
18210 1 12.7553 141.576 74.8695
23823 2 11.8912 139.955 75.8998
23828 2 13.7287 139.963 73.4253
23868 2 11.0009 141.576 73.4317
18188 1 15.483 139.962 74.8631
23799 2 17.3474 139.955 75.8998
23825 2 14.6197 141.57 75.9062
23826 2 16.4572 141.576 73.4317
18176 1 20.9392 139.962 74.8631
18190 1 18.2115 141.576 74.8695
23797 2 20.0759 141.57 75.9062
23808 2 19.185 139.963 73.4253
18211 1 12.7559 144.806 74.8793
23816 2 11.8919 143.185 75.9116
23827 2 13.7293 143.19 73.437
23863 2 11.0014 144.803 73.4414
18181 1 15.4837 143.191 74.8749
23798 2 17.3481 143.185 75.9116
23814 2 14.6203 144.8 75.916
23829 2 16.4577 144.803 73.4414
18175 1 20.94 143.191 74.8749
18179 1 18.2121 144.806 74.8793
23800 2 20.0765 144.8 75.916
23802 2 19.1856 143.19 73.437
18208 1 12.7563 148.035 74.8851
23815 2 11.8924 146.415 75.9194
23820 2 13.7297 146.416 73.4448
23864 2 11.0017 148.029 73.4473
18180 1 15.4843 146.42 74.8827
23795 2 17.3486 146.415 75.9194
23817 2 14.6206 148.03 75.9219
23818 2 16.458 148.029 73.4473
18174 1 20.9405 146.42 74.8827
18182 1 18.2125 148.035 74.8851
23793 2 20.0769 148.03 75.9219
23801 2 19.186 146.416 73.4448
23813 2 11.8926 149.645 75.9233
23819 2 13.7299 149.642 73.4487
18178 1 15.4845 149.65 74.8866
23794 2 17.3489 149.645 75.9233
18173 1 20.9408 149.65 74.8866
23796 2 19.1862 149.642 73.4487
